    1C
    1UUSER                                                              
    1UDATE              12.july.2025                                    
    1UTIME              23:12:59                                        
    1UHOST                                                              
    1UPGM               CalculiX                                        
    1UVERSION           Version 2.22                             
    1UCOMPILETIME       Mon Aug  5 19:15:25 CEST 2024                    
    1UDIR                                                               
    1UDBN                                                               
    1UMAT    1STEEL                                                     
    2C                          8149                                     1
 -1         1-9.97930E+00-1.50000E+01 4.54545E-01
 -1         2-1.04772E+01-1.50000E+01-2.77556E-16
 -1         3-1.04772E+01 1.50000E+01-2.77556E-16
 -1         4-9.97930E+00 1.50000E+01 4.54545E-01
 -1         5-5.00000E+00-1.50000E+01 5.00000E+00
 -1         6-5.00000E+00 1.50000E+01 5.00000E+00
 -1         7-4.00000E+01 1.50000E+01-2.77556E-16
 -1         8-4.00000E+01 1.50000E+01 1.00000E+01
 -1         9 4.00000E+01 1.50000E+01 1.00000E+01
 -1        10 4.00000E+01 1.50000E+01-2.77556E-16
 -1        11 1.04772E+01 1.50000E+01-2.77556E-16
 -1        12 9.97930E+00 1.50000E+01 4.54545E-01
 -1        13 5.00000E+00 1.50000E+01 5.00000E+00
 -1        14 1.04772E+01-1.50000E+01-2.77556E-16
 -1        15 9.97930E+00-1.50000E+01 4.54545E-01
 -1        16 5.00000E+00-1.50000E+01 5.00000E+00
 -1        17 4.00000E+01-1.50000E+01-2.77556E-16
 -1        18 4.00000E+01-1.50000E+01 1.00000E+01
 -1        19-4.00000E+01-1.50000E+01 1.00000E+01
 -1        20-4.00000E+01-1.50000E+01-2.77556E-16
 -1        21-1.01401E+01-1.50000E+01 1.30726E-01
 -1        22-1.00294E+01-1.50000E+01 2.77589E-01
 -1        23-1.02964E+01-1.50000E+01 3.38256E-02
 -1        24-1.04772E+01-1.20000E+01-2.77556E-16
 -1        25-1.04772E+01-9.00000E+00-2.77556E-16
 -1        26-1.04772E+01-6.00000E+00-2.77556E-16
 -1        27-1.04772E+01-3.00000E+00-2.77556E-16
 -1        28-1.04772E+01 0.00000E+00-2.77556E-16
 -1        29-1.04772E+01 3.00000E+00-2.77556E-16
 -1        30-1.04772E+01 6.00000E+00-2.77556E-16
 -1        31-1.04772E+01 9.00000E+00-2.77556E-16
 -1        32-1.04772E+01 1.20000E+01-2.77556E-16
 -1        33-1.04772E+01-1.35000E+01-2.77556E-16
 -1        34-1.04772E+01-1.05000E+01-2.77556E-16
 -1        35-1.04772E+01-7.50000E+00-2.77556E-16
 -1        36-1.04772E+01-4.50000E+00-2.77556E-16
 -1        37-1.04772E+01-1.50000E+00-2.77556E-16
 -1        38-1.04772E+01 1.50000E+00-2.77556E-16
 -1        39-1.04772E+01 4.50000E+00-2.77556E-16
 -1        40-1.04772E+01 7.50000E+00-2.77556E-16
 -1        41-1.04772E+01 1.05000E+01-2.77556E-16
 -1        42-1.04772E+01 1.35000E+01-2.77556E-16
 -1        43-1.01401E+01 1.50000E+01 1.30726E-01
 -1        44-1.02964E+01 1.50000E+01 3.38256E-02
 -1        45-1.00294E+01 1.50000E+01 2.77589E-01
 -1        46-9.97930E+00 1.20000E+01 4.54545E-01
 -1        47-9.97930E+00 9.00000E+00 4.54545E-01
 -1        48-9.97930E+00 6.00000E+00 4.54545E-01
 -1        49-9.97930E+00 3.00000E+00 4.54545E-01
 -1        50-9.97930E+00 0.00000E+00 4.54545E-01
 -1        51-9.97930E+00-3.00000E+00 4.54545E-01
 -1        52-9.97930E+00-6.00000E+00 4.54545E-01
 -1        53-9.97930E+00-9.00000E+00 4.54545E-01
 -1        54-9.97930E+00-1.20000E+01 4.54545E-01
 -1        55-9.97930E+00 1.35000E+01 4.54545E-01
 -1        56-9.97930E+00 1.05000E+01 4.54545E-01
 -1        57-9.97930E+00 7.50000E+00 4.54545E-01
 -1        58-9.97930E+00 4.50000E+00 4.54545E-01
 -1        59-9.97930E+00 1.50000E+00 4.54545E-01
 -1        60-9.97930E+00-1.50000E+00 4.54545E-01
 -1        61-9.97930E+00-4.50000E+00 4.54545E-01
 -1        62-9.97930E+00-7.50000E+00 4.54545E-01
 -1        63-9.97930E+00-1.05000E+01 4.54545E-01
 -1        64-9.97930E+00-1.35000E+01 4.54545E-01
 -1        65-9.17052E+00-1.50000E+01 2.75803E+00
 -1        66-7.36747E+00-1.50000E+01 4.40398E+00
 -1        67-9.71766E+00-1.50000E+01 1.65641E+00
 -1        68-8.37100E+00-1.50000E+01 3.69274E+00
 -1        69-6.22067E+00-1.50000E+01 4.84871E+00
 -1        70-5.00000E+00-1.20000E+01 5.00000E+00
 -1        71-5.00000E+00-9.00000E+00 5.00000E+00
 -1        72-5.00000E+00-6.00000E+00 5.00000E+00
 -1        73-5.00000E+00-3.00000E+00 5.00000E+00
 -1        74-5.00000E+00 0.00000E+00 5.00000E+00
 -1        75-5.00000E+00 3.00000E+00 5.00000E+00
 -1        76-5.00000E+00 6.00000E+00 5.00000E+00
 -1        77-5.00000E+00 9.00000E+00 5.00000E+00
 -1        78-5.00000E+00 1.20000E+01 5.00000E+00
 -1        79-5.00000E+00-1.35000E+01 5.00000E+00
 -1        80-5.00000E+00-1.05000E+01 5.00000E+00
 -1        81-5.00000E+00-7.50000E+00 5.00000E+00
 -1        82-5.00000E+00-4.50000E+00 5.00000E+00
 -1        83-5.00000E+00-1.50000E+00 5.00000E+00
 -1        84-5.00000E+00 1.50000E+00 5.00000E+00
 -1        85-5.00000E+00 4.50000E+00 5.00000E+00
 -1        86-5.00000E+00 7.50000E+00 5.00000E+00
 -1        87-5.00000E+00 1.05000E+01 5.00000E+00
 -1        88-5.00000E+00 1.35000E+01 5.00000E+00
 -1        89-7.36747E+00 1.50000E+01 4.40398E+00
 -1        90-9.17052E+00 1.50000E+01 2.75803E+00
 -1        91-6.22067E+00 1.50000E+01 4.84871E+00
 -1        92-8.37100E+00 1.50000E+01 3.69274E+00
 -1        93-9.71766E+00 1.50000E+01 1.65641E+00
 -1        94-1.34295E+01 1.50000E+01-2.77556E-16
 -1        95-1.63818E+01 1.50000E+01-2.77556E-16
 -1        96-1.93341E+01 1.50000E+01-2.77556E-16
 -1        97-2.22863E+01 1.50000E+01-2.77556E-16
 -1        98-2.52386E+01 1.50000E+01-2.77556E-16
 -1        99-2.81909E+01 1.50000E+01-2.77556E-16
 -1       100-3.11432E+01 1.50000E+01-2.77556E-16
 -1       101-3.40954E+01 1.50000E+01-2.77556E-16
 -1       102-3.70477E+01 1.50000E+01-2.77556E-16
 -1       103-1.19534E+01 1.50000E+01-2.77556E-16
 -1       104-1.49056E+01 1.50000E+01-2.77556E-16
 -1       105-1.78579E+01 1.50000E+01-2.77556E-16
 -1       106-2.08102E+01 1.50000E+01-2.77556E-16
 -1       107-2.37625E+01 1.50000E+01-2.77556E-16
 -1       108-2.67148E+01 1.50000E+01-2.77556E-16
 -1       109-2.96670E+01 1.50000E+01-2.77556E-16
 -1       110-3.26193E+01 1.50000E+01-2.77556E-16
 -1       111-3.55716E+01 1.50000E+01-2.77556E-16
 -1       112-3.85239E+01 1.50000E+01-2.77556E-16
 -1       113-4.00000E+01 1.50000E+01 2.50000E+00
 -1       114-4.00000E+01 1.50000E+01 5.00000E+00
 -1       115-4.00000E+01 1.50000E+01 7.50000E+00
 -1       116-4.00000E+01 1.50000E+01 1.25000E+00
 -1       117-4.00000E+01 1.50000E+01 3.75000E+00
 -1       118-4.00000E+01 1.50000E+01 6.25000E+00
 -1       119-4.00000E+01 1.50000E+01 8.75000E+00
 -1       120-3.70370E+01 1.50000E+01 1.00000E+01
 -1       121-3.40741E+01 1.50000E+01 1.00000E+01
 -1       122-3.11111E+01 1.50000E+01 1.00000E+01
 -1       123-2.81481E+01 1.50000E+01 1.00000E+01
 -1       124-2.51852E+01 1.50000E+01 1.00000E+01
 -1       125-2.22222E+01 1.50000E+01 1.00000E+01
 -1       126-1.92593E+01 1.50000E+01 1.00000E+01
 -1       127-1.62963E+01 1.50000E+01 1.00000E+01
 -1       128-1.33333E+01 1.50000E+01 1.00000E+01
 -1       129-1.03704E+01 1.50000E+01 1.00000E+01
 -1       130-7.40741E+00 1.50000E+01 1.00000E+01
 -1       131-4.44444E+00 1.50000E+01 1.00000E+01
 -1       132-1.48148E+00 1.50000E+01 1.00000E+01
 -1       133 1.48148E+00 1.50000E+01 1.00000E+01
 -1       134 4.44444E+00 1.50000E+01 1.00000E+01
 -1       135 7.40741E+00 1.50000E+01 1.00000E+01
 -1       136 1.03704E+01 1.50000E+01 1.00000E+01
 -1       137 1.33333E+01 1.50000E+01 1.00000E+01
 -1       138 1.62963E+01 1.50000E+01 1.00000E+01
 -1       139 1.92593E+01 1.50000E+01 1.00000E+01
 -1       140 2.22222E+01 1.50000E+01 1.00000E+01
 -1       141 2.51852E+01 1.50000E+01 1.00000E+01
 -1       142 2.81481E+01 1.50000E+01 1.00000E+01
 -1       143 3.11111E+01 1.50000E+01 1.00000E+01
 -1       144 3.40741E+01 1.50000E+01 1.00000E+01
 -1       145 3.70370E+01 1.50000E+01 1.00000E+01
 -1       146-3.85185E+01 1.50000E+01 1.00000E+01
 -1       147-3.55556E+01 1.50000E+01 1.00000E+01
 -1       148-3.25926E+01 1.50000E+01 1.00000E+01
 -1       149-2.96296E+01 1.50000E+01 1.00000E+01
 -1       150-2.66667E+01 1.50000E+01 1.00000E+01
 -1       151-2.37037E+01 1.50000E+01 1.00000E+01
 -1       152-2.07407E+01 1.50000E+01 1.00000E+01
 -1       153-1.77778E+01 1.50000E+01 1.00000E+01
 -1       154-1.48148E+01 1.50000E+01 1.00000E+01
 -1       155-1.18519E+01 1.50000E+01 1.00000E+01
 -1       156-8.88889E+00 1.50000E+01 1.00000E+01
 -1       157-5.92593E+00 1.50000E+01 1.00000E+01
 -1       158-2.96296E+00 1.50000E+01 1.00000E+01
 -1       159-9.23706E-14 1.50000E+01 1.00000E+01
 -1       160 2.96296E+00 1.50000E+01 1.00000E+01
 -1       161 5.92593E+00 1.50000E+01 1.00000E+01
 -1       162 8.88889E+00 1.50000E+01 1.00000E+01
 -1       163 1.18519E+01 1.50000E+01 1.00000E+01
 -1       164 1.48148E+01 1.50000E+01 1.00000E+01
 -1       165 1.77778E+01 1.50000E+01 1.00000E+01
 -1       166 2.07407E+01 1.50000E+01 1.00000E+01
 -1       167 2.37037E+01 1.50000E+01 1.00000E+01
 -1       168 2.66667E+01 1.50000E+01 1.00000E+01
 -1       169 2.96296E+01 1.50000E+01 1.00000E+01
 -1       170 3.25926E+01 1.50000E+01 1.00000E+01
 -1       171 3.55556E+01 1.50000E+01 1.00000E+01
 -1       172 3.85185E+01 1.50000E+01 1.00000E+01
 -1       173 4.00000E+01 1.50000E+01 7.50000E+00
 -1       174 4.00000E+01 1.50000E+01 5.00000E+00
 -1       175 4.00000E+01 1.50000E+01 2.50000E+00
 -1       176 4.00000E+01 1.50000E+01 8.75000E+00
 -1       177 4.00000E+01 1.50000E+01 6.25000E+00
 -1       178 4.00000E+01 1.50000E+01 3.75000E+00
 -1       179 4.00000E+01 1.50000E+01 1.25000E+00
 -1       180 3.70477E+01 1.50000E+01-2.77556E-16
 -1       181 3.40954E+01 1.50000E+01-2.77556E-16
 -1       182 3.11432E+01 1.50000E+01-2.77556E-16
 -1       183 2.81909E+01 1.50000E+01-2.77556E-16
 -1       184 2.52386E+01 1.50000E+01-2.77556E-16
 -1       185 2.22863E+01 1.50000E+01-2.77556E-16
 -1       186 1.93341E+01 1.50000E+01-2.77556E-16
 -1       187 1.63818E+01 1.50000E+01-2.77556E-16
 -1       188 1.34295E+01 1.50000E+01-2.77556E-16
 -1       189 3.85239E+01 1.50000E+01-2.77556E-16
 -1       190 3.55716E+01 1.50000E+01-2.77556E-16
 -1       191 3.26193E+01 1.50000E+01-2.77556E-16
 -1       192 2.96670E+01 1.50000E+01-2.77556E-16
 -1       193 2.67148E+01 1.50000E+01-2.77556E-16
 -1       194 2.37625E+01 1.50000E+01-2.77556E-16
 -1       195 2.08102E+01 1.50000E+01-2.77556E-16
 -1       196 1.78579E+01 1.50000E+01-2.77556E-16
 -1       197 1.49056E+01 1.50000E+01-2.77556E-16
 -1       198 1.19534E+01 1.50000E+01-2.77556E-16
 -1       199 1.01186E+01 1.50000E+01 1.51612E-01
 -1       200 1.00093E+01 1.50000E+01 3.23848E-01
 -1       201 1.03403E+01 1.50000E+01 1.91117E-02
 -1       202 9.17052E+00 1.50000E+01 2.75803E+00
 -1       203 7.36747E+00 1.50000E+01 4.40398E+00
 -1       204 9.71760E+00 1.50000E+01 1.65658E+00
 -1       205 8.37100E+00 1.50000E+01 3.69274E+00
 -1       206 6.22077E+00 1.50000E+01 4.84868E+00
 -1       207 2.50000E+00 1.50000E+01 5.00000E+00
 -1       208 1.19904E-14 1.50000E+01 5.00000E+00
 -1       209-2.50000E+00 1.50000E+01 5.00000E+00
 -1       210 3.75000E+00 1.50000E+01 5.00000E+00
 -1       211 1.25000E+00 1.50000E+01 5.00000E+00
 -1       212-1.25000E+00 1.50000E+01 5.00000E+00
 -1       213-3.75000E+00 1.50000E+01 5.00000E+00
 -1       214 1.04772E+01 1.20110E+01-2.77556E-16
 -1       215 1.04772E+01 9.00004E+00-2.77556E-16
 -1       216 1.04772E+01 6.00724E+00-2.77556E-16
 -1       217 1.04772E+01 2.99994E+00-2.77556E-16
 -1       218 1.04772E+01 1.74738E-03-2.77556E-16
 -1       219 1.04772E+01-3.00448E+00-2.77556E-16
 -1       220 1.04772E+01-6.00290E+00-2.77556E-16
 -1       221 1.04772E+01-9.00000E+00-2.77556E-16
 -1       222 1.04772E+01-1.20232E+01-2.77556E-16
 -1       223 1.04772E+01 1.35026E+01-2.77556E-16
 -1       224 1.04772E+01 1.05004E+01-2.77556E-16
 -1       225 1.04772E+01 7.49955E+00-2.77556E-16
 -1       226 1.04772E+01 4.50014E+00-2.77556E-16
 -1       227 1.04772E+01 1.49849E+00-2.77556E-16
 -1       228 1.04772E+01-1.50102E+00-2.77556E-16
 -1       229 1.04772E+01-4.49868E+00-2.77556E-16
 -1       230 1.04772E+01-7.49979E+00-2.77556E-16
 -1       231 1.04772E+01-1.05017E+01-2.77556E-16
 -1       232 1.04772E+01-1.34998E+01-2.77556E-16
 -1       233 1.01597E+01-1.50000E+01 1.13786E-01
 -1       234 1.03364E+01-1.50000E+01 2.02376E-02
 -1       235 1.00104E+01-1.50000E+01 3.20782E-01
 -1       236 9.97930E+00-1.20158E+01 4.54545E-01
 -1       237 9.97930E+00-9.00000E+00 4.54545E-01
 -1       238 9.97930E+00-5.99938E+00 4.54545E-01
 -1       239 9.97930E+00-2.99936E+00 4.54545E-01
 -1       240 9.97930E+00 1.50860E-03 4.54545E-01
 -1       241 9.97930E+00 3.00135E+00 4.54545E-01
 -1       242 9.97930E+00 5.99850E+00 4.54545E-01
 -1       243 9.97930E+00 9.00000E+00 4.54545E-01
 -1       244 9.97930E+00 1.20032E+01 4.54545E-01
 -1       245 9.97930E+00-1.35038E+01 4.54545E-01
 -1       246 9.97930E+00-1.05004E+01 4.54545E-01
 -1       247 9.97930E+00-7.50020E+00 4.54545E-01
 -1       248 9.97930E+00-4.50057E+00 4.54545E-01
 -1       249 9.97930E+00-1.50217E+00 4.54545E-01
 -1       250 9.97930E+00 1.49795E+00 4.54545E-01
 -1       251 9.97930E+00 4.50173E+00 4.54545E-01
 -1       252 9.97930E+00 7.50140E+00 4.54545E-01
 -1       253 9.97930E+00 1.05011E+01 4.54545E-01
 -1       254 9.97930E+00 1.35056E+01 4.54545E-01
 -1       255 5.00000E+00-1.20000E+01 5.00000E+00
 -1       256 5.00000E+00-9.00000E+00 5.00000E+00
 -1       257 5.00000E+00-6.00000E+00 5.00000E+00
 -1       258 5.00000E+00-3.00000E+00 5.00000E+00
 -1       259 5.00000E+00 0.00000E+00 5.00000E+00
 -1       260 5.00000E+00 3.00000E+00 5.00000E+00
 -1       261 5.00000E+00 6.00000E+00 5.00000E+00
 -1       262 5.00000E+00 9.00000E+00 5.00000E+00
 -1       263 5.00000E+00 1.20000E+01 5.00000E+00
 -1       264 5.00000E+00-1.35000E+01 5.00000E+00
 -1       265 5.00000E+00-1.05000E+01 5.00000E+00
 -1       266 5.00000E+00-7.50000E+00 5.00000E+00
 -1       267 5.00000E+00-4.50000E+00 5.00000E+00
 -1       268 5.00000E+00-1.50000E+00 5.00000E+00
 -1       269 5.00000E+00 1.50000E+00 5.00000E+00
 -1       270 5.00000E+00 4.50000E+00 5.00000E+00
 -1       271 5.00000E+00 7.50000E+00 5.00000E+00
 -1       272 5.00000E+00 1.05000E+01 5.00000E+00
 -1       273 5.00000E+00 1.35000E+01 5.00000E+00
 -1       274 7.36747E+00-1.50000E+01 4.40398E+00
 -1       275 9.17052E+00-1.50000E+01 2.75803E+00
 -1       276 6.22067E+00-1.50000E+01 4.84871E+00
 -1       277 8.37100E+00-1.50000E+01 3.69274E+00
 -1       278 9.71760E+00-1.50000E+01 1.65656E+00
 -1       279-2.50000E+00-1.50000E+01 5.00000E+00
 -1       280-1.19904E-14-1.50000E+01 5.00000E+00
 -1       281 2.50000E+00-1.50000E+01 5.00000E+00
 -1       282-3.75000E+00-1.50000E+01 5.00000E+00
 -1       283-1.25000E+00-1.50000E+01 5.00000E+00
 -1       284 1.25000E+00-1.50000E+01 5.00000E+00
 -1       285 3.75000E+00-1.50000E+01 5.00000E+00
 -1       286 1.34295E+01-1.50000E+01-2.77556E-16
 -1       287 1.63818E+01-1.50000E+01-2.77556E-16
 -1       288 1.93341E+01-1.50000E+01-2.77556E-16
 -1       289 2.22863E+01-1.50000E+01-2.77556E-16
 -1       290 2.52386E+01-1.50000E+01-2.77556E-16
 -1       291 2.81909E+01-1.50000E+01-2.77556E-16
 -1       292 3.11432E+01-1.50000E+01-2.77556E-16
 -1       293 3.40954E+01-1.50000E+01-2.77556E-16
 -1       294 3.70477E+01-1.50000E+01-2.77556E-16
 -1       295 1.19534E+01-1.50000E+01-2.77556E-16
 -1       296 1.49056E+01-1.50000E+01-2.77556E-16
 -1       297 1.78579E+01-1.50000E+01-2.77556E-16
 -1       298 2.08102E+01-1.50000E+01-2.77556E-16
 -1       299 2.37625E+01-1.50000E+01-2.77556E-16
 -1       300 2.67148E+01-1.50000E+01-2.77556E-16
 -1       301 2.96670E+01-1.50000E+01-2.77556E-16
 -1       302 3.26193E+01-1.50000E+01-2.77556E-16
 -1       303 3.55716E+01-1.50000E+01-2.77556E-16
 -1       304 3.85239E+01-1.50000E+01-2.77556E-16
 -1       305 4.00000E+01-1.50000E+01 2.50000E+00
 -1       306 4.00000E+01-1.50000E+01 5.00000E+00
 -1       307 4.00000E+01-1.50000E+01 7.50000E+00
 -1       308 4.00000E+01-1.50000E+01 1.25000E+00
 -1       309 4.00000E+01-1.50000E+01 3.75000E+00
 -1       310 4.00000E+01-1.50000E+01 6.25000E+00
 -1       311 4.00000E+01-1.50000E+01 8.75000E+00
 -1       312 3.70370E+01-1.50000E+01 1.00000E+01
 -1       313 3.40741E+01-1.50000E+01 1.00000E+01
 -1       314 3.11111E+01-1.50000E+01 1.00000E+01
 -1       315 2.81481E+01-1.50000E+01 1.00000E+01
 -1       316 2.51852E+01-1.50000E+01 1.00000E+01
 -1       317 2.22222E+01-1.50000E+01 1.00000E+01
 -1       318 1.92593E+01-1.50000E+01 1.00000E+01
 -1       319 1.62963E+01-1.50000E+01 1.00000E+01
 -1       320 1.33333E+01-1.50000E+01 1.00000E+01
 -1       321 1.03704E+01-1.50000E+01 1.00000E+01
 -1       322 7.40741E+00-1.50000E+01 1.00000E+01
 -1       323 4.44444E+00-1.50000E+01 1.00000E+01
 -1       324 1.48148E+00-1.50000E+01 1.00000E+01
 -1       325-1.48148E+00-1.50000E+01 1.00000E+01
 -1       326-4.44444E+00-1.50000E+01 1.00000E+01
 -1       327-7.40741E+00-1.50000E+01 1.00000E+01
 -1       328-1.03704E+01-1.50000E+01 1.00000E+01
 -1       329-1.33333E+01-1.50000E+01 1.00000E+01
 -1       330-1.62963E+01-1.50000E+01 1.00000E+01
 -1       331-1.92593E+01-1.50000E+01 1.00000E+01
 -1       332-2.22222E+01-1.50000E+01 1.00000E+01
 -1       333-2.51852E+01-1.50000E+01 1.00000E+01
 -1       334-2.81481E+01-1.50000E+01 1.00000E+01
 -1       335-3.11111E+01-1.50000E+01 1.00000E+01
 -1       336-3.40741E+01-1.50000E+01 1.00000E+01
 -1       337-3.70370E+01-1.50000E+01 1.00000E+01
 -1       338 3.85185E+01-1.50000E+01 1.00000E+01
 -1       339 3.55556E+01-1.50000E+01 1.00000E+01
 -1       340 3.25926E+01-1.50000E+01 1.00000E+01
 -1       341 2.96296E+01-1.50000E+01 1.00000E+01
 -1       342 2.66667E+01-1.50000E+01 1.00000E+01
 -1       343 2.37037E+01-1.50000E+01 1.00000E+01
 -1       344 2.07407E+01-1.50000E+01 1.00000E+01
 -1       345 1.77778E+01-1.50000E+01 1.00000E+01
 -1       346 1.48148E+01-1.50000E+01 1.00000E+01
 -1       347 1.18519E+01-1.50000E+01 1.00000E+01
 -1       348 8.88889E+00-1.50000E+01 1.00000E+01
 -1       349 5.92593E+00-1.50000E+01 1.00000E+01
 -1       350 2.96296E+00-1.50000E+01 1.00000E+01
 -1       351 9.23706E-14-1.50000E+01 1.00000E+01
 -1       352-2.96296E+00-1.50000E+01 1.00000E+01
 -1       353-5.92593E+00-1.50000E+01 1.00000E+01
 -1       354-8.88889E+00-1.50000E+01 1.00000E+01
 -1       355-1.18519E+01-1.50000E+01 1.00000E+01
 -1       356-1.48148E+01-1.50000E+01 1.00000E+01
 -1       357-1.77778E+01-1.50000E+01 1.00000E+01
 -1       358-2.07407E+01-1.50000E+01 1.00000E+01
 -1       359-2.37037E+01-1.50000E+01 1.00000E+01
 -1       360-2.66667E+01-1.50000E+01 1.00000E+01
 -1       361-2.96296E+01-1.50000E+01 1.00000E+01
 -1       362-3.25926E+01-1.50000E+01 1.00000E+01
 -1       363-3.55556E+01-1.50000E+01 1.00000E+01
 -1       364-3.85185E+01-1.50000E+01 1.00000E+01
 -1       365-4.00000E+01-1.50000E+01 7.50000E+00
 -1       366-4.00000E+01-1.50000E+01 5.00000E+00
 -1       367-4.00000E+01-1.50000E+01 2.50000E+00
 -1       368-4.00000E+01-1.50000E+01 8.75000E+00
 -1       369-4.00000E+01-1.50000E+01 6.25000E+00
 -1       370-4.00000E+01-1.50000E+01 3.75000E+00
 -1       371-4.00000E+01-1.50000E+01 1.25000E+00
 -1       372-3.70477E+01-1.50000E+01-2.77556E-16
 -1       373-3.40954E+01-1.50000E+01-2.77556E-16
 -1       374-3.11432E+01-1.50000E+01-2.77556E-16
 -1       375-2.81909E+01-1.50000E+01-2.77556E-16
 -1       376-2.52386E+01-1.50000E+01-2.77556E-16
 -1       377-2.22863E+01-1.50000E+01-2.77556E-16
 -1       378-1.93341E+01-1.50000E+01-2.77556E-16
 -1       379-1.63818E+01-1.50000E+01-2.77556E-16
 -1       380-1.34295E+01-1.50000E+01-2.77556E-16
 -1       381-3.85239E+01-1.50000E+01-2.77556E-16
 -1       382-3.55716E+01-1.50000E+01-2.77556E-16
 -1       383-3.26193E+01-1.50000E+01-2.77556E-16
 -1       384-2.96670E+01-1.50000E+01-2.77556E-16
 -1       385-2.67148E+01-1.50000E+01-2.77556E-16
 -1       386-2.37625E+01-1.50000E+01-2.77556E-16
 -1       387-2.08102E+01-1.50000E+01-2.77556E-16
 -1       388-1.78579E+01-1.50000E+01-2.77556E-16
 -1       389-1.49056E+01-1.50000E+01-2.77556E-16
 -1       390-1.19534E+01-1.50000E+01-2.77556E-16
 -1       391 4.00000E+01-1.20000E+01-2.77556E-16
 -1       392 4.00000E+01-9.00000E+00-2.77556E-16
 -1       393 4.00000E+01-6.00000E+00-2.77556E-16
 -1       394 4.00000E+01-3.00000E+00-2.77556E-16
 -1       395 4.00000E+01 0.00000E+00-2.77556E-16
 -1       396 4.00000E+01 3.00000E+00-2.77556E-16
 -1       397 4.00000E+01 6.00000E+00-2.77556E-16
 -1       398 4.00000E+01 9.00000E+00-2.77556E-16
 -1       399 4.00000E+01 1.20000E+01-2.77556E-16
 -1       400 4.00000E+01-1.35000E+01-2.77556E-16
 -1       401 4.00000E+01-1.05000E+01-2.77556E-16
 -1       402 4.00000E+01-7.50000E+00-2.77556E-16
 -1       403 4.00000E+01-4.50000E+00-2.77556E-16
 -1       404 4.00000E+01-1.50000E+00-2.77556E-16
 -1       405 4.00000E+01 1.50000E+00-2.77556E-16
 -1       406 4.00000E+01 4.50000E+00-2.77556E-16
 -1       407 4.00000E+01 7.50000E+00-2.77556E-16
 -1       408 4.00000E+01 1.05000E+01-2.77556E-16
 -1       409 4.00000E+01 1.35000E+01-2.77556E-16
 -1       410-4.00000E+01 1.20000E+01 1.00000E+01
 -1       411-4.00000E+01 9.00000E+00 1.00000E+01
 -1       412-4.00000E+01 6.00000E+00 1.00000E+01
 -1       413-4.00000E+01 3.00000E+00 1.00000E+01
 -1       414-4.00000E+01 0.00000E+00 1.00000E+01
 -1       415-4.00000E+01-3.00000E+00 1.00000E+01
 -1       416-4.00000E+01-6.00000E+00 1.00000E+01
 -1       417-4.00000E+01-9.00000E+00 1.00000E+01
 -1       418-4.00000E+01-1.20000E+01 1.00000E+01
 -1       419-4.00000E+01 1.35000E+01 1.00000E+01
 -1       420-4.00000E+01 1.05000E+01 1.00000E+01
 -1       421-4.00000E+01 7.50000E+00 1.00000E+01
 -1       422-4.00000E+01 4.50000E+00 1.00000E+01
 -1       423-4.00000E+01 1.50000E+00 1.00000E+01
 -1       424-4.00000E+01-1.50000E+00 1.00000E+01
 -1       425-4.00000E+01-4.50000E+00 1.00000E+01
 -1       426-4.00000E+01-7.50000E+00 1.00000E+01
 -1       427-4.00000E+01-1.05000E+01 1.00000E+01
 -1       428-4.00000E+01-1.35000E+01 1.00000E+01
 -1       429-4.00000E+01-1.20000E+01-2.77556E-16
 -1       430-4.00000E+01-9.00000E+00-2.77556E-16
 -1       431-4.00000E+01-6.00000E+00-2.77556E-16
 -1       432-4.00000E+01-3.00000E+00-2.77556E-16
 -1       433-4.00000E+01 0.00000E+00-2.77556E-16
 -1       434-4.00000E+01 3.00000E+00-2.77556E-16
 -1       435-4.00000E+01 6.00000E+00-2.77556E-16
 -1       436-4.00000E+01 9.00000E+00-2.77556E-16
 -1       437-4.00000E+01 1.20000E+01-2.77556E-16
 -1       438-4.00000E+01-1.35000E+01-2.77556E-16
 -1       439-4.00000E+01-1.05000E+01-2.77556E-16
 -1       440-4.00000E+01-7.50000E+00-2.77556E-16
 -1       441-4.00000E+01-4.50000E+00-2.77556E-16
 -1       442-4.00000E+01-1.50000E+00-2.77556E-16
 -1       443-4.00000E+01 1.50000E+00-2.77556E-16
 -1       444-4.00000E+01 4.50000E+00-2.77556E-16
 -1       445-4.00000E+01 7.50000E+00-2.77556E-16
 -1       446-4.00000E+01 1.05000E+01-2.77556E-16
 -1       447-4.00000E+01 1.35000E+01-2.77556E-16
 -1       448 4.00000E+01-1.20000E+01 1.00000E+01
 -1       449 4.00000E+01-9.00000E+00 1.00000E+01
 -1       450 4.00000E+01-6.00000E+00 1.00000E+01
 -1       451 4.00000E+01-3.00000E+00 1.00000E+01
 -1       452 4.00000E+01 0.00000E+00 1.00000E+01
 -1       453 4.00000E+01 3.00000E+00 1.00000E+01
 -1       454 4.00000E+01 6.00000E+00 1.00000E+01
 -1       455 4.00000E+01 9.00000E+00 1.00000E+01
 -1       456 4.00000E+01 1.20000E+01 1.00000E+01
 -1       457 4.00000E+01-1.35000E+01 1.00000E+01
 -1       458 4.00000E+01-1.05000E+01 1.00000E+01
 -1       459 4.00000E+01-7.50000E+00 1.00000E+01
 -1       460 4.00000E+01-4.50000E+00 1.00000E+01
 -1       461 4.00000E+01-1.50000E+00 1.00000E+01
 -1       462 4.00000E+01 1.50000E+00 1.00000E+01
 -1       463 4.00000E+01 4.50000E+00 1.00000E+01
 -1       464 4.00000E+01 7.50000E+00 1.00000E+01
 -1       465 4.00000E+01 1.05000E+01 1.00000E+01
 -1       466 4.00000E+01 1.35000E+01 1.00000E+01
 -1       467-1.00294E+01-1.35000E+01 2.77589E-01
 -1       468-1.02964E+01-1.35000E+01 3.38256E-02
 -1       469-1.02964E+01 1.35000E+01 3.38256E-02
 -1       470-1.00294E+01 1.35000E+01 2.77589E-01
 -1       471-1.01401E+01-1.20000E+01 1.30726E-01
 -1       472-1.01401E+01-1.05000E+01 1.30726E-01
 -1       473-1.01401E+01-7.50000E+00 1.30726E-01
 -1       474-1.01401E+01-9.00000E+00 1.30726E-01
 -1       475-1.01401E+01-3.00000E+00 1.30726E-01
 -1       476-1.01401E+01-4.50000E+00 1.30726E-01
 -1       477-1.01401E+01-6.00000E+00 1.30726E-01
 -1       478-1.01401E+01 0.00000E+00 1.30726E-01
 -1       479-1.01401E+01-1.50000E+00 1.30726E-01
 -1       480-1.01401E+01 3.00000E+00 1.30726E-01
 -1       481-1.01401E+01 1.50000E+00 1.30726E-01
 -1       482-1.01401E+01 6.00000E+00 1.30726E-01
 -1       483-1.01401E+01 4.50000E+00 1.30726E-01
 -1       484-1.01401E+01 7.50000E+00 1.30726E-01
 -1       485-1.01401E+01 1.05000E+01 1.30726E-01
 -1       486-1.01401E+01 9.00000E+00 1.30726E-01
 -1       487-1.01401E+01 1.20000E+01 1.30726E-01
 -1       488-8.37100E+00-1.28912E+01 3.69274E+00
 -1       489-8.37100E+00 1.28912E+01 3.69274E+00
 -1       490-9.07901E+00 4.50000E+00 2.89165E+00
 -1       491-7.50886E+00-1.50000E+00 4.32500E+00
 -1       492-9.07901E+00-7.50000E+00 2.89165E+00
 -1       493-7.50886E+00 7.50000E+00 4.32500E+00
 -1       494-7.50554E+00-4.49357E+00 4.32693E+00
 -1       495-7.50886E+00 1.50000E+00 4.32500E+00
 -1       496-7.41621E+00 1.03214E+01 4.37743E+00
 -1       497-9.13965E+00-1.03214E+01 2.80416E+00
 -1       498-9.29638E+00 1.05000E+01 2.55755E+00
 -1       499-7.15638E+00-1.05000E+01 4.51110E+00
 -1       500-9.32726E+00-4.50000E+00 2.50495E+00
 -1       501-9.32835E+00 1.50000E+00 2.50308E+00
 -1       502-7.09923E+00-7.50000E+00 4.53798E+00
 -1       503-7.09923E+00 4.50000E+00 4.53798E+00
 -1       504-9.32835E+00-1.50000E+00 2.50308E+00
 -1       505-9.32835E+00 7.50000E+00 2.50308E+00
 -1       506-9.59558E+00 1.33559E+01 1.96994E+00
 -1       507-6.54106E+00-1.33616E+01 4.75659E+00
 -1       508-6.68607E+00 1.32872E+01 4.70714E+00
 -1       509-9.53309E+00-1.32824E+01 2.10975E+00
 -1       510-9.82766E+00-1.26412E+01 1.30141E+00
 -1       511-9.82766E+00-1.41412E+01 1.30141E+00
 -1       512-9.36386E+00-1.41412E+01 2.44063E+00
 -1       513-9.84703E+00 1.41780E+01 1.22733E+00
 -1       514-9.84703E+00 1.26780E+01 1.22733E+00
 -1       515-9.40073E+00 1.41780E+01 2.37352E+00
 -1       516-6.96220E+00-1.41808E+01 4.59889E+00
 -1       517-5.78008E+00-1.41808E+01 4.93877E+00
 -1       518-5.78008E+00-1.26808E+01 4.93877E+00
 -1       519-5.85566E+00 1.26436E+01 4.92624E+00
 -1       520-5.85566E+00 1.41436E+01 4.92624E+00
 -1       521-7.03243E+00 1.41436E+01 4.56828E+00
 -1       522-9.75555E+00 1.12500E+01 1.54427E+00
 -1       523-9.75555E+00 9.75000E+00 1.54427E+00
 -1       524-9.45568E+00 1.19280E+01 2.26869E+00
 -1       525-9.76521E+00 8.25000E+00 1.51420E+00
 -1       526-9.76521E+00 6.75000E+00 1.51420E+00
 -1       527-9.31245E+00 9.00000E+00 2.53037E+00
 -1       528-9.69021E+00 5.25000E+00 1.73260E+00
 -1       529-9.69021E+00 3.75000E+00 1.73260E+00
 -1       530-9.20817E+00 6.00000E+00 2.70024E+00
 -1       531-9.76521E+00 2.25000E+00 1.51420E+00
 -1       532-9.76521E+00 7.50000E-01 1.51420E+00
 -1       533-9.20817E+00 3.00000E+00 2.70024E+00
 -1       534-9.76521E+00-7.50000E-01 1.51420E+00
 -1       535-9.76521E+00-2.25000E+00 1.51420E+00
 -1       536-9.32835E+00 0.00000E+00 2.50308E+00
 -1       537-9.76488E+00-3.75000E+00 1.51524E+00
 -1       538-9.76488E+00-5.25000E+00 1.51524E+00
 -1       539-9.32781E+00-3.00000E+00 2.50401E+00
 -1       540-9.69021E+00-6.75000E+00 1.73260E+00
 -1       541-9.69021E+00-8.25000E+00 1.73260E+00
 -1       542-9.20758E+00-6.00000E+00 2.70116E+00
 -1       543-9.70839E+00-9.66072E+00 1.68257E+00
 -1       544-9.70839E+00-1.11607E+01 1.68257E+00
 -1       545-9.10956E+00-8.91072E+00 2.84807E+00
 -1       546-9.35025E+00-1.18019E+01 2.46482E+00
 -1       547-8.79961E+00-1.39456E+01 3.25007E+00
 -1       548-7.89119E+00-1.39456E+01 4.07934E+00
 -1       549-9.03053E+00-1.30868E+01 2.95886E+00
 -1       550-7.51297E+00-1.31264E+01 4.32261E+00
 -1       551-6.10556E+00-1.12500E+01 4.87624E+00
 -1       552-6.10556E+00-9.75000E+00 4.87624E+00
 -1       553-6.85279E+00-1.19308E+01 4.64405E+00
 -1       554-6.07473E+00-8.25000E+00 4.88313E+00
 -1       555-6.07473E+00-6.75000E+00 4.88313E+00
 -1       556-7.12785E+00-9.00000E+00 4.52463E+00
 -1       557-6.29718E+00-5.24679E+00 4.82880E+00
 -1       558-6.29718E+00-3.74679E+00 4.82880E+00
 -1       559-7.30480E+00-5.99679E+00 4.43711E+00
 -1       560-6.29904E+00-2.25000E+00 4.82830E+00
 -1       561-6.29904E+00-7.50000E-01 4.82830E+00
 -1       562-7.50720E+00-2.99679E+00 4.32596E+00
 -1       563-6.29904E+00 7.50000E-01 4.82830E+00
 -1       564-6.29904E+00 2.25000E+00 4.82830E+00
 -1       565-7.50886E+00 0.00000E+00 4.32500E+00
 -1       566-6.07473E+00 3.75000E+00 4.88313E+00
 -1       567-6.07473E+00 5.25000E+00 4.88313E+00
 -1       568-7.30650E+00 3.00000E+00 4.43622E+00
 -1       569-6.29904E+00 6.75000E+00 4.82830E+00
 -1       570-6.29904E+00 8.25000E+00 4.82830E+00
 -1       571-7.30650E+00 6.00000E+00 4.43622E+00
 -1       572-6.24757E+00 9.66072E+00 4.84186E+00
 -1       573-6.24757E+00 1.11607E+01 4.84186E+00
 -1       574-7.46268E+00 8.91072E+00 4.35146E+00
 -1       575-7.05776E+00 1.18043E+01 4.55693E+00
 -1       576-7.89119E+00 1.39456E+01 4.07934E+00
 -1       577-8.79961E+00 1.39456E+01 3.25007E+00
 -1       578-7.57890E+00 1.30892E+01 4.28360E+00
 -1       579-9.07537E+00 1.31235E+01 2.89679E+00
 -1       580-8.78152E+00-1.16063E+01 3.27111E+00
 -1       581-8.26166E+00-1.04107E+01 3.78967E+00
 -1       582-7.79382E+00-1.16956E+01 4.14664E+00
 -1       583-7.91379E+00 1.16063E+01 4.06323E+00
 -1       584-8.47746E+00 1.04107E+01 3.59267E+00
 -1       585-8.87548E+00 1.16956E+01 3.15922E+00
 -1       586-8.37100E+00 6.00000E+00 3.69274E+00
 -1       587-8.19691E+00 4.50000E+00 3.84444E+00
 -1       588-8.53790E+00 7.50000E+00 3.53317E+00
 -1       589-8.37100E+00 3.00000E+00 3.69274E+00
 -1       590-8.53790E+00 1.50000E+00 3.53317E+00
 -1       591-8.53654E+00-2.99679E+00 3.53453E+00
 -1       592-8.53790E+00-1.50000E+00 3.53317E+00
 -1       593-8.53790E+00 0.00000E+00 3.53317E+00
 -1       594-8.36958E+00-5.99679E+00 3.69404E+00
 -1       595-8.53577E+00-4.49679E+00 3.53530E+00
 -1       596-8.19691E+00-7.50000E+00 3.84444E+00
 -1       597-8.23766E+00-8.91072E+00 3.81019E+00
 -1       598-8.50008E+00 8.91072E+00 3.57063E+00
 -1       599-3.25850E+01 1.50000E+01 2.49980E+00
 -1       600 3.25851E+01 1.50000E+01 2.49991E+00
 -1       601-2.67148E+01 1.50000E+01 2.55675E+00
 -1       602 2.67148E+01 1.50000E+01 2.55675E+00
 -1       603-2.08161E+01 1.50000E+01 2.55549E+00
 -1       604 2.08161E+01 1.50000E+01 2.55551E+00
 -1       605-1.50945E+01 1.50000E+01 2.43056E+00
 -1       606 1.48739E+01 1.50000E+01 2.35009E+00
 -1       607-1.18149E+01 1.50000E+01 7.46616E+00
 -1       608 1.17556E+01 1.50000E+01 7.42038E+00
 -1       609-3.56979E+01 1.50000E+01 7.42251E+00
 -1       610 3.56986E+01 1.50000E+01 7.42252E+00
 -1       611-2.96329E+01 1.50000E+01 7.44427E+00
 -1       612 2.96330E+01 1.50000E+01 7.44436E+00
 -1       613-2.37089E+01 1.50000E+01 7.44375E+00
 -1       614 2.37089E+01 1.50000E+01 7.44375E+00
 -1       615-1.78021E+01 1.50000E+01 7.47991E+00
 -1       616 1.78236E+01 1.50000E+01 7.38259E+00
 -1       617-3.79165E+01 1.50000E+01 3.82241E+00
 -1       618 3.79166E+01 1.50000E+01 3.82241E+00
 -1       619-1.11731E+01 1.50000E+01 1.26258E+00
 -1       620 1.22136E+01 1.50000E+01 2.09683E+00
 -1       621-1.15483E+01 1.50000E+01 3.43835E+00
 -1       622-6.71395E+00 1.50000E+01 6.80416E+00
 -1       623 6.83997E+00 1.50000E+01 6.85494E+00
 -1       624 9.77172E+00 1.50000E+01 5.37575E+00
 -1       625-9.17776E+00 1.50000E+01 6.21664E+00
 -1       626 1.29461E+01 1.50000E+01 4.65622E+00
 -1       627 1.47976E+01 1.50000E+01 7.40631E+00
 -1       628-3.74393E+00 1.50000E+01 7.14248E+00
 -1       629 3.74492E+00 1.50000E+01 7.14183E+00
 -1       630-1.48735E+01 1.50000E+01 7.50430E+00
 -1       631 3.26145E+01 1.50000E+01 7.46472E+00
 -1       632-3.26133E+01 1.50000E+01 7.46443E+00
 -1       633 2.07757E+01 1.50000E+01 7.46365E+00
 -1       634 2.66761E+01 1.50000E+01 7.45555E+00
 -1       635-2.66761E+01 1.50000E+01 7.45554E+00
 -1       636-2.07722E+01 1.50000E+01 7.47987E+00
 -1       637 2.37650E+01 1.50000E+01 2.55571E+00
 -1       638 1.78949E+01 1.50000E+01 2.47511E+00
 -1       639-1.78829E+01 1.50000E+01 2.49636E+00
 -1       640-2.37650E+01 1.50000E+01 2.55570E+00
 -1       641 2.96670E+01 1.50000E+01 2.55675E+00
 -1       642-2.96670E+01 1.50000E+01 2.55675E+00
 -1       643-1.24883E+00 1.50000E+01 7.16442E+00
 -1       644 1.24931E+00 1.50000E+01 7.16423E+00
 -1       645-3.79814E+01 1.50000E+01 6.16898E+00
 -1       646 3.79817E+01 1.50000E+01 6.16898E+00
 -1       647-1.64451E+01 1.50000E+01 4.98935E+00
 -1       648-3.39315E+01 1.50000E+01 4.97080E+00
 -1       649 3.39319E+01 1.50000E+01 4.97108E+00
 -1       650 3.11329E+01 1.50000E+01 4.98819E+00
 -1       651-3.11328E+01 1.50000E+01 4.98719E+00
 -1       652-2.81770E+01 1.50000E+01 4.99702E+00
 -1       653 2.81771E+01 1.50000E+01 4.99721E+00
 -1       654-2.52209E+01 1.50000E+01 4.99796E+00
 -1       655 2.52209E+01 1.50000E+01 4.99799E+00
 -1       656-3.56931E+01 1.50000E+01 2.57525E+00
 -1       657 3.56933E+01 1.50000E+01 2.57531E+00
 -1       658-2.22720E+01 1.50000E+01 5.00089E+00
 -1       659 2.22779E+01 1.50000E+01 4.99221E+00
 -1       660-1.93390E+01 1.50000E+01 4.98796E+00
 -1       661 1.93510E+01 1.50000E+01 4.97516E+00
 -1       662 9.20924E+00 1.50000E+01 7.86763E+00
 -1       663-1.34782E+01 1.50000E+01 4.84230E+00
 -1       664 1.62836E+01 1.50000E+01 4.87334E+00
 -1       665-8.95336E+00 1.50000E+01 8.30842E+00
 -1       666-1.11216E+01 1.50000E+01 5.31362E+00
 -1       667-1.28914E+01 1.50000E+01 1.96176E+00
 -1       668 1.09512E+01 1.50000E+01 3.45100E+00
 -1       669-3.81433E+01 1.50000E+01 8.21830E+00
 -1       670 3.81435E+01 1.50000E+01 8.21830E+00
 -1       671 3.81315E+01 1.50000E+01 1.77954E+00
 -1       672-3.81315E+01 1.50000E+01 1.77953E+00
 -1       673-3.62205E+01 1.50000E+01 4.99428E+00
 -1       674 3.62209E+01 1.50000E+01 4.99433E+00
 -1       675 5.60246E+00 1.50000E+01 8.49894E+00
 -1       676-5.57116E+00 1.50000E+01 8.48592E+00
 -1       677 1.06317E+01 1.50000E+01 1.76816E+00
 -1       678 2.25045E-04 1.50000E+01 8.63707E+00
 -1       679-1.02043E+01 1.50000E+01 2.00887E-01
 -1       680-1.08189E+01 1.50000E+01 6.27604E-01
 -1       681-1.05885E+01 1.50000E+01 8.52988E-01
 -1       682-1.22924E+01 1.50000E+01 6.32944E-01
 -1       683-1.02447E+01 1.50000E+01 2.06129E+00
 -1       684-7.07277E+00 1.50000E+01 5.63550E+00
 -1       685-5.84963E+00 1.50000E+01 5.93755E+00
 -1       686-4.37580E+00 1.50000E+01 6.07235E+00
 -1       687-3.12511E+00 1.50000E+01 6.06991E+00
 -1       688-5.21724E+00 1.50000E+01 6.97255E+00
 -1       689-3.90657E+01 1.50000E+01 8.89766E-01
 -1       690-3.75896E+01 1.50000E+01 8.89766E-01
 -1       691-3.90657E+01 1.50000E+01 2.13977E+00
 -1       692-3.90716E+01 1.50000E+01 9.10915E+00
 -1       693-3.90716E+01 1.50000E+01 7.85915E+00
 -1       694-3.75902E+01 1.50000E+01 9.10915E+00
 -1       695 3.90717E+01 1.50000E+01 9.10915E+00
 -1       696 3.75902E+01 1.50000E+01 9.10915E+00
 -1       697 3.90717E+01 1.50000E+01 7.85915E+00
 -1       698 3.90658E+01 1.50000E+01 8.89771E-01
 -1       699 3.90658E+01 1.50000E+01 2.13977E+00
 -1       700 3.75896E+01 1.50000E+01 8.89771E-01
 -1       701 1.02145E+01 1.50000E+01 2.01323E-01
 -1       702 1.03288E+01 1.50000E+01 1.10567E+00
 -1       703 1.05538E+01 1.50000E+01 8.63021E-01
 -1       704 1.13614E+01 1.50000E+01 1.04521E+00
 -1       705 1.28222E+01 1.50000E+01 1.04504E+00
 -1       706 1.14158E+01 1.50000E+01 1.93055E+00
 -1       707 9.94496E+00 1.50000E+01 2.30485E+00
 -1       708 5.91308E+00 1.50000E+01 5.96550E+00
 -1       709 7.13264E+00 1.50000E+01 5.65193E+00
 -1       710 3.12567E+00 1.50000E+01 6.06977E+00
 -1       711 4.37689E+00 1.50000E+01 6.07192E+00
 -1       712 5.27956E+00 1.50000E+01 6.99992E+00
 -1       713-9.23300E+00 1.50000E+01 4.52778E+00
 -1       714-8.27932E+00 1.50000E+01 5.32598E+00
 -1       715-7.95070E+00 1.50000E+01 6.50507E+00
 -1       716-1.13710E+01 1.50000E+01 2.36345E+00
 -1       717-1.03712E+01 1.50000E+01 3.11764E+00
 -1       718-1.13319E+01 1.50000E+01 4.37306E+00
 -1       719-1.01665E+01 1.50000E+01 4.04785E+00
 -1       720-1.01592E+01 1.50000E+01 5.76938E+00
 -1       721-1.57379E+01 1.50000E+01 1.21409E+00
 -1       722-1.42659E+01 1.50000E+01 1.21459E+00
 -1       723-1.39919E+01 1.50000E+01 2.19572E+00
 -1       724-1.31603E+01 1.50000E+01 9.78670E-01
 -1       725-1.20283E+01 1.50000E+01 1.61855E+00
 -1       726-1.86083E+01 1.50000E+01 1.24765E+00
 -1       727-1.71341E+01 1.50000E+01 1.24769E+00
 -1       728-1.64880E+01 1.50000E+01 2.46310E+00
 -1       729-2.15511E+01 1.50000E+01 1.27746E+00
 -1       730-2.00761E+01 1.50000E+01 1.27738E+00
 -1       731-1.93492E+01 1.50000E+01 2.52585E+00
 -1       732-2.45018E+01 1.50000E+01 1.27774E+00
 -1       733-2.30264E+01 1.50000E+01 1.27757E+00
 -1       734-2.22904E+01 1.50000E+01 2.55554E+00
 -1       735-2.74528E+01 1.50000E+01 1.27837E+00
 -1       736-2.59774E+01 1.50000E+01 1.27801E+00
 -1       737-2.52399E+01 1.50000E+01 2.55612E+00
 -1       738-3.04051E+01 1.50000E+01 1.27837E+00
 -1       739-2.89290E+01 1.50000E+01 1.27837E+00
 -1       740-2.81909E+01 1.50000E+01 2.55675E+00
 -1       741-3.33402E+01 1.50000E+01 1.24990E+00
 -1       742-3.18641E+01 1.50000E+01 1.24990E+00
 -1       743-3.11260E+01 1.50000E+01 2.52827E+00
 -1       744-3.63704E+01 1.50000E+01 1.28762E+00
 -1       745-3.48943E+01 1.50000E+01 1.28762E+00
 -1       746-3.41390E+01 1.50000E+01 2.53753E+00
 -1       747-3.69123E+01 1.50000E+01 2.17739E+00
 -1       748-3.89582E+01 1.50000E+01 4.41120E+00
 -1       749-3.89582E+01 1.50000E+01 3.16120E+00
 -1       750-3.80240E+01 1.50000E+01 2.80097E+00
 -1       751-3.89907E+01 1.50000E+01 6.83449E+00
 -1       752-3.89907E+01 1.50000E+01 5.58449E+00
 -1       753-3.79489E+01 1.50000E+01 4.99569E+00
 -1       754-3.80624E+01 1.50000E+01 7.19364E+00
 -1       755-3.48860E+01 1.50000E+01 8.71126E+00
 -1       756-3.63674E+01 1.50000E+01 8.71126E+00
 -1       757-3.69206E+01 1.50000E+01 7.82041E+00
 -1       758-3.18622E+01 1.50000E+01 8.73221E+00
 -1       759-3.33437E+01 1.50000E+01 8.73221E+00
 -1       760-3.41556E+01 1.50000E+01 7.44347E+00
 -1       761-2.88905E+01 1.50000E+01 8.72213E+00
 -1       762-3.03720E+01 1.50000E+01 8.72213E+00
 -1       763-3.11231E+01 1.50000E+01 7.45435E+00
 -1       764-2.59306E+01 1.50000E+01 8.72777E+00
 -1       765-2.74121E+01 1.50000E+01 8.72777E+00
 -1       766-2.81545E+01 1.50000E+01 7.44990E+00
 -1       767-2.29656E+01 1.50000E+01 8.72188E+00
 -1       768-2.44470E+01 1.50000E+01 8.72188E+00
 -1       769-2.51925E+01 1.50000E+01 7.44964E+00
 -1       770-2.00169E+01 1.50000E+01 8.74055E+00
 -1       771-2.14966E+01 1.50000E+01 8.74026E+00
 -1       772-2.22404E+01 1.50000E+01 7.46164E+00
 -1       773-1.70510E+01 1.50000E+01 8.74082E+00
 -1       774-1.85306E+01 1.50000E+01 8.74026E+00
 -1       775-1.92870E+01 1.50000E+01 7.47978E+00
 -1       776-1.41056E+01 1.50000E+01 8.75346E+00
 -1       777-1.55851E+01 1.50000E+01 8.75224E+00
 -1       778-1.63377E+01 1.50000E+01 7.49171E+00
 -1       779-1.10933E+01 1.50000E+01 8.73386E+00
 -1       780-1.25748E+01 1.50000E+01 8.73213E+00
 -1       781-1.33446E+01 1.50000E+01 7.48412E+00
 -1       782-8.17868E+00 1.50000E+01 9.15427E+00
 -1       783-9.66314E+00 1.50000E+01 9.15288E+00
 -1       784-1.03850E+01 1.50000E+01 7.88738E+00
 -1       785-5.00608E+00 1.50000E+01 9.24131E+00
 -1       786-6.49120E+00 1.50000E+01 9.24363E+00
 -1       787-7.83608E+00 1.50000E+01 7.54995E+00
 -1       788-7.05863E+00 1.50000E+01 8.39510E+00
 -1       789-6.13773E+00 1.50000E+01 7.64002E+00
 -1       790-2.61170E+00 1.50000E+01 8.57058E+00
 -1       791-4.09025E+00 1.50000E+01 8.57448E+00
 -1       792-4.65521E+00 1.50000E+01 7.81930E+00
 -1       793 7.40330E-01 1.50000E+01 9.31871E+00
 -1       794-7.40065E-01 1.50000E+01 9.31873E+00
 -1       795-1.36370E+00 1.50000E+01 8.58248E+00
 -1       796-2.49697E+00 1.50000E+01 7.15216E+00
 -1       797-6.24011E-01 1.50000E+01 7.90066E+00
 -1       798 4.09064E+00 1.50000E+01 8.57430E+00
 -1       799 2.61218E+00 1.50000E+01 8.57040E+00
 -1       800 2.49763E+00 1.50000E+01 7.15195E+00
 -1       801 1.36409E+00 1.50000E+01 8.58233E+00
 -1       802 6.24500E-01 1.50000E+01 7.90056E+00
 -1       803 6.50651E+00 1.50000E+01 9.25018E+00
 -1       804 5.02161E+00 1.50000E+01 9.24784E+00
 -1       805 4.67126E+00 1.50000E+01 7.82613E+00
 -1       806 9.79088E+00 1.50000E+01 8.93245E+00
 -1       807 8.30623E+00 1.50000E+01 8.93441E+00
 -1       808 8.02644E+00 1.50000E+01 7.35668E+00
 -1       809 7.12038E+00 1.50000E+01 8.42165E+00
 -1       810 6.21615E+00 1.50000E+01 7.67220E+00
 -1       811 1.25453E+01 1.50000E+01 8.70940E+00
 -1       812 1.10644E+01 1.50000E+01 8.71156E+00
 -1       813 1.04836E+01 1.50000E+01 7.64448E+00
 -1       814 1.55472E+01 1.50000E+01 8.70325E+00
 -1       815 1.40677E+01 1.50000E+01 8.70448E+00
 -1       816 1.32771E+01 1.50000E+01 7.41281E+00
 -1       817 1.85414E+01 1.50000E+01 8.69162E+00
 -1       818 1.70618E+01 1.50000E+01 8.69220E+00
 -1       819 1.63105E+01 1.50000E+01 7.39409E+00
 -1       820 2.14983E+01 1.50000E+01 8.73215E+00
 -1       821 2.00186E+01 1.50000E+01 8.73244E+00
 -1       822 1.92995E+01 1.50000E+01 7.42300E+00
 -1       823 2.44470E+01 1.50000E+01 8.72188E+00
 -1       824 2.29656E+01 1.50000E+01 8.72188E+00
 -1       825 2.22422E+01 1.50000E+01 7.45353E+00
 -1       826 2.74121E+01 1.50000E+01 8.72777E+00
 -1       827 2.59306E+01 1.50000E+01 8.72777E+00
 -1       828 2.51925E+01 1.50000E+01 7.44965E+00
 -1       829 3.03721E+01 1.50000E+01 8.72218E+00
 -1       830 2.88906E+01 1.50000E+01 8.72218E+00
 -1       831 2.81545E+01 1.50000E+01 7.44995E+00
 -1       832 3.33443E+01 1.50000E+01 8.73236E+00
 -1       833 3.18628E+01 1.50000E+01 8.73236E+00
 -1       834 3.11237E+01 1.50000E+01 7.45454E+00
 -1       835 3.63678E+01 1.50000E+01 8.71126E+00
 -1       836 3.48863E+01 1.50000E+01 8.71126E+00
 -1       837 3.41565E+01 1.50000E+01 7.44362E+00
 -1       838 3.69210E+01 1.50000E+01 7.82041E+00
 -1       839 3.89908E+01 1.50000E+01 5.58449E+00
 -1       840 3.89908E+01 1.50000E+01 6.83449E+00
 -1       841 3.80626E+01 1.50000E+01 7.19364E+00
 -1       842 3.89583E+01 1.50000E+01 3.16120E+00
 -1       843 3.89583E+01 1.50000E+01 4.41120E+00
 -1       844 3.79491E+01 1.50000E+01 4.99569E+00
 -1       845 3.80240E+01 1.50000E+01 2.80097E+00
 -1       846 3.48944E+01 1.50000E+01 1.28765E+00
 -1       847 3.63705E+01 1.50000E+01 1.28765E+00
 -1       848 3.69124E+01 1.50000E+01 2.17742E+00
 -1       849 3.18642E+01 1.50000E+01 1.24996E+00
 -1       850 3.33403E+01 1.50000E+01 1.24996E+00
 -1       851 3.41392E+01 1.50000E+01 2.53761E+00
 -1       852 2.89290E+01 1.50000E+01 1.27837E+00
 -1       853 3.04051E+01 1.50000E+01 1.27837E+00
 -1       854 3.11261E+01 1.50000E+01 2.52833E+00
 -1       855 2.59773E+01 1.50000E+01 1.27801E+00
 -1       856 2.74528E+01 1.50000E+01 1.27837E+00
 -1       857 2.81909E+01 1.50000E+01 2.55675E+00
 -1       858 2.30264E+01 1.50000E+01 1.27757E+00
 -1       859 2.45018E+01 1.50000E+01 1.27775E+00
 -1       860 2.52399E+01 1.50000E+01 2.55612E+00
 -1       861 2.00761E+01 1.50000E+01 1.27740E+00
 -1       862 2.15511E+01 1.50000E+01 1.27747E+00
 -1       863 2.22904E+01 1.50000E+01 2.55556E+00
 -1       864 1.71401E+01 1.50000E+01 1.23709E+00
 -1       865 1.86143E+01 1.50000E+01 1.23702E+00
 -1       866 1.93552E+01 1.50000E+01 2.51524E+00
 -1       867 1.41559E+01 1.50000E+01 1.17454E+00
 -1       868 1.56274E+01 1.50000E+01 1.17376E+00
 -1       869 1.63837E+01 1.50000E+01 2.41210E+00
 -1       870 1.35419E+01 1.50000E+01 2.22175E+00
 -1       871 8.57505E+00 1.50000E+01 4.92153E+00
 -1       872 9.51328E+00 1.50000E+01 4.08712E+00
 -1       873 1.03688E+01 1.50000E+01 4.41046E+00
 -1       874 1.00680E+01 1.50000E+01 3.12272E+00
 -1       875 1.07831E+01 1.50000E+01 2.61873E+00
 -1       876 8.30454E+00 1.50000E+01 6.11060E+00
 -1       877 6.25073E-01 1.50000E+01 6.08200E+00
 -1       878 1.87512E+00 1.50000E+01 6.08192E+00
 -1       879-1.87475E+00 1.50000E+01 6.08201E+00
 -1       880-6.24771E-01 1.50000E+01 6.08208E+00
 -1       881 2.20202E-04 1.50000E+01 7.16444E+00
 -1       882-3.18589E+01 1.50000E+01 3.74349E+00
 -1       883-3.03999E+01 1.50000E+01 3.77197E+00
 -1       884-3.25322E+01 1.50000E+01 4.97899E+00
 -1       885-3.32582E+01 1.50000E+01 3.73530E+00
 -1       886-3.48123E+01 1.50000E+01 3.77302E+00
 -1       887 3.04000E+01 1.50000E+01 3.77247E+00
 -1       888 3.18590E+01 1.50000E+01 3.74405E+00
 -1       889 3.25324E+01 1.50000E+01 4.97964E+00
 -1       890 3.32585E+01 1.50000E+01 3.73550E+00
 -1       891 3.48126E+01 1.50000E+01 3.77320E+00
 -1       892-2.59678E+01 1.50000E+01 3.77735E+00
 -1       893-2.44935E+01 1.50000E+01 3.77660E+00
 -1       894-2.89220E+01 1.50000E+01 3.77689E+00
 -1       895-2.74459E+01 1.50000E+01 3.77689E+00
 -1       896-2.66990E+01 1.50000E+01 4.99749E+00
 -1       897 2.44935E+01 1.50000E+01 3.77662E+00
 -1       898 2.59678E+01 1.50000E+01 3.77737E+00
 -1       899 2.74459E+01 1.50000E+01 3.77698E+00
 -1       900 2.89220E+01 1.50000E+01 3.77698E+00
 -1       901 2.66990E+01 1.50000E+01 4.99760E+00
 -1       902-2.00779E+01 1.50000E+01 3.77144E+00
 -1       903-1.86121E+01 1.50000E+01 3.74209E+00
 -1       904-2.30186E+01 1.50000E+01 3.77811E+00
 -1       905-2.15448E+01 1.50000E+01 3.77809E+00
 -1       906-2.08053E+01 1.50000E+01 4.99430E+00
 -1       907 2.15477E+01 1.50000E+01 3.77377E+00
 -1       908 2.30216E+01 1.50000E+01 3.77378E+00
 -1       909 1.86241E+01 1.50000E+01 3.72507E+00
 -1       910 2.00838E+01 1.50000E+01 3.76505E+00
 -1       911 2.08142E+01 1.50000E+01 4.98355E+00
 -1       912-1.71649E+01 1.50000E+01 3.74243E+00
 -1       913-1.57717E+01 1.50000E+01 3.71019E+00
 -1       914-1.49612E+01 1.50000E+01 4.91450E+00
 -1       915-1.42893E+01 1.50000E+01 3.63626E+00
 -1       916-1.31890E+01 1.50000E+01 3.40427E+00
 -1       917 1.25826E+01 1.50000E+01 3.37808E+00
 -1       918 1.39124E+01 1.50000E+01 3.50234E+00
 -1       919 1.46140E+01 1.50000E+01 4.76262E+00
 -1       920 1.55807E+01 1.50000E+01 3.61187E+00
 -1       921 1.70900E+01 1.50000E+01 3.67373E+00
 -1       922-9.06807E+00 1.50000E+01 7.26277E+00
 -1       923-1.05000E+01 1.50000E+01 6.83874E+00
 -1       924-1.14676E+01 1.50000E+01 6.39074E+00
 -1       925-1.26499E+01 1.50000E+01 6.15579E+00
 -1       926-1.41767E+01 1.50000E+01 6.17327E+00
 -1       927-1.22992E+01 1.50000E+01 5.07622E+00
 -1       928 1.23531E+01 1.50000E+01 6.04005E+00
 -1       929 1.13604E+01 1.50000E+01 5.01119E+00
 -1       930 1.07635E+01 1.50000E+01 6.39457E+00
 -1       931 9.48847E+00 1.50000E+01 6.62116E+00
 -1       932 1.38719E+01 1.50000E+01 6.03085E+00
 -1       933-3.32724E+01 1.50000E+01 6.21761E+00
 -1       934-3.48147E+01 1.50000E+01 6.19665E+00
 -1       935-3.68396E+01 1.50000E+01 6.79575E+00
 -1       936-3.59592E+01 1.50000E+01 6.20840E+00
 -1       937-3.71010E+01 1.50000E+01 5.58163E+00
 -1       938-3.50760E+01 1.50000E+01 4.98254E+00
 -1       939 3.48152E+01 1.50000E+01 6.19680E+00
 -1       940 3.32732E+01 1.50000E+01 6.21790E+00
 -1       941 3.68401E+01 1.50000E+01 6.79575E+00
 -1       942 3.71013E+01 1.50000E+01 5.58166E+00
 -1       943 3.59597E+01 1.50000E+01 6.20842E+00
 -1       944 3.50764E+01 1.50000E+01 4.98271E+00
 -1       945-3.03828E+01 1.50000E+01 6.21573E+00
 -1       946-3.18731E+01 1.50000E+01 6.22581E+00
 -1       947-2.74265E+01 1.50000E+01 6.22628E+00
 -1       948-2.89050E+01 1.50000E+01 6.22065E+00
 -1       949-2.96549E+01 1.50000E+01 4.99210E+00
 -1       950 3.18737E+01 1.50000E+01 6.22645E+00
 -1       951 3.03830E+01 1.50000E+01 6.21627E+00
 -1       952 2.89050E+01 1.50000E+01 6.22078E+00
 -1       953 2.74266E+01 1.50000E+01 6.22638E+00
 -1       954 2.96550E+01 1.50000E+01 4.99270E+00
 -1       955-2.44649E+01 1.50000E+01 6.22085E+00
 -1       956-2.59485E+01 1.50000E+01 6.22675E+00
 -1       957-2.15225E+01 1.50000E+01 6.24033E+00
 -1       958-2.29907E+01 1.50000E+01 6.22235E+00
 -1       959-2.37464E+01 1.50000E+01 4.99913E+00
 -1       960 2.29936E+01 1.50000E+01 6.21801E+00
 -1       961 2.15272E+01 1.50000E+01 6.22788E+00
 -1       962 2.59485E+01 1.50000E+01 6.22677E+00
 -1       963 2.44649E+01 1.50000E+01 6.22087E+00
 -1       964 2.37493E+01 1.50000E+01 4.99481E+00
 -1       965-1.56611E+01 1.50000E+01 6.24734E+00
 -1       966-1.71242E+01 1.50000E+01 6.23475E+00
 -1       967-1.85716E+01 1.50000E+01 6.23409E+00
 -1       968-2.00560E+01 1.50000E+01 6.23401E+00
 -1       969-1.78916E+01 1.50000E+01 4.98823E+00
 -1       970 1.70542E+01 1.50000E+01 6.12803E+00
 -1       971 1.55425E+01 1.50000E+01 6.14043E+00
 -1       972 2.00638E+01 1.50000E+01 6.21949E+00
 -1       973 1.85883E+01 1.50000E+01 6.17900E+00
 -1       974 1.78168E+01 1.50000E+01 4.92373E+00
 -1       975-3.70685E+01 1.50000E+01 4.40834E+00
 -1       976-3.68048E+01 1.50000E+01 3.19883E+00
 -1       977-3.59568E+01 1.50000E+01 3.78476E+00
 -1       978 3.70687E+01 1.50000E+01 4.40837E+00
 -1       979 3.68049E+01 1.50000E+01 3.19886E+00
 -1       980 3.59571E+01 1.50000E+01 3.78482E+00
 -1       981-1.22246E+01 1.50000E+01 2.69982E+00
 -1       982 1.15877E+01 1.50000E+01 2.77613E+00
 -1       983 1.19491E+01 1.50000E+01 4.05217E+00
 -1       984-1.25131E+01 1.50000E+01 4.13775E+00
 -1       985 1.03037E+01 1.34888E+01 3.10764E-02
 -1       986 1.00431E+01 1.35003E+01 2.51865E-01
 -1       987 1.02702E+01-1.34992E+01 4.48793E-02
 -1       988 1.00247E+01-1.34891E+01 2.87246E-01
 -1       989 1.02123E+01 1.19997E+01 7.59731E-02
 -1       990 1.01424E+01 8.99999E+00 1.28692E-01
 -1       991 1.01425E+01 1.04992E+01 1.28580E-01
 -1       992 1.01418E+01 7.49817E+00 1.29249E-01
 -1       993 1.00831E+01 4.50660E+00 1.92266E-01
 -1       994 1.00886E+01 5.98858E+00 1.85421E-01
 -1       995 1.00532E+01 4.69318E-03 2.35103E-01
 -1       996 1.00861E+01 1.49470E+00 1.88567E-01
 -1       997 1.00564E+01 3.00030E+00 2.30062E-01
 -1       998 1.00750E+01-2.99065E+00 2.02996E-01
 -1       999 1.00850E+01-1.50567E+00 1.89910E-01
 -1      1000 1.00979E+01-4.49529E+00 1.74237E-01
 -1      1001 1.01330E+01-8.99895E+00 1.37376E-01
 -1      1002 1.01337E+01-7.50133E+00 1.36725E-01
 -1      1003 1.01338E+01-6.00083E+00 1.36555E-01
 -1      1004 1.00846E+01-1.19729E+01 1.90466E-01
 -1      1005 1.01392E+01-1.04979E+01 1.31616E-01
 -1      1006 8.37100E+00 1.28912E+01 3.69274E+00
 -1      1007 8.37100E+00-1.28912E+01 3.69274E+00
 -1      1008 7.50886E+00-4.50000E+00 4.32500E+00
 -1      1009 7.50886E+00 4.50000E+00 4.32500E+00
 -1      1010 9.07901E+00-7.50000E+00 2.89165E+00
 -1      1011 9.07901E+00-1.50000E+00 2.89165E+00
 -1      1012 9.07901E+00 7.50000E+00 2.89165E+00
 -1      1013 7.50886E+00 1.50000E+00 4.32500E+00
 -1      1014 9.13965E+00 1.03214E+01 2.80416E+00
 -1      1015 9.13965E+00-1.03214E+01 2.80416E+00
 -1      1016 7.15638E+00 1.05000E+01 4.51110E+00
 -1      1017 7.15638E+00-1.05000E+01 4.51110E+00
 -1      1018 9.32835E+00-4.50000E+00 2.50308E+00
 -1      1019 9.32835E+00 4.50000E+00 2.50308E+00
 -1      1020 7.09923E+00-7.50000E+00 4.53798E+00
 -1      1021 7.09923E+00-1.50000E+00 4.53798E+00
 -1      1022 7.09923E+00 7.50000E+00 4.53798E+00
 -1      1023 9.32835E+00 1.50000E+00 2.50308E+00
 -1      1024 6.54400E+00 1.33559E+01 4.75563E+00
 -1      1025 9.53437E+00-1.32872E+01 2.10701E+00
 -1      1026 9.53221E+00 1.32861E+01 2.11165E+00
 -1      1027 6.54106E+00-1.33616E+01 4.75659E+00
 -1      1028 9.82977E+00 1.41436E+01 1.29357E+00
 -1      1029 9.36340E+00 1.41430E+01 2.44147E+00
 -1      1030 9.82919E+00 1.26408E+01 1.29574E+00
 -1      1031 6.96363E+00 1.41780E+01 4.59828E+00
 -1      1032 5.78183E+00 1.41771E+01 4.93850E+00
 -1      1033 5.78161E+00 1.26780E+01 4.93853E+00
 -1      1034 9.82821E+00-1.41427E+01 1.29938E+00
 -1      1035 9.82870E+00-1.26452E+01 1.29756E+00
 -1      1036 9.36460E+00-1.41436E+01 2.43931E+00
 -1      1037 5.78008E+00-1.26808E+01 4.93877E+00
 -1      1038 5.78008E+00-1.41808E+01 4.93877E+00
 -1      1039 6.96220E+00-1.41808E+01 4.59889E+00
 -1      1040 8.79961E+00 1.39456E+01 3.25007E+00
 -1      1041 7.89119E+00 1.39456E+01 4.07934E+00
 -1      1042 9.03144E+00 1.30887E+01 2.95762E+00
 -1      1043 7.51431E+00 1.31235E+01 4.32183E+00
 -1      1044 9.70829E+00-1.11607E+01 1.68284E+00
 -1      1045 9.70839E+00-9.66072E+00 1.68257E+00
 -1      1046 9.35048E+00-1.18051E+01 2.46442E+00
 -1      1047 9.69021E+00-8.25000E+00 1.73260E+00
 -1      1048 9.69033E+00-6.74995E+00 1.73229E+00
 -1      1049 9.10956E+00-8.91072E+00 2.84807E+00
 -1      1050 9.76493E+00-5.24999E+00 1.51506E+00
 -1      1051 9.76497E+00-3.75033E+00 1.51494E+00
 -1      1052 9.20790E+00-5.99972E+00 2.70066E+00
 -1      1053 9.69085E+00-2.25133E+00 1.73088E+00
 -1      1054 9.69080E+00-7.48447E-01 1.73101E+00
 -1      1055 9.20817E+00-3.00000E+00 2.70024E+00
 -1      1056 9.76551E+00 7.50074E-01 1.51324E+00
 -1      1057 9.76554E+00 2.24790E+00 1.51316E+00
 -1      1058 9.20817E+00 0.00000E+00 2.70024E+00
 -1      1059 9.76556E+00 3.74900E+00 1.51308E+00
 -1      1060 9.76522E+00 5.24997E+00 1.51416E+00
 -1      1061 9.32851E+00 2.99996E+00 2.50280E+00
 -1      1062 9.69003E+00 6.75037E+00 1.73309E+00
 -1      1063 9.69021E+00 8.25000E+00 1.73260E+00
 -1      1064 9.20817E+00 6.00000E+00 2.70024E+00
 -1      1065 9.70839E+00 9.66072E+00 1.68257E+00
 -1      1066 9.70808E+00 1.11609E+01 1.68345E+00
 -1      1067 9.10956E+00 8.91072E+00 2.84807E+00
 -1      1068 9.35094E+00 1.18041E+01 2.46360E+00
 -1      1069 6.10556E+00-9.75000E+00 4.87624E+00
 -1      1070 6.10556E+00-1.12500E+01 4.87624E+00
 -1      1071 6.85279E+00-1.19308E+01 4.64405E+00
 -1      1072 6.07473E+00-6.75000E+00 4.88313E+00
 -1      1073 6.07473E+00-8.25000E+00 4.88313E+00
 -1      1074 7.12606E+00-9.00011E+00 4.52547E+00
 -1      1075 6.29904E+00-3.75000E+00 4.82830E+00
 -1      1076 6.29904E+00-5.25000E+00 4.82830E+00
 -1      1077 7.30650E+00-6.00000E+00 4.43622E+00
 -1      1078 6.07473E+00-7.50000E-01 4.88313E+00
 -1      1079 6.07473E+00-2.25000E+00 4.88313E+00
 -1      1080 7.30650E+00-3.00000E+00 4.43622E+00
 -1      1081 6.29904E+00 2.25000E+00 4.82830E+00
 -1      1082 6.29904E+00 7.50000E-01 4.82830E+00
 -1      1083 7.30650E+00 0.00000E+00 4.43622E+00
 -1      1084 6.29904E+00 5.25000E+00 4.82830E+00
 -1      1085 6.29904E+00 3.75000E+00 4.82830E+00
 -1      1086 7.50886E+00 3.00000E+00 4.32500E+00
 -1      1087 6.07473E+00 8.25000E+00 4.88313E+00
 -1      1088 6.07473E+00 6.75000E+00 4.88313E+00
 -1      1089 7.30650E+00 6.00000E+00 4.43622E+00
 -1      1090 6.10556E+00 1.12500E+01 4.87624E+00
 -1      1091 6.10678E+00 9.75032E+00 4.87597E+00
 -1      1092 7.12785E+00 9.00000E+00 4.52463E+00
 -1      1093 6.85423E+00 1.19280E+01 4.64347E+00
 -1      1094 7.89119E+00-1.39456E+01 4.07934E+00
 -1      1095 8.79961E+00-1.39456E+01 3.25007E+00
 -1      1096 7.51297E+00-1.31264E+01 4.32261E+00
 -1      1097 9.03142E+00-1.30892E+01 2.95764E+00
 -1      1098 8.78149E+00 1.16064E+01 3.27113E+00
 -1      1099 8.26166E+00 1.04107E+01 3.78967E+00
 -1      1100 7.79382E+00 1.16956E+01 4.14664E+00
 -1      1101 8.78152E+00-1.16063E+01 3.27111E+00
 -1      1102 7.79382E+00-1.16956E+01 4.14664E+00
 -1      1103 8.26166E+00-1.04107E+01 3.78967E+00
 -1      1104 8.37100E+00-6.00000E+00 3.69274E+00
 -1      1105 8.53790E+00-4.50000E+00 3.53317E+00
 -1      1106 8.19691E+00-7.50000E+00 3.84444E+00
 -1      1107 8.37051E+00-3.00077E+00 3.69319E+00
 -1      1108 8.19691E+00-1.50000E+00 3.84444E+00
 -1      1109 8.37024E+00 5.99971E+00 3.69344E+00
 -1      1110 8.53779E+00 4.50027E+00 3.53328E+00
 -1      1111 8.19691E+00 7.50000E+00 3.84444E+00
 -1      1112 8.53811E+00 3.00012E+00 3.53296E+00
 -1      1113 8.23766E+00-8.91072E+00 3.81019E+00
 -1      1114 8.37100E+00 0.00000E+00 3.69274E+00
 -1      1115 8.53836E+00 1.49998E+00 3.53271E+00
 -1      1116 8.23784E+00 8.91082E+00 3.81003E+00
 -1      1117-2.43227E+00-7.48880E+00 5.00000E+00
 -1      1118-2.40192E+00-1.50000E+00 5.00000E+00
 -1      1119-2.40192E+00 4.50000E+00 5.00000E+00
 -1      1120-2.42244E+00 1.06589E+01 5.00000E+00
 -1      1121 2.48207E+00 7.47945E+00 5.00000E+00
 -1      1122 2.41858E+00-1.06520E+01 5.00000E+00
 -1      1123 2.40192E+00-4.50000E+00 5.00000E+00
 -1      1124 2.40192E+00 1.50000E+00 5.00000E+00
 -1      1125 1.17289E+00 1.28965E+01 5.00000E+00
 -1      1126-1.17289E+00-1.28964E+01 5.00000E+00
 -1      1127-2.46207E+00 7.53778E+00 5.00000E+00
 -1      1128 2.45859E+00 4.50920E+00 5.00000E+00
 -1      1129 2.47002E+00-7.52545E+00 5.00000E+00
 -1      1130-2.40192E+00-4.50000E+00 5.00000E+00
 -1      1131-2.41853E+00 1.50066E+00 5.00000E+00
 -1      1132 2.40192E+00-1.50000E+00 5.00000E+00
 -1      1133 2.41913E+00 1.06580E+01 5.00000E+00
 -1      1134-1.86543E-03 8.91678E+00 5.00000E+00
 -1      1135-1.17135E+00 1.29641E+01 5.00000E+00
 -1      1136 1.17071E+00-1.29629E+01 5.00000E+00
 -1      1137-2.41202E+00-1.06592E+01 5.00000E+00
 -1      1138 7.38559E-03-8.90784E+00 5.00000E+00
 -1      1139-2.78806E-02 6.04464E+00 5.00000E+00
 -1      1140 9.48058E-03 3.01518E+00 5.00000E+00
 -1      1141-8.88178E-16-6.00000E+00 5.00000E+00
 -1      1142-8.48588E-04 1.88568E-03 5.00000E+00
 -1      1143-1.41431E-04-2.99969E+00 5.00000E+00
 -1      1144-5.19407E-04 1.11911E+01 5.00000E+00
 -1      1145-3.21876E+00 1.31246E+01 5.00000E+00
 -1      1146 1.68104E-03-1.11888E+01 5.00000E+00
 -1      1147 3.21841E+00 1.31109E+01 5.00000E+00
 -1      1148 3.21786E+00-1.31230E+01 5.00000E+00
 -1      1149-3.21698E+00-1.31111E+01 5.00000E+00
 -1      1150-4.10849E+00-1.25556E+01 5.00000E+00
 -1      1151-4.10849E+00-1.40556E+01 5.00000E+00
 -1      1152-2.85849E+00-1.40556E+01 5.00000E+00
 -1      1153-4.10938E+00 1.40623E+01 5.00000E+00
 -1      1154-4.10938E+00 1.25623E+01 5.00000E+00
 -1      1155-2.85938E+00 1.40623E+01 5.00000E+00
 -1      1156 4.10920E+00 1.40555E+01 5.00000E+00
 -1      1157 2.85920E+00 1.40555E+01 5.00000E+00
 -1      1158 4.10920E+00 1.25555E+01 5.00000E+00
 -1      1159 4.10893E+00-1.40615E+01 5.00000E+00
 -1      1160 4.10893E+00-1.25615E+01 5.00000E+00
 -1      1161 2.85893E+00-1.40615E+01 5.00000E+00
 -1      1162-3.70601E+00-9.82961E+00 5.00000E+00
 -1      1163-3.70601E+00-1.13296E+01 5.00000E+00
 -1      1164-2.81450E+00-1.18852E+01 5.00000E+00
 -1      1165-3.71613E+00-6.74440E+00 5.00000E+00
 -1      1166-3.71613E+00-8.24440E+00 5.00000E+00
 -1      1167-2.42214E+00-9.07401E+00 5.00000E+00
 -1      1168-3.70096E+00-3.75000E+00 5.00000E+00
 -1      1169-3.70096E+00-5.25000E+00 5.00000E+00
 -1      1170-2.41710E+00-5.99440E+00 5.00000E+00
 -1      1171-3.70096E+00-7.50000E-01 5.00000E+00
 -1      1172-3.70096E+00-2.25000E+00 5.00000E+00
 -1      1173-2.40192E+00-3.00000E+00 5.00000E+00
 -1      1174-3.70927E+00 2.25033E+00 5.00000E+00
 -1      1175-3.70927E+00 7.50329E-01 5.00000E+00
 -1      1176-2.41023E+00 3.29313E-04 5.00000E+00
 -1      1177-3.70096E+00 5.25000E+00 5.00000E+00
 -1      1178-3.70096E+00 3.75000E+00 5.00000E+00
 -1      1179-2.41023E+00 3.00033E+00 5.00000E+00
 -1      1180-3.73103E+00 8.26889E+00 5.00000E+00
 -1      1181-3.73103E+00 6.76889E+00 5.00000E+00
 -1      1182-2.43200E+00 6.01889E+00 5.00000E+00
 -1      1183-3.71122E+00 1.13294E+01 5.00000E+00
 -1      1184-3.71122E+00 9.82944E+00 5.00000E+00
 -1      1185-2.44226E+00 9.09833E+00 5.00000E+00
 -1      1186-2.82060E+00 1.18917E+01 5.00000E+00
 -1      1187 1.83645E+00 1.39482E+01 5.00000E+00
 -1      1188 5.86445E-01 1.39482E+01 5.00000E+00
 -1      1189 2.19565E+00 1.30037E+01 5.00000E+00
 -1      1190-5.85676E-01 1.39820E+01 5.00000E+00
 -1      1191-1.83568E+00 1.39820E+01 5.00000E+00
 -1      1192 7.69562E-04 1.29303E+01 5.00000E+00
 -1      1193-2.19506E+00 1.30443E+01 5.00000E+00
 -1      1194 3.70929E+00-1.13260E+01 5.00000E+00
 -1      1195 3.70929E+00-9.82602E+00 5.00000E+00
 -1      1196 2.81822E+00-1.18875E+01 5.00000E+00
 -1      1197 3.73501E+00-8.26272E+00 5.00000E+00
 -1      1198 3.73501E+00-6.76272E+00 5.00000E+00
 -1      1199 2.44430E+00-9.08874E+00 5.00000E+00
 -1      1200 3.70096E+00-5.25000E+00 5.00000E+00
 -1      1201 3.70096E+00-3.75000E+00 5.00000E+00
 -1      1202 2.43597E+00-6.01272E+00 5.00000E+00
 -1      1203 3.70096E+00-2.25000E+00 5.00000E+00
 -1      1204 3.70096E+00-7.50000E-01 5.00000E+00
 -1      1205 2.40192E+00-3.00000E+00 5.00000E+00
 -1      1206 3.70096E+00 7.50000E-01 5.00000E+00
 -1      1207 3.70096E+00 2.25000E+00 5.00000E+00
 -1      1208 2.40192E+00 0.00000E+00 5.00000E+00
 -1      1209 3.72929E+00 3.75460E+00 5.00000E+00
 -1      1210 3.72929E+00 5.25460E+00 5.00000E+00
 -1      1211 2.43026E+00 3.00460E+00 5.00000E+00
 -1      1212 3.74103E+00 6.73972E+00 5.00000E+00
 -1      1213 3.74103E+00 8.23972E+00 5.00000E+00
 -1      1214 2.47033E+00 5.99432E+00 5.00000E+00
 -1      1215 3.70957E+00 9.82902E+00 5.00000E+00
 -1      1216 3.70957E+00 1.13290E+01 5.00000E+00
 -1      1217 2.45060E+00 9.06874E+00 5.00000E+00
 -1      1218 2.81877E+00 1.18845E+01 5.00000E+00
 -1      1219-1.83645E+00-1.39482E+01 5.00000E+00
 -1      1220-5.86445E-01-1.39482E+01 5.00000E+00
 -1      1221-2.19494E+00-1.30038E+01 5.00000E+00
 -1      1222 5.85354E-01-1.39814E+01 5.00000E+00
 -1      1223 1.83535E+00-1.39814E+01 5.00000E+00
 -1      1224-1.09145E-03-1.29296E+01 5.00000E+00
 -1      1225 2.19428E+00-1.30429E+01 5.00000E+00
 -1      1226-1.20096E+00-5.25000E+00 5.00000E+00
 -1      1227-1.21613E+00-6.74440E+00 5.00000E+00
 -1      1228-1.21244E+00-8.19832E+00 5.00000E+00
 -1      1229-1.20232E+00-9.78353E+00 5.00000E+00
 -1      1230 3.69280E-03-7.45392E+00 5.00000E+00
 -1      1231-1.20103E+00-2.24984E+00 5.00000E+00
 -1      1232-1.20103E+00-3.74984E+00 5.00000E+00
 -1      1233-1.20969E+00 7.51272E-01 5.00000E+00
 -1      1234-1.20139E+00-7.49057E-01 5.00000E+00
 -1      1235-4.95010E-04-1.49890E+00 5.00000E+00
 -1      1236-1.24498E+00 6.79121E+00 5.00000E+00
 -1      1237-1.21490E+00 5.27232E+00 5.00000E+00
 -1      1238-1.19622E+00 3.75759E+00 5.00000E+00
 -1      1239-1.20453E+00 2.25792E+00 5.00000E+00
 -1      1240-9.20000E-03 4.52991E+00 5.00000E+00
 -1      1241-1.21215E+00 9.78783E+00 5.00000E+00
 -1      1242-1.23197E+00 8.22728E+00 5.00000E+00
 -1      1243-1.21148E+00 1.09250E+01 5.00000E+00
 -1      1244-1.19242E-03 1.00540E+01 5.00000E+00
 -1      1245-1.79690E+00 1.18115E+01 5.00000E+00
 -1      1246-5.85935E-01 1.20776E+01 5.00000E+00
 -1      1247 1.21535E+00 5.27692E+00 5.00000E+00
 -1      1248 1.22709E+00 6.76205E+00 5.00000E+00
 -1      1249 1.24010E+00 8.19811E+00 5.00000E+00
 -1      1250 1.20863E+00 9.78741E+00 5.00000E+00
 -1      1251-1.48730E-02 7.48071E+00 5.00000E+00
 -1      1252 1.21298E+00-9.77994E+00 5.00000E+00
 -1      1253 1.23870E+00-8.21665E+00 5.00000E+00
 -1      1254 1.79464E+00-1.18074E+01 5.00000E+00
 -1      1255 5.86194E-01-1.20758E+01 5.00000E+00
 -1      1256 1.21013E+00-1.09204E+01 5.00000E+00
 -1      1257 4.53332E-03-1.00483E+01 5.00000E+00
 -1      1258 1.23501E+00-6.76272E+00 5.00000E+00
 -1      1259 1.20096E+00-5.25000E+00 5.00000E+00
 -1      1260 1.20089E+00-3.74984E+00 5.00000E+00
 -1      1261 1.20089E+00-2.24984E+00 5.00000E+00
 -1      1262-7.07157E-05-4.49984E+00 5.00000E+00
 -1      1263 1.20570E+00 2.25759E+00 5.00000E+00
 -1      1264 1.23403E+00 3.76219E+00 5.00000E+00
 -1      1265 1.20054E+00-7.49057E-01 5.00000E+00
 -1      1266 1.20054E+00 7.50943E-01 5.00000E+00
 -1      1267 4.31599E-03 1.50853E+00 5.00000E+00
 -1      1268 1.79601E+00 1.17773E+01 5.00000E+00
 -1      1269 1.20931E+00 1.09246E+01 5.00000E+00
 -1      1270 5.86185E-01 1.20438E+01 5.00000E+00
 -1      1271-5.85605E-01-1.20426E+01 5.00000E+00
 -1      1272-1.79245E+00-1.17778E+01 5.00000E+00
 -1      1273-1.20517E+00-1.09240E+01 5.00000E+00
 -1      1274 3.25850E+01-1.50000E+01 2.49980E+00
 -1      1275-3.25850E+01-1.50000E+01 2.49980E+00
 -1      1276 2.67148E+01-1.50000E+01 2.55675E+00
 -1      1277-2.67148E+01-1.50000E+01 2.55675E+00
 -1      1278 2.08161E+01-1.50000E+01 2.55551E+00
 -1      1279-2.08161E+01-1.50000E+01 2.55549E+00
 -1      1280 1.48739E+01-1.50000E+01 2.35009E+00
 -1      1281-1.50945E+01-1.50000E+01 2.43056E+00
 -1      1282 1.17556E+01-1.50000E+01 7.42038E+00
 -1      1283-1.18149E+01-1.50000E+01 7.46616E+00
 -1      1284 3.56979E+01-1.50000E+01 7.42251E+00
 -1      1285-3.56979E+01-1.50000E+01 7.42251E+00
 -1      1286 2.96328E+01-1.50000E+01 7.44427E+00
 -1      1287-2.96328E+01-1.50000E+01 7.44427E+00
 -1      1288 2.37087E+01-1.50000E+01 7.44373E+00
 -1      1289-2.37088E+01-1.50000E+01 7.44373E+00
 -1      1290 1.78233E+01-1.50000E+01 7.38249E+00
 -1      1291-1.78021E+01-1.50000E+01 7.47991E+00
 -1      1292 3.79165E+01-1.50000E+01 3.82241E+00
 -1      1293-3.79165E+01-1.50000E+01 3.82241E+00
 -1      1294-1.11731E+01-1.50000E+01 1.26258E+00
 -1      1295 1.22136E+01-1.50000E+01 2.09683E+00
 -1      1296-1.15483E+01-1.50000E+01 3.43835E+00
 -1      1297 6.83997E+00-1.50000E+01 6.85494E+00
 -1      1298-6.71395E+00-1.50000E+01 6.80416E+00
 -1      1299 9.77172E+00-1.50000E+01 5.37575E+00
 -1      1300-9.17776E+00-1.50000E+01 6.21664E+00
 -1      1301 1.29461E+01-1.50000E+01 4.65622E+00
 -1      1302 1.47975E+01-1.50000E+01 7.40630E+00
 -1      1303 3.74492E+00-1.50000E+01 7.14183E+00
 -1      1304-3.74393E+00-1.50000E+01 7.14248E+00
 -1      1305-1.48735E+01-1.50000E+01 7.50430E+00
 -1      1306-3.26133E+01-1.50000E+01 7.46443E+00
 -1      1307 3.26133E+01-1.50000E+01 7.46443E+00
 -1      1308-2.66724E+01-1.50000E+01 7.44952E+00
 -1      1309 2.07756E+01-1.50000E+01 7.46353E+00
 -1      1310-2.07722E+01-1.50000E+01 7.47986E+00
 -1      1311 2.66723E+01-1.50000E+01 7.44952E+00
 -1      1312 2.37650E+01-1.50000E+01 2.55571E+00
 -1      1313 1.78949E+01-1.50000E+01 2.47501E+00
 -1      1314-2.37650E+01-1.50000E+01 2.55570E+00
 -1      1315-1.78829E+01-1.50000E+01 2.49636E+00
 -1      1316 2.96670E+01-1.50000E+01 2.55675E+00
 -1      1317-2.96670E+01-1.50000E+01 2.55675E+00
 -1      1318 1.24931E+00-1.50000E+01 7.16438E+00
 -1      1319-1.24883E+00-1.50000E+01 7.16427E+00
 -1      1320 3.79814E+01-1.50000E+01 6.16898E+00
 -1      1321-3.79814E+01-1.50000E+01 6.16898E+00
 -1      1322-1.64451E+01-1.50000E+01 4.98935E+00
 -1      1323 3.39315E+01-1.50000E+01 4.97080E+00
 -1      1324-3.39315E+01-1.50000E+01 4.97080E+00
 -1      1325 3.11328E+01-1.50000E+01 4.98719E+00
 -1      1326-3.11328E+01-1.50000E+01 4.98719E+00
 -1      1327 2.81764E+01-1.50000E+01 4.99592E+00
 -1      1328-2.81764E+01-1.50000E+01 4.99592E+00
 -1      1329 2.52202E+01-1.50000E+01 4.99677E+00
 -1      1330-2.52202E+01-1.50000E+01 4.99677E+00
 -1      1331-3.56931E+01-1.50000E+01 2.57525E+00
 -1      1332 3.56931E+01-1.50000E+01 2.57525E+00
 -1      1333 2.22778E+01-1.50000E+01 4.99197E+00
 -1      1334-2.22719E+01-1.50000E+01 5.00069E+00
 -1      1335-1.93390E+01-1.50000E+01 4.98795E+00
 -1      1336 1.93510E+01-1.50000E+01 4.97469E+00
 -1      1337 9.20924E+00-1.50000E+01 7.86763E+00
 -1      1338-1.34782E+01-1.50000E+01 4.84230E+00
 -1      1339 1.62835E+01-1.50000E+01 4.87323E+00
 -1      1340-8.95336E+00-1.50000E+01 8.30842E+00
 -1      1341-1.11216E+01-1.50000E+01 5.31362E+00
 -1      1342-1.28914E+01-1.50000E+01 1.96176E+00
 -1      1343 1.09512E+01-1.50000E+01 3.45100E+00
 -1      1344 3.81433E+01-1.50000E+01 8.21830E+00
 -1      1345-3.81433E+01-1.50000E+01 8.21830E+00
 -1      1346-3.81315E+01-1.50000E+01 1.77953E+00
 -1      1347 3.81315E+01-1.50000E+01 1.77953E+00
 -1      1348-3.62205E+01-1.50000E+01 4.99428E+00
 -1      1349 3.62205E+01-1.50000E+01 4.99428E+00
 -1      1350-5.57116E+00-1.50000E+01 8.48592E+00
 -1      1351 5.60246E+00-1.50000E+01 8.49894E+00
 -1      1352 1.06312E+01-1.50000E+01 1.77078E+00
 -1      1353 1.34860E-04-1.50000E+01 8.63707E+00
 -1      1354-1.02043E+01-1.50000E+01 2.00887E-01
 -1      1355-1.05885E+01-1.50000E+01 8.52988E-01
 -1      1356-1.08189E+01-1.50000E+01 6.27604E-01
 -1      1357-1.02447E+01-1.50000E+01 2.06129E+00
 -1      1358-1.22924E+01-1.50000E+01 6.32944E-01
 -1      1359-5.84963E+00-1.50000E+01 5.93755E+00
 -1      1360-7.07277E+00-1.50000E+01 5.63550E+00
 -1      1361-3.12511E+00-1.50000E+01 6.06991E+00
 -1      1362-4.37580E+00-1.50000E+01 6.07235E+00
 -1      1363-5.21724E+00-1.50000E+01 6.97255E+00
 -1      1364 1.02087E+01-1.50000E+01 2.04918E-01
 -1      1365 1.05508E+01-1.50000E+01 8.58254E-01
 -1      1366 1.03294E+01-1.50000E+01 1.10695E+00
 -1      1367 1.28224E+01-1.50000E+01 1.04505E+00
 -1      1368 1.13614E+01-1.50000E+01 1.04518E+00
 -1      1369 1.14159E+01-1.50000E+01 1.93067E+00
 -1      1370 9.94489E+00-1.50000E+01 2.30494E+00
 -1      1371 7.13264E+00-1.50000E+01 5.65193E+00
 -1      1372 5.91308E+00-1.50000E+01 5.96550E+00
 -1      1373 4.37689E+00-1.50000E+01 6.07192E+00
 -1      1374 3.12567E+00-1.50000E+01 6.06977E+00
 -1      1375 5.27956E+00-1.50000E+01 6.99992E+00
 -1      1376 3.90657E+01-1.50000E+01 8.89766E-01
 -1      1377 3.75896E+01-1.50000E+01 8.89766E-01
 -1      1378 3.90657E+01-1.50000E+01 2.13977E+00
 -1      1379 3.90716E+01-1.50000E+01 9.10915E+00
 -1      1380 3.90716E+01-1.50000E+01 7.85915E+00
 -1      1381 3.75902E+01-1.50000E+01 9.10915E+00
 -1      1382-3.90716E+01-1.50000E+01 9.10915E+00
 -1      1383-3.75902E+01-1.50000E+01 9.10915E+00
 -1      1384-3.90716E+01-1.50000E+01 7.85915E+00
 -1      1385-3.90657E+01-1.50000E+01 8.89766E-01
 -1      1386-3.90657E+01-1.50000E+01 2.13977E+00
 -1      1387-3.75896E+01-1.50000E+01 8.89766E-01
 -1      1388-8.27932E+00-1.50000E+01 5.32598E+00
 -1      1389-9.23300E+00-1.50000E+01 4.52778E+00
 -1      1390-1.03712E+01-1.50000E+01 3.11764E+00
 -1      1391-1.13710E+01-1.50000E+01 2.36345E+00
 -1      1392-1.01665E+01-1.50000E+01 4.04785E+00
 -1      1393-1.13319E+01-1.50000E+01 4.37306E+00
 -1      1394-1.01592E+01-1.50000E+01 5.76938E+00
 -1      1395-7.95070E+00-1.50000E+01 6.50507E+00
 -1      1396 9.51328E+00-1.50000E+01 4.08712E+00
 -1      1397 8.57505E+00-1.50000E+01 4.92153E+00
 -1      1398 8.30454E+00-1.50000E+01 6.11060E+00
 -1      1399 1.00680E+01-1.50000E+01 3.12272E+00
 -1      1400 1.03688E+01-1.50000E+01 4.41046E+00
 -1      1401 1.07832E+01-1.50000E+01 2.61896E+00
 -1      1402-6.24771E-01-1.50000E+01 6.08201E+00
 -1      1403-1.87475E+00-1.50000E+01 6.08194E+00
 -1      1404-2.49697E+00-1.50000E+01 7.15209E+00
 -1      1405 1.87512E+00-1.50000E+01 6.08200E+00
 -1      1406 6.25073E-01-1.50000E+01 6.08208E+00
 -1      1407 2.20187E-04-1.50000E+01 7.16444E+00
 -1      1408 2.49763E+00-1.50000E+01 7.15202E+00
 -1      1409 1.56274E+01-1.50000E+01 1.17376E+00
 -1      1410 1.41559E+01-1.50000E+01 1.17454E+00
 -1      1411 1.35419E+01-1.50000E+01 2.22174E+00
 -1      1412 1.86143E+01-1.50000E+01 1.23697E+00
 -1      1413 1.71401E+01-1.50000E+01 1.23704E+00
 -1      1414 1.63837E+01-1.50000E+01 2.41206E+00
 -1      1415 2.15511E+01-1.50000E+01 1.27747E+00
 -1      1416 2.00761E+01-1.50000E+01 1.27740E+00
 -1      1417 1.93552E+01-1.50000E+01 2.51519E+00
 -1      1418 2.45018E+01-1.50000E+01 1.27775E+00
 -1      1419 2.30264E+01-1.50000E+01 1.27757E+00
 -1      1420 2.22904E+01-1.50000E+01 2.55556E+00
 -1      1421 2.74528E+01-1.50000E+01 1.27837E+00
 -1      1422 2.59773E+01-1.50000E+01 1.27801E+00
 -1      1423 2.52399E+01-1.50000E+01 2.55612E+00
 -1      1424 3.04051E+01-1.50000E+01 1.27837E+00
 -1      1425 2.89290E+01-1.50000E+01 1.27837E+00
 -1      1426 2.81909E+01-1.50000E+01 2.55675E+00
 -1      1427 3.33402E+01-1.50000E+01 1.24990E+00
 -1      1428 3.18641E+01-1.50000E+01 1.24990E+00
 -1      1429 3.11260E+01-1.50000E+01 2.52827E+00
 -1      1430 3.63704E+01-1.50000E+01 1.28762E+00
 -1      1431 3.48943E+01-1.50000E+01 1.28762E+00
 -1      1432 3.41390E+01-1.50000E+01 2.53753E+00
 -1      1433 3.69123E+01-1.50000E+01 2.17739E+00
 -1      1434 3.89582E+01-1.50000E+01 4.41120E+00
 -1      1435 3.89582E+01-1.50000E+01 3.16120E+00
 -1      1436 3.80240E+01-1.50000E+01 2.80097E+00
 -1      1437 3.89907E+01-1.50000E+01 6.83449E+00
 -1      1438 3.89907E+01-1.50000E+01 5.58449E+00
 -1      1439 3.79489E+01-1.50000E+01 4.99569E+00
 -1      1440 3.80624E+01-1.50000E+01 7.19364E+00
 -1      1441 3.48860E+01-1.50000E+01 8.71126E+00
 -1      1442 3.63674E+01-1.50000E+01 8.71126E+00
 -1      1443 3.69206E+01-1.50000E+01 7.82041E+00
 -1      1444 3.18622E+01-1.50000E+01 8.73221E+00
 -1      1445 3.33437E+01-1.50000E+01 8.73221E+00
 -1      1446 3.41556E+01-1.50000E+01 7.44347E+00
 -1      1447 2.88905E+01-1.50000E+01 8.72213E+00
 -1      1448 3.03719E+01-1.50000E+01 8.72213E+00
 -1      1449 3.11230E+01-1.50000E+01 7.45435E+00
 -1      1450 2.59288E+01-1.50000E+01 8.72476E+00
 -1      1451 2.74102E+01-1.50000E+01 8.72476E+00
 -1      1452 2.81526E+01-1.50000E+01 7.44689E+00
 -1      1453 2.29655E+01-1.50000E+01 8.72186E+00
 -1      1454 2.44469E+01-1.50000E+01 8.72186E+00
 -1      1455 2.51905E+01-1.50000E+01 7.44662E+00
 -1      1456 2.00186E+01-1.50000E+01 8.73238E+00
 -1      1457 2.14983E+01-1.50000E+01 8.73209E+00
 -1      1458 2.22421E+01-1.50000E+01 7.45345E+00
 -1      1459 1.70617E+01-1.50000E+01 8.69215E+00
 -1      1460 1.85412E+01-1.50000E+01 8.69158E+00
 -1      1461 1.92993E+01-1.50000E+01 7.42289E+00
 -1      1462 1.40676E+01-1.50000E+01 8.70447E+00
 -1      1463 1.55471E+01-1.50000E+01 8.70324E+00
 -1      1464 1.63103E+01-1.50000E+01 7.39404E+00
 -1      1465 1.10644E+01-1.50000E+01 8.71156E+00
 -1      1466 1.25453E+01-1.50000E+01 8.70940E+00
 -1      1467 1.32771E+01-1.50000E+01 7.41280E+00
 -1      1468 8.30623E+00-1.50000E+01 8.93441E+00
 -1      1469 9.79088E+00-1.50000E+01 8.93245E+00
 -1      1470 1.04836E+01-1.50000E+01 7.64448E+00
 -1      1471 5.02161E+00-1.50000E+01 9.24784E+00
 -1      1472 6.50651E+00-1.50000E+01 9.25018E+00
 -1      1473 8.02644E+00-1.50000E+01 7.35668E+00
 -1      1474 7.12038E+00-1.50000E+01 8.42165E+00
 -1      1475 6.21615E+00-1.50000E+01 7.67220E+00
 -1      1476 2.61218E+00-1.50000E+01 8.57040E+00
 -1      1477 4.09064E+00-1.50000E+01 8.57430E+00
 -1      1478 4.67126E+00-1.50000E+01 7.82613E+00
 -1      1479-7.40110E-01-1.50000E+01 9.31873E+00
 -1      1480 7.40285E-01-1.50000E+01 9.31871E+00
 -1      1481 1.36409E+00-1.50000E+01 8.58241E+00
 -1      1482 6.24455E-01-1.50000E+01 7.90064E+00
 -1      1483-4.09025E+00-1.50000E+01 8.57448E+00
 -1      1484-2.61170E+00-1.50000E+01 8.57058E+00
 -1      1485-1.36370E+00-1.50000E+01 8.58240E+00
 -1      1486-6.24056E-01-1.50000E+01 7.90059E+00
 -1      1487-6.49120E+00-1.50000E+01 9.24363E+00
 -1      1488-5.00608E+00-1.50000E+01 9.24131E+00
 -1      1489-4.65521E+00-1.50000E+01 7.81930E+00
 -1      1490-9.66314E+00-1.50000E+01 9.15288E+00
 -1      1491-8.17868E+00-1.50000E+01 9.15427E+00
 -1      1492-7.83608E+00-1.50000E+01 7.54995E+00
 -1      1493-7.05863E+00-1.50000E+01 8.39510E+00
 -1      1494-6.13773E+00-1.50000E+01 7.64002E+00
 -1      1495-1.25748E+01-1.50000E+01 8.73213E+00
 -1      1496-1.10933E+01-1.50000E+01 8.73386E+00
 -1      1497-1.03850E+01-1.50000E+01 7.88738E+00
 -1      1498-1.55851E+01-1.50000E+01 8.75224E+00
 -1      1499-1.41056E+01-1.50000E+01 8.75346E+00
 -1      1500-1.33446E+01-1.50000E+01 7.48412E+00
 -1      1501-1.85306E+01-1.50000E+01 8.74026E+00
 -1      1502-1.70510E+01-1.50000E+01 8.74082E+00
 -1      1503-1.63377E+01-1.50000E+01 7.49171E+00
 -1      1504-2.14965E+01-1.50000E+01 8.74026E+00
 -1      1505-2.00169E+01-1.50000E+01 8.74055E+00
 -1      1506-1.92870E+01-1.50000E+01 7.47977E+00
 -1      1507-2.44470E+01-1.50000E+01 8.72186E+00
 -1      1508-2.29655E+01-1.50000E+01 8.72186E+00
 -1      1509-2.22404E+01-1.50000E+01 7.46162E+00
 -1      1510-2.74103E+01-1.50000E+01 8.72476E+00
 -1      1511-2.59288E+01-1.50000E+01 8.72476E+00
 -1      1512-2.51906E+01-1.50000E+01 7.44662E+00
 -1      1513-3.03719E+01-1.50000E+01 8.72213E+00
 -1      1514-2.88905E+01-1.50000E+01 8.72213E+00
 -1      1515-2.81526E+01-1.50000E+01 7.44689E+00
 -1      1516-3.33437E+01-1.50000E+01 8.73221E+00
 -1      1517-3.18622E+01-1.50000E+01 8.73221E+00
 -1      1518-3.11230E+01-1.50000E+01 7.45435E+00
 -1      1519-3.63674E+01-1.50000E+01 8.71126E+00
 -1      1520-3.48860E+01-1.50000E+01 8.71126E+00
 -1      1521-3.41556E+01-1.50000E+01 7.44347E+00
 -1      1522-3.69206E+01-1.50000E+01 7.82041E+00
 -1      1523-3.89907E+01-1.50000E+01 5.58449E+00
 -1      1524-3.89907E+01-1.50000E+01 6.83449E+00
 -1      1525-3.80624E+01-1.50000E+01 7.19364E+00
 -1      1526-3.89582E+01-1.50000E+01 3.16120E+00
 -1      1527-3.89582E+01-1.50000E+01 4.41120E+00
 -1      1528-3.79489E+01-1.50000E+01 4.99569E+00
 -1      1529-3.80240E+01-1.50000E+01 2.80097E+00
 -1      1530-3.48943E+01-1.50000E+01 1.28762E+00
 -1      1531-3.63704E+01-1.50000E+01 1.28762E+00
 -1      1532-3.69123E+01-1.50000E+01 2.17739E+00
 -1      1533-3.18641E+01-1.50000E+01 1.24990E+00
 -1      1534-3.33402E+01-1.50000E+01 1.24990E+00
 -1      1535-3.41390E+01-1.50000E+01 2.53753E+00
 -1      1536-2.89290E+01-1.50000E+01 1.27837E+00
 -1      1537-3.04051E+01-1.50000E+01 1.27837E+00
 -1      1538-3.11260E+01-1.50000E+01 2.52827E+00
 -1      1539-2.59774E+01-1.50000E+01 1.27801E+00
 -1      1540-2.74528E+01-1.50000E+01 1.27837E+00
 -1      1541-2.81909E+01-1.50000E+01 2.55675E+00
 -1      1542-2.30264E+01-1.50000E+01 1.27757E+00
 -1      1543-2.45018E+01-1.50000E+01 1.27774E+00
 -1      1544-2.52399E+01-1.50000E+01 2.55612E+00
 -1      1545-2.00761E+01-1.50000E+01 1.27738E+00
 -1      1546-2.15511E+01-1.50000E+01 1.27746E+00
 -1      1547-2.22904E+01-1.50000E+01 2.55554E+00
 -1      1548-1.71341E+01-1.50000E+01 1.24769E+00
 -1      1549-1.86083E+01-1.50000E+01 1.24765E+00
 -1      1550-1.93492E+01-1.50000E+01 2.52585E+00
 -1      1551-1.42659E+01-1.50000E+01 1.21459E+00
 -1      1552-1.57379E+01-1.50000E+01 1.21409E+00
 -1      1553-1.64880E+01-1.50000E+01 2.46310E+00
 -1      1554-1.31603E+01-1.50000E+01 9.78670E-01
 -1      1555-1.39919E+01-1.50000E+01 2.19572E+00
 -1      1556-1.20283E+01-1.50000E+01 1.61855E+00
 -1      1557 3.18589E+01-1.50000E+01 3.74349E+00
 -1      1558 3.03999E+01-1.50000E+01 3.77197E+00
 -1      1559 3.25321E+01-1.50000E+01 4.97899E+00
 -1      1560 3.32582E+01-1.50000E+01 3.73530E+00
 -1      1561 3.48123E+01-1.50000E+01 3.77302E+00
 -1      1562-3.03999E+01-1.50000E+01 3.77197E+00
 -1      1563-3.18589E+01-1.50000E+01 3.74349E+00
 -1      1564-3.25321E+01-1.50000E+01 4.97899E+00
 -1      1565-3.32582E+01-1.50000E+01 3.73530E+00
 -1      1566-3.48123E+01-1.50000E+01 3.77302E+00
 -1      1567 2.59675E+01-1.50000E+01 3.77676E+00
 -1      1568 2.44931E+01-1.50000E+01 3.77601E+00
 -1      1569 2.89217E+01-1.50000E+01 3.77633E+00
 -1      1570 2.74456E+01-1.50000E+01 3.77633E+00
 -1      1571 2.66983E+01-1.50000E+01 4.99634E+00
 -1      1572-2.44932E+01-1.50000E+01 3.77600E+00
 -1      1573-2.59675E+01-1.50000E+01 3.77676E+00
 -1      1574-2.74456E+01-1.50000E+01 3.77633E+00
 -1      1575-2.89217E+01-1.50000E+01 3.77633E+00
 -1      1576-2.66983E+01-1.50000E+01 4.99634E+00
 -1      1577 2.30215E+01-1.50000E+01 3.77366E+00
 -1      1578 2.15476E+01-1.50000E+01 3.77365E+00
 -1      1579 2.00838E+01-1.50000E+01 3.76482E+00
 -1      1580 1.86241E+01-1.50000E+01 3.72479E+00
 -1      1581 2.08141E+01-1.50000E+01 4.98320E+00
 -1      1582-2.15447E+01-1.50000E+01 3.77799E+00
 -1      1583-2.30186E+01-1.50000E+01 3.77801E+00
 -1      1584-1.86121E+01-1.50000E+01 3.74208E+00
 -1      1585-2.00779E+01-1.50000E+01 3.77143E+00
 -1      1586-2.08052E+01-1.50000E+01 4.99419E+00
 -1      1587 1.39124E+01-1.50000E+01 3.50234E+00
 -1      1588 1.25826E+01-1.50000E+01 3.37808E+00
 -1      1589 1.55806E+01-1.50000E+01 3.61181E+00
 -1      1590 1.46140E+01-1.50000E+01 4.76257E+00
 -1      1591 1.70900E+01-1.50000E+01 3.67362E+00
 -1      1592-1.57717E+01-1.50000E+01 3.71019E+00
 -1      1593-1.71649E+01-1.50000E+01 3.74243E+00
 -1      1594-1.42893E+01-1.50000E+01 3.63626E+00
 -1      1595-1.49612E+01-1.50000E+01 4.91450E+00
 -1      1596-1.31890E+01-1.50000E+01 3.40427E+00
 -1      1597 1.13604E+01-1.50000E+01 5.01119E+00
 -1      1598 1.23531E+01-1.50000E+01 6.04005E+00
 -1      1599 1.07635E+01-1.50000E+01 6.39457E+00
 -1      1600 9.48845E+00-1.50000E+01 6.62113E+00
 -1      1601 1.38720E+01-1.50000E+01 6.03084E+00
 -1      1602-9.06807E+00-1.50000E+01 7.26277E+00
 -1      1603-1.05000E+01-1.50000E+01 6.83874E+00
 -1      1604-1.14676E+01-1.50000E+01 6.39074E+00
 -1      1605-1.41767E+01-1.50000E+01 6.17327E+00
 -1      1606-1.26499E+01-1.50000E+01 6.15579E+00
 -1      1607-1.22992E+01-1.50000E+01 5.07622E+00
 -1      1608 3.32724E+01-1.50000E+01 6.21761E+00
 -1      1609 3.48147E+01-1.50000E+01 6.19665E+00
 -1      1610 3.68396E+01-1.50000E+01 6.79575E+00
 -1      1611 3.59592E+01-1.50000E+01 6.20840E+00
 -1      1612 3.71010E+01-1.50000E+01 5.58163E+00
 -1      1613 3.50760E+01-1.50000E+01 4.98254E+00
 -1      1614-3.48147E+01-1.50000E+01 6.19665E+00
 -1      1615-3.32724E+01-1.50000E+01 6.21761E+00
 -1      1616-3.68396E+01-1.50000E+01 6.79575E+00
 -1      1617-3.71010E+01-1.50000E+01 5.58163E+00
 -1      1618-3.59592E+01-1.50000E+01 6.20840E+00
 -1      1619-3.50760E+01-1.50000E+01 4.98254E+00
 -1      1620 3.03828E+01-1.50000E+01 6.21573E+00
 -1      1621 3.18731E+01-1.50000E+01 6.22581E+00
 -1      1622 2.74244E+01-1.50000E+01 6.22272E+00
 -1      1623 2.89046E+01-1.50000E+01 6.22009E+00
 -1      1624 2.96546E+01-1.50000E+01 4.99155E+00
 -1      1625-3.18731E+01-1.50000E+01 6.22581E+00
 -1      1626-3.03828E+01-1.50000E+01 6.21573E+00
 -1      1627-2.89046E+01-1.50000E+01 6.22009E+00
 -1      1628-2.74244E+01-1.50000E+01 6.22272E+00
 -1      1629-2.96546E+01-1.50000E+01 4.99155E+00
 -1      1630 2.15271E+01-1.50000E+01 6.22770E+00
 -1      1631 2.29934E+01-1.50000E+01 6.21788E+00
 -1      1632 2.44644E+01-1.50000E+01 6.22025E+00
 -1      1633 2.59463E+01-1.50000E+01 6.22314E+00
 -1      1634 2.37489E+01-1.50000E+01 4.99408E+00
 -1      1635-2.59463E+01-1.50000E+01 6.22314E+00
 -1      1636-2.44645E+01-1.50000E+01 6.22025E+00
 -1      1637-2.29905E+01-1.50000E+01 6.22223E+00
 -1      1638-2.15224E+01-1.50000E+01 6.24023E+00
 -1      1639-2.37459E+01-1.50000E+01 4.99843E+00
 -1      1640 1.55424E+01-1.50000E+01 6.14037E+00
 -1      1641 1.70540E+01-1.50000E+01 6.12793E+00
 -1      1642 1.85881E+01-1.50000E+01 6.17872E+00
 -1      1643 2.00637E+01-1.50000E+01 6.21920E+00
 -1      1644 1.78168E+01-1.50000E+01 4.92344E+00
 -1      1645-1.71242E+01-1.50000E+01 6.23475E+00
 -1      1646-1.56611E+01-1.50000E+01 6.24734E+00
 -1      1647-2.00560E+01-1.50000E+01 6.23400E+00
 -1      1648-1.85716E+01-1.50000E+01 6.23408E+00
 -1      1649-1.78916E+01-1.50000E+01 4.98822E+00
 -1      1650 3.70685E+01-1.50000E+01 4.40834E+00
 -1      1651 3.68048E+01-1.50000E+01 3.19883E+00
 -1      1652 3.59568E+01-1.50000E+01 3.78476E+00
 -1      1653-3.70685E+01-1.50000E+01 4.40834E+00
 -1      1654-3.68048E+01-1.50000E+01 3.19883E+00
 -1      1655-3.59568E+01-1.50000E+01 3.78476E+00
 -1      1656-1.22246E+01-1.50000E+01 2.69982E+00
 -1      1657 1.19491E+01-1.50000E+01 4.05217E+00
 -1      1658 1.15877E+01-1.50000E+01 2.77613E+00
 -1      1659-1.25131E+01-1.50000E+01 4.13775E+00
 -1      1660 1.30136E+01 1.50658E+00-2.77556E-16
 -1      1661 3.74028E+01-1.49367E+00-2.77556E-16
 -1      1662 2.64533E+01 1.23209E+01-2.77556E-16
 -1      1663 2.40272E+01-1.23384E+01-2.77556E-16
 -1      1664 3.74048E+01 4.50486E+00-2.77556E-16
 -1      1665 1.29359E+01-4.50199E+00-2.77556E-16
 -1      1666 2.08102E+01 1.24433E+01-2.77556E-16
 -1      1667 2.96642E+01-1.23528E+01-2.77556E-16
 -1      1668 3.28524E+01 1.23278E+01-2.77556E-16
 -1      1669 1.78579E+01-1.24433E+01-2.77556E-16
 -1      1670 3.74193E+01-7.47126E+00-2.77556E-16
 -1      1671 1.28087E+01 7.42636E+00-2.77556E-16
 -1      1672 3.52792E+01-1.22888E+01-2.77556E-16
 -1      1673 1.49157E+01 1.24939E+01-2.77556E-16
 -1      1674 3.75271E+01 1.04781E+01-2.77556E-16
 -1      1675 1.29857E+01-1.04849E+01-2.77556E-16
 -1      1676 3.74263E+01 7.49702E+00-2.77556E-16
 -1      1677 3.48176E+01 6.00427E+00-2.77556E-16
 -1      1678 3.48108E+01 3.01518E+00-2.77556E-16
 -1      1679 3.22269E+01 4.51474E+00-2.77556E-16
 -1      1680 3.22181E+01 1.53189E+00-2.77556E-16
 -1      1681 2.96394E+01 3.03243E+00-2.77556E-16
 -1      1682 2.96321E+01 5.14066E-02-2.77556E-16
 -1      1683 2.70561E+01 1.55089E+00-2.77556E-16
 -1      1684 2.70419E+01-1.41685E+00-2.77556E-16
 -1      1685 2.44743E+01 6.88079E-02-2.77556E-16
 -1      1686 2.44811E+01 3.05589E+00-2.77556E-16
 -1      1687 2.44582E+01-2.89572E+00-2.77556E-16
 -1      1688 2.95784E+01-2.94458E+00-2.77556E-16
 -1      1689 2.18914E+01-1.41155E+00-2.77556E-16
 -1      1690 2.18828E+01-4.38807E+00-2.77556E-16
 -1      1691 2.44571E+01-5.88638E+00-2.77556E-16
 -1      1692 2.96454E+01 6.01130E+00-2.77556E-16
 -1      1693 1.93556E+01-2.81315E+00-2.77556E-16
 -1      1694 1.93245E+01 9.89000E-02-2.77556E-16
 -1      1695 1.93889E+01-5.89945E+00-2.77556E-16
 -1      1696 1.69499E+01-1.34290E+00-2.77556E-16
 -1      1697 1.68159E+01 1.58860E+00-2.77556E-16
 -1      1698 1.93397E+01 3.07311E+00-2.77556E-16
 -1      1699 1.68190E+01 4.57079E+00-2.77556E-16
 -1      1700 1.93477E+01 6.05524E+00-2.77556E-16
 -1      1701 1.68101E+01 7.52040E+00-2.77556E-16
 -1      1702 1.93205E+01 9.48106E+00-2.77556E-16
 -1      1703 2.19149E+01 7.53790E+00-2.77556E-16
 -1      1704 3.48092E+01 1.85986E-02-2.77556E-16
 -1      1705 3.46071E+01 9.47657E+00-2.77556E-16
 -1      1706 2.19123E+01 4.55510E+00-2.77556E-16
 -1      1707 2.44863E+01 6.04202E+00-2.77556E-16
 -1      1708 2.47383E+01 9.43644E+00-2.77556E-16
 -1      1709 2.70609E+01 7.52940E+00-2.77556E-16
 -1      1710 1.30339E+01-7.49867E+00-2.77556E-16
 -1      1711 1.57798E+01-9.29520E+00-2.77556E-16
 -1      1712 1.53274E+01-5.95660E+00-2.77556E-16
 -1      1713 3.74079E+01-4.49383E+00-2.77556E-16
 -1      1714 3.48179E+01-5.99199E+00-2.77556E-16
 -1      1715 3.49105E+01-9.00886E+00-2.77556E-16
 -1      1716 3.22001E+01-7.49449E+00-2.77556E-16
 -1      1717 3.23879E+01-1.05129E+01-2.77556E-16
 -1      1718 2.96198E+01-9.09043E+00-2.77556E-16
 -1      1719 2.69000E+01-1.06612E+01-2.77556E-16
 -1      1720 2.69412E+01-7.66383E+00-2.77556E-16
 -1      1721 2.43007E+01-9.04371E+00-2.77556E-16
 -1      1722 2.19372E+01-1.02183E+01-2.77556E-16
 -1      1723 2.95945E+01-6.00584E+00-2.77556E-16
 -1      1724 3.22016E+01-4.48054E+00-2.77556E-16
 -1      1725 1.28627E+01 4.51206E+00-2.77556E-16
 -1      1726 3.22306E+01 7.49974E+00-2.77556E-16
 -1      1727 2.18029E+01-7.45421E+00-2.77556E-16
 -1      1728 1.29288E+01-1.49412E+00-2.77556E-16
 -1      1729 2.70556E+01 4.54274E+00-2.77556E-16
 -1      1730 3.48075E+01-2.98129E+00-2.77556E-16
 -1      1731 3.74046E+01 1.50750E+00-2.77556E-16
 -1      1732 3.22078E+01-1.46742E+00-2.77556E-16
 -1      1733 2.96554E+01 8.91868E+00-2.77556E-16
 -1      1734 2.19039E+01 1.57338E+00-2.77556E-16
 -1      1735 2.96605E+01 1.19423E+01-2.77556E-16
 -1      1736 2.36079E+01 1.23937E+01-2.77556E-16
 -1      1737 1.78579E+01 1.24433E+01-2.77556E-16
 -1      1738 2.70119E+01-4.46887E+00-2.77556E-16
 -1      1739 3.75760E+01-1.04338E+01-2.77556E-16
 -1      1740 1.32274E+01 1.03718E+01-2.77556E-16
 -1      1741 3.55937E+01 1.25153E+01-2.77556E-16
 -1      1742 1.48506E+01-1.25032E+01-2.77556E-16
 -1      1743 1.93019E+01-9.36971E+00-2.77556E-16
 -1      1744 1.63818E+01 1.02061E+01-2.77556E-16
 -1      1745 2.21208E+01 1.01613E+01-2.77556E-16
 -1      1746 2.08051E+01-1.27248E+01-2.77556E-16
 -1      1747 3.25140E+01-1.30309E+01-2.77556E-16
 -1      1748 3.18012E+01 1.00330E+01-2.77556E-16
 -1      1749 2.75137E+01 1.00295E+01-2.77556E-16
 -1      1750 1.72360E+01-4.40821E+00-2.77556E-16
 -1      1751 2.67148E+01-1.30973E+01-2.77556E-16
 -1      1752 1.75368E+01-7.43672E+00-2.77556E-16
 -1      1753 1.49081E+01 6.02874E+00-2.77556E-16
 -1      1754 1.48925E+01 3.05084E+00-2.77556E-16
 -1      1755 3.78084E+01 1.27959E+01-2.77556E-16
 -1      1756 1.26703E+01-1.27951E+01-2.77556E-16
 -1      1757 1.49088E+01 5.19207E-02-2.77556E-16
 -1      1758 1.50475E+01-2.94175E+00-2.77556E-16
 -1      1759 3.78471E+01-1.28340E+01-2.77556E-16
 -1      1760 1.25847E+01 1.28847E+01-2.77556E-16
 -1      1761 1.48484E+01 8.40532E+00-2.77556E-16
 -1      1762 3.89042E+01 1.38980E+01-2.77556E-16
 -1      1763 3.74281E+01 1.38980E+01-2.77556E-16
 -1      1764 3.89042E+01 1.23980E+01-2.77556E-16
 -1      1765 1.30071E+01 1.39423E+01-2.77556E-16
 -1      1766 1.15311E+01 1.39420E+01-2.77556E-16
 -1      1767 1.15313E+01 1.24426E+01-2.77556E-16
 -1      1768 1.15760E+01-1.24054E+01-2.77556E-16
 -1      1769 1.15731E+01-1.38976E+01-2.77556E-16
 -1      1770 1.30492E+01-1.38979E+01-2.77556E-16
 -1      1771 3.74474E+01-1.39170E+01-2.77556E-16
 -1      1772 3.89235E+01-1.39170E+01-2.77556E-16
 -1      1773 3.89235E+01-1.24170E+01-2.77556E-16
 -1      1774 3.63207E+01 1.37577E+01-2.77556E-16
 -1      1775 3.48446E+01 1.37577E+01-2.77556E-16
 -1      1776 3.67011E+01 1.26556E+01-2.77556E-16
 -1      1777 3.34739E+01 1.36639E+01-2.77556E-16
 -1      1778 3.19978E+01 1.36639E+01-2.77556E-16
 -1      1779 3.42231E+01 1.24215E+01-2.77556E-16
 -1      1780 3.04018E+01 1.34711E+01-2.77556E-16
 -1      1781 2.89257E+01 1.34711E+01-2.77556E-16
 -1      1782 3.12565E+01 1.21350E+01-2.77556E-16
 -1      1783 2.73221E+01 1.36605E+01-2.77556E-16
 -1      1784 2.58460E+01 1.36605E+01-2.77556E-16
 -1      1785 2.80569E+01 1.21316E+01-2.77556E-16
 -1      1786 2.44233E+01 1.36968E+01-2.77556E-16
 -1      1787 2.29471E+01 1.36968E+01-2.77556E-16
 -1      1788 2.50306E+01 1.23573E+01-2.77556E-16
 -1      1789 2.15483E+01 1.37216E+01-2.77556E-16
 -1      1790 2.00721E+01 1.37216E+01-2.77556E-16
 -1      1791 2.22091E+01 1.24185E+01-2.77556E-16
 -1      1792 1.85960E+01 1.37216E+01-2.77556E-16
 -1      1793 1.71199E+01 1.37216E+01-2.77556E-16
 -1      1794 1.93341E+01 1.24433E+01-2.77556E-16
 -1      1795 1.56488E+01 1.37470E+01-2.77556E-16
 -1      1796 1.41726E+01 1.37470E+01-2.77556E-16
 -1      1797 1.63868E+01 1.24686E+01-2.77556E-16
 -1      1798 1.37502E+01 1.26893E+01-2.77556E-16
 -1      1799 1.18525E+01 1.11860E+01-2.77556E-16
 -1      1800 1.18527E+01 9.68606E+00-2.77556E-16
 -1      1801 1.29060E+01 1.16283E+01-2.77556E-16
 -1      1802 1.16433E+01 8.21294E+00-2.77556E-16
 -1      1803 1.16429E+01 6.71317E+00-2.77556E-16
 -1      1804 1.30180E+01 8.89905E+00-2.77556E-16
 -1      1805 1.16730E+01 5.25449E+00-2.77556E-16
 -1      1806 1.16751E+01 3.75905E+00-2.77556E-16
 -1      1807 1.28343E+01 5.96896E+00-2.77556E-16
 -1      1808 1.17505E+01 2.25023E+00-2.77556E-16
 -1      1809 1.17492E+01 7.56670E-01-2.77556E-16
 -1      1810 1.29368E+01 3.00964E+00-2.77556E-16
 -1      1811 1.17067E+01-7.49350E-01-2.77556E-16
 -1      1812 1.17034E+01-2.24707E+00-2.77556E-16
 -1      1813 1.29686E+01 9.42328E-03-2.77556E-16
 -1      1814 1.17098E+01-3.74910E+00-2.77556E-16
 -1      1815 1.17122E+01-5.25033E+00-2.77556E-16
 -1      1816 1.29314E+01-2.99717E+00-2.77556E-16
 -1      1817 1.17555E+01-6.74924E+00-2.77556E-16
 -1      1818 1.17556E+01-8.24933E+00-2.77556E-16
 -1      1819 1.29855E+01-6.00043E+00-2.77556E-16
 -1      1820 1.17314E+01-9.74243E+00-2.77556E-16
 -1      1821 1.17315E+01-1.12422E+01-2.77556E-16
 -1      1822 1.30098E+01-8.99176E+00-2.77556E-16
 -1      1823 1.28273E+01-1.16404E+01-2.77556E-16
 -1      1824 1.41400E+01-1.37516E+01-2.77556E-16
 -1      1825 1.56162E+01-1.37516E+01-2.77556E-16
 -1      1826 1.37597E+01-1.26496E+01-2.77556E-16
 -1      1827 1.71199E+01-1.37216E+01-2.77556E-16
 -1      1828 1.85960E+01-1.37216E+01-2.77556E-16
 -1      1829 1.63542E+01-1.24732E+01-2.77556E-16
 -1      1830 2.00696E+01-1.38624E+01-2.77556E-16
 -1      1831 2.15457E+01-1.38624E+01-2.77556E-16
 -1      1832 1.93315E+01-1.25840E+01-2.77556E-16
 -1      1833 2.31567E+01-1.36692E+01-2.77556E-16
 -1      1834 2.46329E+01-1.36692E+01-2.77556E-16
 -1      1835 2.24162E+01-1.25316E+01-2.77556E-16
 -1      1836 2.59767E+01-1.40487E+01-2.77556E-16
 -1      1837 2.74528E+01-1.40487E+01-2.77556E-16
 -1      1838 2.53710E+01-1.27178E+01-2.77556E-16
 -1      1839 2.89275E+01-1.36764E+01-2.77556E-16
 -1      1840 3.04037E+01-1.36764E+01-2.77556E-16
 -1      1841 2.81895E+01-1.27251E+01-2.77556E-16
 -1      1842 3.18286E+01-1.40155E+01-2.77556E-16
 -1      1843 3.33047E+01-1.40155E+01-2.77556E-16
 -1      1844 3.10891E+01-1.26918E+01-2.77556E-16
 -1      1845 3.46873E+01-1.36444E+01-2.77556E-16
 -1      1846 3.61635E+01-1.36444E+01-2.77556E-16
 -1      1847 3.38966E+01-1.26599E+01-2.77556E-16
 -1      1848 3.65632E+01-1.25614E+01-2.77556E-16
 -1      1849 3.87880E+01-1.12169E+01-2.77556E-16
 -1      1850 3.87880E+01-9.71691E+00-2.77556E-16
 -1      1851 3.77115E+01-1.16339E+01-2.77556E-16
 -1      1852 3.87097E+01-8.23563E+00-2.77556E-16
 -1      1853 3.87097E+01-6.73563E+00-2.77556E-16
 -1      1854 3.74977E+01-8.95254E+00-2.77556E-16
 -1      1855 3.87039E+01-5.24692E+00-2.77556E-16
 -1      1856 3.87039E+01-3.74692E+00-2.77556E-16
 -1      1857 3.74136E+01-5.98255E+00-2.77556E-16
 -1      1858 3.87014E+01-2.24683E+00-2.77556E-16
 -1      1859 3.87014E+01-7.46833E-01-2.77556E-16
 -1      1860 3.74053E+01-2.99375E+00-2.77556E-16
 -1      1861 3.87023E+01 7.53748E-01-2.77556E-16
 -1      1862 3.87023E+01 2.25375E+00-2.77556E-16
 -1      1863 3.74037E+01 6.91491E-03-2.77556E-16
 -1      1864 3.87024E+01 3.75243E+00-2.77556E-16
 -1      1865 3.87024E+01 5.25243E+00-2.77556E-16
 -1      1866 3.74047E+01 3.00618E+00-2.77556E-16
 -1      1867 3.87131E+01 6.74851E+00-2.77556E-16
 -1      1868 3.87131E+01 8.24851E+00-2.77556E-16
 -1      1869 3.74155E+01 6.00094E+00-2.77556E-16
 -1      1870 3.87636E+01 9.73905E+00-2.77556E-16
 -1      1871 3.87636E+01 1.12391E+01-2.77556E-16
 -1      1872 3.74767E+01 8.98756E+00-2.77556E-16
 -1      1873 3.76678E+01 1.16370E+01-2.77556E-16
 -1      1874 1.38764E+01 3.78122E+00-2.77556E-16
 -1      1875 1.39520E+01 2.27941E+00-2.77556E-16
 -1      1876 1.39602E+01 7.79892E-01-2.77556E-16
 -1      1877 1.39173E+01-7.20339E-01-2.77556E-16
 -1      1878 1.49007E+01 1.55138E+00-2.77556E-16
 -1      1879 3.61052E+01-2.23748E+00-2.77556E-16
 -1      1880 3.48083E+01-1.48135E+00-2.77556E-16
 -1      1881 3.61060E+01-7.37534E-01-2.77556E-16
 -1      1882 3.61069E+01 7.63047E-01-2.77556E-16
 -1      1883 3.61077E+01-3.73756E+00-2.77556E-16
 -1      1884 2.41731E+01 1.09151E+01-2.77556E-16
 -1      1885 2.55958E+01 1.08787E+01-2.77556E-16
 -1      1886 2.69835E+01 1.11752E+01-2.77556E-16
 -1      1887 2.61260E+01 9.73299E+00-2.77556E-16
 -1      1888 2.85871E+01 1.09859E+01-2.77556E-16
 -1      1889 2.41639E+01-1.06910E+01-2.77556E-16
 -1      1890 2.56004E+01-9.85244E+00-2.77556E-16
 -1      1891 2.54636E+01-1.14998E+01-2.77556E-16
 -1      1892 2.68074E+01-1.18793E+01-2.77556E-16
 -1      1893 2.29822E+01-1.12783E+01-2.77556E-16
 -1      1894 2.31189E+01-9.63099E+00-2.77556E-16
 -1      1895 2.13712E+01-1.14715E+01-2.77556E-16
 -1      1896 3.61112E+01 5.25457E+00-2.77556E-16
 -1      1897 3.61219E+01 6.75064E+00-2.77556E-16
 -1      1898 3.61078E+01 3.76002E+00-2.77556E-16
 -1      1899 3.48142E+01 4.50973E+00-2.77556E-16
 -1      1900 3.61077E+01 2.26134E+00-2.77556E-16
 -1      1901 1.41322E+01-5.22939E+00-2.77556E-16
 -1      1902 1.41807E+01-6.72763E+00-2.77556E-16
 -1      1903 1.39924E+01-3.72202E+00-2.77556E-16
 -1      1904 1.51874E+01-4.44917E+00-2.77556E-16
 -1      1905 1.39866E+01-2.21710E+00-2.77556E-16
 -1      1906 1.85892E+01 1.09622E+01-2.77556E-16
 -1      1907 2.00653E+01 1.09622E+01-2.77556E-16
 -1      1908 2.14655E+01 1.13023E+01-2.77556E-16
 -1      1909 2.07206E+01 9.82120E+00-2.77556E-16
 -1      1910 2.28643E+01 1.12775E+01-2.77556E-16
 -1      1911 2.96420E+01-1.07216E+01-2.77556E-16
 -1      1912 3.10038E+01-9.80168E+00-2.77556E-16
 -1      1913 3.10260E+01-1.14329E+01-2.77556E-16
 -1      1914 3.24509E+01-1.17719E+01-2.77556E-16
 -1      1915 2.82821E+01-1.15070E+01-2.77556E-16
 -1      1916 2.82599E+01-9.87580E+00-2.77556E-16
 -1      1917 3.51004E+01 1.09959E+01-2.77556E-16
 -1      1918 3.37298E+01 1.09022E+01-2.77556E-16
 -1      1919 3.32042E+01 9.75478E+00-2.77556E-16
 -1      1920 3.23268E+01 1.11804E+01-2.77556E-16
 -1      1921 3.07309E+01 1.09876E+01-2.77556E-16
 -1      1922 1.53152E+01-1.08992E+01-2.77556E-16
 -1      1923 1.68188E+01-1.08692E+01-2.77556E-16
 -1      1924 1.75409E+01-9.33245E+00-2.77556E-16
 -1      1925 1.85799E+01-1.09065E+01-2.77556E-16
 -1      1926 2.00535E+01-1.10472E+01-2.77556E-16
 -1      1927 3.61186E+01-6.73163E+00-2.77556E-16
 -1      1928 3.61129E+01-5.24291E+00-2.77556E-16
 -1      1929 3.61649E+01-8.24006E+00-2.77556E-16
 -1      1930 3.48642E+01-7.50043E+00-2.77556E-16
 -1      1931 3.62432E+01-9.72134E+00-2.77556E-16
 -1      1932 1.38584E+01 6.72755E+00-2.77556E-16
 -1      1933 1.38841E+01 5.27013E+00-2.77556E-16
 -1      1934 1.40379E+01 9.38854E+00-2.77556E-16
 -1      1935 1.38285E+01 7.91584E+00-2.77556E-16
 -1      1936 1.48783E+01 7.21703E+00-2.77556E-16
 -1      1937 3.38335E+01-1.14009E+01-2.77556E-16
 -1      1938 3.36492E+01-9.76089E+00-2.77556E-16
 -1      1939 3.50948E+01-1.06488E+01-2.77556E-16
 -1      1940 3.64276E+01-1.13613E+01-2.77556E-16
 -1      1941 1.71199E+01 1.13247E+01-2.77556E-16
 -1      1942 1.56488E+01 1.13500E+01-2.77556E-16
 -1      1943 1.48046E+01 1.02889E+01-2.77556E-16
 -1      1944 1.40716E+01 1.14328E+01-2.77556E-16
 -1      1945 3.60167E+01 8.48679E+00-2.77556E-16
 -1      1946 3.60671E+01 9.97734E+00-2.77556E-16
 -1      1947 3.65604E+01 1.14967E+01-2.77556E-16
 -1      1948 1.44069E+01-8.39694E+00-2.77556E-16
 -1      1949 1.43827E+01-9.89003E+00-2.77556E-16
 -1      1950 1.39181E+01-1.14940E+01-2.77556E-16
 -1      1951 3.47124E+01 7.74042E+00-2.77556E-16
 -1      1952 3.35188E+01 3.76496E+00-2.77556E-16
 -1      1953 3.35222E+01 5.25951E+00-2.77556E-16
 -1      1954 3.22288E+01 6.00724E+00-2.77556E-16
 -1      1955 3.35241E+01 6.75201E+00-2.77556E-16
 -1      1956 3.34189E+01 8.48815E+00-2.77556E-16
 -1      1957 3.35144E+01 2.27353E+00-2.77556E-16
 -1      1958 3.22225E+01 3.02331E+00-2.77556E-16
 -1      1959 3.48100E+01 1.51689E+00-2.77556E-16
 -1      1960 3.35136E+01 7.75242E-01-2.77556E-16
 -1      1961 3.09288E+01 2.28216E+00-2.77556E-16
 -1      1962 3.09332E+01 3.77358E+00-2.77556E-16
 -1      1963 2.96424E+01 4.52186E+00-2.77556E-16
 -1      1964 3.09362E+01 5.26302E+00-2.77556E-16
 -1      1965 3.09380E+01 6.75552E+00-2.77556E-16
 -1      1966 3.09251E+01 7.91646E-01-2.77556E-16
 -1      1967 2.96358E+01 1.54192E+00-2.77556E-16
 -1      1968 3.22130E+01 3.22324E-02-2.77556E-16
 -1      1969 3.09200E+01-7.08007E-01-2.77556E-16
 -1      1970 3.35085E+01-7.24411E-01-2.77556E-16
 -1      1971 2.83441E+01 8.01146E-01-2.77556E-16
 -1      1972 2.83478E+01 2.29166E+00-2.77556E-16
 -1      1973 2.70559E+01 3.04681E+00-2.77556E-16
 -1      1974 2.83475E+01 3.78758E+00-2.77556E-16
 -1      1975 2.83505E+01 5.27702E+00-2.77556E-16
 -1      1976 2.83370E+01-6.82721E-01-2.77556E-16
 -1      1977 2.70490E+01 6.70185E-02-2.77556E-16
 -1      1978 2.96053E+01-1.44659E+00-2.77556E-16
 -1      1979 2.83101E+01-2.18071E+00-2.77556E-16
 -1      1980 3.08931E+01-2.20600E+00-2.77556E-16
 -1      1981 2.57581E+01-6.74020E-01-2.77556E-16
 -1      1982 2.57652E+01 8.09847E-01-2.77556E-16
 -1      1983 2.44777E+01 1.56235E+00-2.77556E-16
 -1      1984 2.57686E+01 2.30339E+00-2.77556E-16
 -1      1985 2.57683E+01 3.79931E+00-2.77556E-16
 -1      1986 2.57500E+01-2.15629E+00-2.77556E-16
 -1      1987 2.44662E+01-1.41346E+00-2.77556E-16
 -1      1988 2.70269E+01-2.94286E+00-2.77556E-16
 -1      1989 2.57350E+01-3.68230E+00-2.77556E-16
 -1      1990 2.82951E+01-3.70672E+00-2.77556E-16
 -1      1991 2.31891E+01 8.21092E-01-2.77556E-16
 -1      1992 2.31925E+01 2.31463E+00-2.77556E-16
 -1      1993 2.31748E+01-2.15364E+00-2.77556E-16
 -1      1994 2.31828E+01-6.71373E-01-2.77556E-16
 -1      1995 2.18976E+01 8.09115E-02-2.77556E-16
 -1      1996 2.31993E+01 5.29856E+00-2.77556E-16
 -1      1997 2.44837E+01 4.54896E+00-2.77556E-16
 -1      1998 2.31967E+01 3.80549E+00-2.77556E-16
 -1      1999 2.19081E+01 3.06424E+00-2.77556E-16
 -1      2000 2.57710E+01 5.29238E+00-2.77556E-16
 -1      2001 2.31705E+01-3.64190E+00-2.77556E-16
 -1      2002 2.18871E+01-2.89981E+00-2.77556E-16
 -1      2003 2.44576E+01-4.39105E+00-2.77556E-16
 -1      2004 2.31700E+01-5.13723E+00-2.77556E-16
 -1      2005 2.57345E+01-5.17762E+00-2.77556E-16
 -1      2006 3.08900E+01-3.71256E+00-2.77556E-16
 -1      2007 3.08980E+01-5.24319E+00-2.77556E-16
 -1      2008 2.95864E+01-4.47521E+00-2.77556E-16
 -1      2009 2.83032E+01-5.23736E+00-2.77556E-16
 -1      2010 3.22047E+01-2.97398E+00-2.77556E-16
 -1      2011 2.06192E+01-3.60061E+00-2.77556E-16
 -1      2012 2.06235E+01-2.11235E+00-2.77556E-16
 -1      2013 1.93400E+01-1.35712E+00-2.77556E-16
 -1      2014 2.06079E+01-6.56326E-01-2.77556E-16
 -1      2015 2.06142E+01 8.36138E-01-2.77556E-16
 -1      2016 2.31300E+01-6.67030E+00-2.77556E-16
 -1      2017 2.18428E+01-5.92114E+00-2.77556E-16
 -1      2018 2.06358E+01-5.14376E+00-2.77556E-16
 -1      2019 1.93722E+01-4.35630E+00-2.77556E-16
 -1      2020 2.05959E+01-6.67683E+00-2.77556E-16
 -1      2021 2.56209E+01-8.35377E+00-2.77556E-16
 -1      2022 2.43789E+01-7.46504E+00-2.77556E-16
 -1      2023 2.56992E+01-6.77511E+00-2.77556E-16
 -1      2024 2.69765E+01-6.06635E+00-2.77556E-16
 -1      2025 2.30518E+01-8.24896E+00-2.77556E-16
 -1      2026 2.70583E+01 6.03607E+00-2.77556E-16
 -1      2027 2.83532E+01 6.77035E+00-2.77556E-16
 -1      2028 2.83582E+01 8.22404E+00-2.77556E-16
 -1      2029 2.96504E+01 7.46499E+00-2.77556E-16
 -1      2030 3.09430E+01 8.20921E+00-2.77556E-16
 -1      2031 1.81528E+01-2.07803E+00-2.77556E-16
 -1      2032 1.81372E+01-6.22000E-01-2.77556E-16
 -1      2033 1.83124E+01-5.15383E+00-2.77556E-16
 -1      2034 1.82958E+01-3.61068E+00-2.77556E-16
 -1      2035 1.70929E+01-2.87556E+00-2.77556E-16
 -1      2036 1.68829E+01 1.22846E-01-2.77556E-16
 -1      2037 1.80702E+01 8.43748E-01-2.77556E-16
 -1      2038 1.80778E+01 2.33086E+00-2.77556E-16
 -1      2039 1.93321E+01 1.58601E+00-2.77556E-16
 -1      2040 2.06218E+01 2.32325E+00-2.77556E-16
 -1      2041 2.05524E+01-8.41196E+00-2.77556E-16
 -1      2042 1.93454E+01-7.63458E+00-2.77556E-16
 -1      2043 1.84193E+01-8.40321E+00-2.77556E-16
 -1      2044 1.84628E+01-6.66809E+00-2.77556E-16
 -1      2045 1.73864E+01-5.92246E+00-2.77556E-16
 -1      2046 1.59293E+01-6.45492E-01-2.77556E-16
 -1      2047 1.58623E+01 8.20299E-01-2.77556E-16
 -1      2048 1.61417E+01-3.67498E+00-2.77556E-16
 -1      2049 1.59987E+01-2.14233E+00-2.77556E-16
 -1      2050 1.49781E+01-1.44492E+00-2.77556E-16
 -1      2051 1.68174E+01 3.07969E+00-2.77556E-16
 -1      2052 1.80793E+01 3.82195E+00-2.77556E-16
 -1      2053 1.58542E+01 2.31972E+00-2.77556E-16
 -1      2054 1.58557E+01 3.81082E+00-2.77556E-16
 -1      2055 1.80833E+01 5.31301E+00-2.77556E-16
 -1      2056 1.93437E+01 4.56418E+00-2.77556E-16
 -1      2057 2.06300E+01 5.30517E+00-2.77556E-16
 -1      2058 2.06260E+01 3.81411E+00-2.77556E-16
 -1      2059 1.68146E+01 6.04559E+00-2.77556E-16
 -1      2060 1.80789E+01 6.78782E+00-2.77556E-16
 -1      2061 1.58635E+01 5.29977E+00-2.77556E-16
 -1      2062 1.58591E+01 6.77457E+00-2.77556E-16
 -1      2063 1.49003E+01 4.53979E+00-2.77556E-16
 -1      2064 1.80653E+01 8.50073E+00-2.77556E-16
 -1      2065 1.93341E+01 7.76815E+00-2.77556E-16
 -1      2066 2.06177E+01 8.50948E+00-2.77556E-16
 -1      2067 2.06313E+01 6.79657E+00-2.77556E-16
 -1      2068 2.19136E+01 6.04650E+00-2.77556E-16
 -1      2069 1.65960E+01 8.86324E+00-2.77556E-16
 -1      2070 1.78511E+01 9.84357E+00-2.77556E-16
 -1      2071 1.58293E+01 7.96286E+00-2.77556E-16
 -1      2072 1.56151E+01 9.30570E+00-2.77556E-16
 -1      2073 2.20178E+01 8.84962E+00-2.77556E-16
 -1      2074 2.32006E+01 6.78996E+00-2.77556E-16
 -1      2075 2.33266E+01 8.48717E+00-2.77556E-16
 -1      2076 2.46123E+01 7.73923E+00-2.77556E-16
 -1      2077 2.34295E+01 9.79889E+00-2.77556E-16
 -1      2078 3.35077E+01-2.22436E+00-2.77556E-16
 -1      2079 3.20159E+01 8.76637E+00-2.77556E-16
 -1      2080 2.58996E+01 8.48292E+00-2.77556E-16
 -1      2081 2.57736E+01 6.78571E+00-2.77556E-16
 -1      2082 2.72873E+01 8.77947E+00-2.77556E-16
 -1      2083 2.85845E+01 9.47411E+00-2.77556E-16
 -1      2084 1.55536E+01-7.62590E+00-2.77556E-16
 -1      2085 1.64321E+01-6.69666E+00-2.77556E-16
 -1      2086 1.66583E+01-8.36596E+00-2.77556E-16
 -1      2087 1.62817E+01-5.18240E+00-2.77556E-16
 -1      2088 3.48127E+01-4.48664E+00-2.77556E-16
 -1      2089 3.35553E+01-8.25168E+00-2.77556E-16
 -1      2090 3.35090E+01-6.74324E+00-2.77556E-16
 -1      2091 3.22009E+01-5.98752E+00-2.77556E-16
 -1      2092 3.35098E+01-5.23627E+00-2.77556E-16
 -1      2093 3.35046E+01-3.73092E+00-2.77556E-16
 -1      2094 3.22940E+01-9.00371E+00-2.77556E-16
 -1      2095 3.09100E+01-8.29246E+00-2.77556E-16
 -1      2096 2.96072E+01-7.54814E+00-2.77556E-16
 -1      2097 3.08973E+01-6.75017E+00-2.77556E-16
 -1      2098 2.69206E+01-9.16250E+00-2.77556E-16
 -1      2099 2.82805E+01-8.37713E+00-2.77556E-16
 -1      2100 2.82678E+01-6.83484E+00-2.77556E-16
 -1      2101 2.18700E+01-8.83624E+00-2.77556E-16
 -1      2102 2.06196E+01-9.79399E+00-2.77556E-16
 -1      2103 3.07283E+01 9.47584E+00-2.77556E-16
 -1      2104 2.96579E+01 1.04305E+01-2.77556E-16
 -1      2105-4.00000E+01 7.48894E+00 7.43218E+00
 -1      2106-4.00000E+01 1.50000E+00 7.40192E+00
 -1      2107-4.00000E+01-4.52317E+00 7.47229E+00
 -1      2108-4.00000E+01-1.06585E+01 2.59265E+00
 -1      2109-4.00000E+01-1.50000E+00 2.59808E+00
 -1      2110-4.00000E+01 4.50000E+00 2.59808E+00
 -1      2111-4.00000E+01 1.06524E+01 2.58122E+00
 -1      2112-4.00000E+01-1.28349E+01 6.25000E+00
 -1      2113-4.00000E+01 1.28964E+01 6.17289E+00
 -1      2114-4.00000E+01-7.54688E+00 2.57101E+00
 -1      2115-4.00000E+01-8.91644E+00 5.07928E+00
 -1      2116-4.00000E+01-4.53494E+00 2.53613E+00
 -1      2117-4.00000E+01 7.52590E+00 2.52970E+00
 -1      2118-4.00000E+01 4.50000E+00 7.40192E+00
 -1      2119-4.00000E+01-1.50193E+00 7.42142E+00
 -1      2120-4.00000E+01 1.50000E+00 2.59808E+00
 -1      2121-4.00000E+01-1.29534E+01 3.84402E+00
 -1      2122-4.00000E+01-6.04931E+00 5.04103E+00
 -1      2123-4.00000E+01 1.29629E+01 3.82926E+00
 -1      2124-4.00000E+01 1.06592E+01 7.41200E+00
 -1      2125-4.00000E+01-7.53191E+00 7.55296E+00
 -1      2126-4.00000E+01 8.90840E+00 4.99227E+00
 -1      2127-4.00000E+01-3.01823E+00 5.01149E+00
 -1      2128-4.00000E+01-1.05376E+01 7.63390E+00
 -1      2129-4.00000E+01 6.00237E+00 4.99852E+00
 -1      2130-4.00000E+01-3.35866E-03 5.00516E+00
 -1      2131-4.00000E+01 2.99984E+00 5.00061E+00
 -1      2132-4.00000E+01-1.11506E+01 5.04080E+00
 -1      2133-4.00000E+01-1.31224E+01 1.78733E+00
 -1      2134-4.00000E+01 1.11889E+01 4.99823E+00
 -1      2135-4.00000E+01-1.31071E+01 8.27855E+00
 -1      2136-4.00000E+01 1.31231E+01 1.78209E+00
 -1      2137-4.00000E+01 1.31111E+01 8.21698E+00
 -1      2138-4.00000E+01 1.40615E+01 8.91047E-01
 -1      2139-4.00000E+01 1.40615E+01 2.14105E+00
 -1      2140-4.00000E+01 1.25615E+01 8.91047E-01
 -1      2141-4.00000E+01 1.40556E+01 7.85849E+00
 -1      2142-4.00000E+01 1.40556E+01 9.10849E+00
 -1      2143-4.00000E+01 1.25556E+01 9.10849E+00
 -1      2144-4.00000E+01-1.40536E+01 9.13928E+00
 -1      2145-4.00000E+01-1.40536E+01 7.88928E+00
 -1      2146-4.00000E+01-1.25536E+01 9.13928E+00
 -1      2147-4.00000E+01-1.40612E+01 2.14367E+00
 -1      2148-4.00000E+01-1.40612E+01 8.93667E-01
 -1      2149-4.00000E+01-1.25612E+01 8.93667E-01
 -1      2150-4.00000E+01 1.39815E+01 3.16463E+00
 -1      2151-4.00000E+01 1.39815E+01 4.41463E+00
 -1      2152-4.00000E+01 1.30430E+01 2.80568E+00
 -1      2153-4.00000E+01 1.39482E+01 5.58644E+00
 -1      2154-4.00000E+01 1.39482E+01 6.83644E+00
 -1      2155-4.00000E+01 1.29297E+01 5.00107E+00
 -1      2156-4.00000E+01 1.30038E+01 7.19493E+00
 -1      2157-4.00000E+01-1.39175E+01 6.87500E+00
 -1      2158-4.00000E+01-1.39175E+01 5.62500E+00
 -1      2159-4.00000E+01-1.29710E+01 7.26428E+00
 -1      2160-4.00000E+01-1.39767E+01 4.42201E+00
 -1      2161-4.00000E+01-1.39767E+01 3.17201E+00
 -1      2162-4.00000E+01-1.28942E+01 5.04701E+00
 -1      2163-4.00000E+01-1.30379E+01 2.81568E+00
 -1      2164-4.00000E+01 1.13296E+01 8.70600E+00
 -1      2165-4.00000E+01 9.82962E+00 8.70600E+00
 -1      2166-4.00000E+01 1.18852E+01 7.81449E+00
 -1      2167-4.00000E+01 8.24447E+00 8.71609E+00
 -1      2168-4.00000E+01 6.74447E+00 8.71609E+00
 -1      2169-4.00000E+01 9.07409E+00 7.42209E+00
 -1      2170-4.00000E+01 5.25000E+00 8.70096E+00
 -1      2171-4.00000E+01 3.75000E+00 8.70096E+00
 -1      2172-4.00000E+01 5.99447E+00 7.41705E+00
 -1      2173-4.00000E+01 2.25000E+00 8.70096E+00
 -1      2174-4.00000E+01 7.50000E-01 8.70096E+00
 -1      2175-4.00000E+01 3.00000E+00 7.40192E+00
 -1      2176-4.00000E+01-7.50963E-01 8.71071E+00
 -1      2177-4.00000E+01-2.25096E+00 8.71071E+00
 -1      2178-4.00000E+01-9.63185E-04 7.41167E+00
 -1      2179-4.00000E+01-3.76159E+00 8.73614E+00
 -1      2180-4.00000E+01-5.26159E+00 8.73614E+00
 -1      2181-4.00000E+01-3.01255E+00 7.44685E+00
 -1      2182-4.00000E+01-6.76595E+00 8.77648E+00
 -1      2183-4.00000E+01-8.26595E+00 8.77648E+00
 -1      2184-4.00000E+01-6.02754E+00 7.51262E+00
 -1      2185-4.00000E+01-9.76879E+00 8.81695E+00
 -1      2186-4.00000E+01-1.12688E+01 8.81695E+00
 -1      2187-4.00000E+01-9.03474E+00 7.59343E+00
 -1      2188-4.00000E+01-1.18223E+01 7.95623E+00
 -1      2189-4.00000E+01-1.13292E+01 1.29633E+00
 -1      2190-4.00000E+01-9.82923E+00 1.29633E+00
 -1      2191-4.00000E+01-1.18904E+01 2.18999E+00
 -1      2192-4.00000E+01-8.27344E+00 1.28551E+00
 -1      2193-4.00000E+01-6.77344E+00 1.28551E+00
 -1      2194-4.00000E+01-9.10266E+00 2.58183E+00
 -1      2195-4.00000E+01-5.26747E+00 1.26807E+00
 -1      2196-4.00000E+01-3.76747E+00 1.26807E+00
 -1      2197-4.00000E+01-6.04091E+00 2.55357E+00
 -1      2198-4.00000E+01-2.25000E+00 1.29904E+00
 -1      2199-4.00000E+01-7.50000E-01 1.29904E+00
 -1      2200-4.00000E+01-3.01747E+00 2.56710E+00
 -1      2201-4.00000E+01 7.50000E-01 1.29904E+00
 -1      2202-4.00000E+01 2.25000E+00 1.29904E+00
 -1      2203-4.00000E+01 0.00000E+00 2.59808E+00
 -1      2204-4.00000E+01 3.75000E+00 1.29904E+00
 -1      2205-4.00000E+01 5.25000E+00 1.29904E+00
 -1      2206-4.00000E+01 3.00000E+00 2.59808E+00
 -1      2207-4.00000E+01 6.76295E+00 1.26485E+00
 -1      2208-4.00000E+01 8.26295E+00 1.26485E+00
 -1      2209-4.00000E+01 6.01295E+00 2.56389E+00
 -1      2210-4.00000E+01 9.82619E+00 1.29061E+00
 -1      2211-4.00000E+01 1.13262E+01 1.29061E+00
 -1      2212-4.00000E+01 9.08915E+00 2.55546E+00
 -1      2213-4.00000E+01 1.18877E+01 2.18165E+00
 -1      2214-4.00000E+01 6.74566E+00 6.21535E+00
 -1      2215-4.00000E+01 5.25119E+00 6.20022E+00
 -1      2216-4.00000E+01 9.78382E+00 6.20214E+00
 -1      2217-4.00000E+01 8.19867E+00 6.21222E+00
 -1      2218-4.00000E+01 7.45539E+00 4.99539E+00
 -1      2219-4.00000E+01 3.74992E+00 6.20127E+00
 -1      2220-4.00000E+01 2.24992E+00 6.20127E+00
 -1      2221-4.00000E+01 7.48321E-01 6.20354E+00
 -1      2222-4.00000E+01-7.52643E-01 6.21329E+00
 -1      2223-4.00000E+01 1.49824E+00 5.00289E+00
 -1      2224-4.00000E+01-2.26008E+00 6.21646E+00
 -1      2225-4.00000E+01-3.77070E+00 6.24189E+00
 -1      2226-4.00000E+01-6.79061E+00 6.29700E+00
 -1      2227-4.00000E+01-5.28624E+00 6.25666E+00
 -1      2228-4.00000E+01-4.53377E+00 5.02626E+00
 -1      2229-4.00000E+01-9.78745E+00 3.83597E+00
 -1      2230-4.00000E+01-8.23166E+00 3.82514E+00
 -1      2231-4.00000E+01-1.09045E+01 3.81673E+00
 -1      2232-4.00000E+01-1.00335E+01 5.06004E+00
 -1      2233-4.00000E+01-1.20520E+01 4.44241E+00
 -1      2234-4.00000E+01-1.18059E+01 3.21834E+00
 -1      2235-4.00000E+01-3.77658E+00 3.77381E+00
 -1      2236-4.00000E+01-2.25911E+00 3.80478E+00
 -1      2237-4.00000E+01-7.51679E-01 3.80162E+00
 -1      2238-4.00000E+01 7.48321E-01 3.80162E+00
 -1      2239-4.00000E+01-1.51079E+00 5.00833E+00
 -1      2240-4.00000E+01 5.25119E+00 3.79830E+00
 -1      2241-4.00000E+01 6.76414E+00 3.76411E+00
 -1      2242-4.00000E+01 2.24992E+00 3.79935E+00
 -1      2243-4.00000E+01 3.74992E+00 3.79935E+00
 -1      2244-4.00000E+01 4.50110E+00 4.99957E+00
 -1      2245-4.00000E+01 8.21715E+00 3.76099E+00
 -1      2246-4.00000E+01 9.78039E+00 3.78674E+00
 -1      2247-4.00000E+01 1.09207E+01 3.78972E+00
 -1      2248-4.00000E+01 1.20759E+01 4.41375E+00
 -1      2249-4.00000E+01 1.18077E+01 3.20524E+00
 -1      2250-4.00000E+01 1.00487E+01 4.99525E+00
 -1      2251-4.00000E+01-1.19928E+01 5.64540E+00
 -1      2252-4.00000E+01-1.08441E+01 6.33735E+00
 -1      2253-4.00000E+01-1.16863E+01 6.94195E+00
 -1      2254-4.00000E+01 1.20427E+01 5.58556E+00
 -1      2255-4.00000E+01 1.09241E+01 6.20512E+00
 -1      2256-4.00000E+01 1.17778E+01 6.79245E+00
 -1      2257-4.00000E+01-7.48288E+00 5.06015E+00
 -1      2258-4.00000E+01-6.79809E+00 3.80602E+00
 -1      2259-4.00000E+01-5.29213E+00 3.78858E+00
 -1      2260-4.00000E+01-8.22418E+00 6.31612E+00
 -1      2261-4.00000E+01-9.72701E+00 6.35659E+00
 -1      2262-3.74667E+01 1.50524E+00-2.77556E-16
 -1      2263-1.30730E+01-1.49408E+00-2.77556E-16
 -1      2264-2.39010E+01 1.26424E+01-2.77556E-16
 -1      2265-2.64501E+01-1.23384E+01-2.77556E-16
 -1      2266-1.30721E+01 4.50234E+00-2.77556E-16
 -1      2267-3.75378E+01-4.50217E+00-2.77556E-16
 -1      2268-2.96670E+01 1.24433E+01-2.77556E-16
 -1      2269-2.08131E+01-1.23528E+01-2.77556E-16
 -1      2270-1.76256E+01 1.23266E+01-2.77556E-16
 -1      2271-3.26193E+01-1.24433E+01-2.77556E-16
 -1      2272-1.30579E+01-7.47126E+00-2.77556E-16
 -1      2273-3.76695E+01 7.41820E+00-2.77556E-16
 -1      2274-1.51980E+01-1.22888E+01-2.77556E-16
 -1      2275-3.55716E+01 1.24433E+01-2.77556E-16
 -1      2276-1.29502E+01 1.04765E+01-2.77556E-16
 -1      2277-3.74916E+01-1.04849E+01-2.77556E-16
 -1      2278-1.30509E+01 7.49459E+00-2.77556E-16
 -1      2279-1.56588E+01 5.99974E+00-2.77556E-16
 -1      2280-1.56638E+01 3.01091E+00-2.77556E-16
 -1      2281-1.82485E+01 4.50740E+00-2.77556E-16
 -1      2282-1.82536E+01 1.52449E+00-2.77556E-16
 -1      2283-2.08344E+01 3.02116E+00-2.77556E-16
 -1      2284-2.08378E+01 4.00422E-02-2.77556E-16
 -1      2285-2.34159E+01 1.53599E+00-2.77556E-16
 -1      2286-2.34272E+01-1.43020E+00-2.77556E-16
 -1      2287-2.59960E+01 5.07053E-02-2.77556E-16
 -1      2288-2.59930E+01 3.03754E+00-2.77556E-16
 -1      2289-2.60091E+01-2.91223E+00-2.77556E-16
 -1      2290-2.08935E+01-2.95098E+00-2.77556E-16
 -1      2291-2.85769E+01-1.43301E+00-2.77556E-16
 -1      2292-2.85816E+01-4.40951E+00-2.77556E-16
 -1      2293-2.60051E+01-5.90476E+00-2.77556E-16
 -1      2294-2.08324E+01 6.00006E+00-2.77556E-16
 -1      2295-3.11099E+01-2.83685E+00-2.77556E-16
 -1      2296-3.11456E+01 7.39533E-02-2.77556E-16
 -1      2297-3.10791E+01-5.91444E+00-2.77556E-16
 -1      2298-3.35192E+01-1.36641E+00-2.77556E-16
 -1      2299-3.37344E+01 1.55706E+00-2.77556E-16
 -1      2300-3.11456E+01 3.04516E+00-2.77556E-16
 -1      2301-3.37283E+01 4.54225E+00-2.77556E-16
 -1      2302-3.11441E+01 6.02956E+00-2.77556E-16
 -1      2303-3.37210E+01 7.52380E+00-2.77556E-16
 -1      2304-3.11684E+01 9.47056E+00-2.77556E-16
 -1      2305-2.85651E+01 7.51609E+00-2.77556E-16
 -1      2306-1.56647E+01 1.55735E-02-2.77556E-16
 -1      2307-1.58709E+01 9.47433E+00-2.77556E-16
 -1      2308-2.85664E+01 4.54005E+00-2.77556E-16
 -1      2309-2.59912E+01 6.02714E+00-2.77556E-16
 -1      2310-2.57831E+01 8.69548E+00-2.77556E-16
 -1      2311-2.33861E+01 7.46256E+00-2.77556E-16
 -1      2312-3.74429E+01-7.49867E+00-2.77556E-16
 -1      2313-3.46978E+01-9.29549E+00-2.77556E-16
 -1      2314-3.51463E+01-5.95937E+00-2.77556E-16
 -1      2315-1.82467E+01 7.49550E+00-2.77556E-16
 -1      2316-1.30691E+01-4.49390E+00-2.77556E-16
 -1      2317-1.56593E+01-5.99200E+00-2.77556E-16
 -1      2318-1.55668E+01-9.00886E+00-2.77556E-16
 -1      2319-1.82771E+01-7.49449E+00-2.77556E-16
 -1      2320-1.80894E+01-1.05129E+01-2.77556E-16
 -1      2321-2.08574E+01-9.09043E+00-2.77556E-16
 -1      2322-2.35772E+01-1.06612E+01-2.77556E-16
 -1      2323-2.35347E+01-7.66529E+00-2.77556E-16
 -1      2324-2.61710E+01-9.05065E+00-2.77556E-16
 -1      2325-2.85355E+01-1.02240E+01-2.77556E-16
 -1      2326-2.08804E+01-6.00808E+00-2.77556E-16
 -1      2327-1.82728E+01-4.48333E+00-2.77556E-16
 -1      2328-3.75584E+01 4.50305E+00-2.77556E-16
 -1      2329-2.86405E+01-7.44514E+00-2.77556E-16
 -1      2330-3.75510E+01-1.49541E+00-2.77556E-16
 -1      2331-2.34088E+01 4.51407E+00-2.77556E-16
 -1      2332-1.56669E+01-2.98369E+00-2.77556E-16
 -1      2333-1.30713E+01 1.50579E+00-2.77556E-16
 -1      2334-1.82649E+01-1.47298E+00-2.77556E-16
 -1      2335-2.08194E+01 8.90327E+00-2.77556E-16
 -1      2336-2.85695E+01 1.54288E+00-2.77556E-16
 -1      2337-2.08010E+01 1.19844E+01-2.77556E-16
 -1      2338-2.67672E+01 1.26982E+01-2.77556E-16
 -1      2339-3.26193E+01 1.24433E+01-2.77556E-16
 -1      2340-2.34583E+01-4.47859E+00-2.77556E-16
 -1      2341-1.29012E+01-1.04338E+01-2.77556E-16
 -1      2342-3.72503E+01 1.03586E+01-2.77556E-16
 -1      2343-1.48837E+01 1.25147E+01-2.77556E-16
 -1      2344-3.56267E+01-1.25033E+01-2.77556E-16
 -1      2345-3.11690E+01-9.37182E+00-2.77556E-16
 -1      2346-3.40954E+01 1.01907E+01-2.77556E-16
 -1      2347-2.78649E+01 1.02966E+01-2.77556E-16
 -1      2348-2.96716E+01-1.27251E+01-2.77556E-16
 -1      2349-1.79633E+01-1.30309E+01-2.77556E-16
 -1      2350-1.85236E+01 1.00064E+01-2.77556E-16
 -1      2351-2.31705E+01 1.00367E+01-2.77556E-16
 -1      2352-3.32340E+01-4.41951E+00-2.77556E-16
 -1      2353-2.37625E+01-1.30973E+01-2.77556E-16
 -1      2354-3.29438E+01-7.43958E+00-2.77556E-16
 -1      2355-3.55730E+01 6.01319E+00-2.77556E-16
 -1      2356-3.55867E+01 3.03754E+00-2.77556E-16
 -1      2357-3.55773E+01 3.96029E-02-2.77556E-16
 -1      2358-1.26688E+01 1.27959E+01-2.77556E-16
 -1      2359-3.78084E+01-1.27959E+01-2.77556E-16
 -1      2360-3.54276E+01-2.95054E+00-2.77556E-16
 -1      2361-1.26301E+01-1.28340E+01-2.77556E-16
 -1      2362-3.78471E+01 1.28340E+01-2.77556E-16
 -1      2363-3.56352E+01 8.39326E+00-2.77556E-16
 -1      2364-2.53329E+01 1.09262E+01-2.77556E-16
 -1      2365-1.15537E+01-1.39170E+01-2.77556E-16
 -1      2366-1.15537E+01-1.24170E+01-2.77556E-16
 -1      2367-1.30298E+01-1.39170E+01-2.77556E-16
 -1      2368-1.15730E+01 1.23980E+01-2.77556E-16
 -1      2369-1.15730E+01 1.38980E+01-2.77556E-16
 -1      2370-1.30492E+01 1.38980E+01-2.77556E-16
 -1      2371-3.74474E+01 1.39170E+01-2.77556E-16
 -1      2372-3.89235E+01 1.39170E+01-2.77556E-16
 -1      2373-3.89235E+01 1.24170E+01-2.77556E-16
 -1      2374-3.89042E+01-1.38980E+01-2.77556E-16
 -1      2375-3.74281E+01-1.38980E+01-2.77556E-16
 -1      2376-3.89042E+01-1.23980E+01-2.77556E-16
 -1      2377-1.16892E+01-1.12169E+01-2.77556E-16
 -1      2378-1.16892E+01-9.71691E+00-2.77556E-16
 -1      2379-1.27657E+01-1.16339E+01-2.77556E-16
 -1      2380-1.17676E+01-8.23563E+00-2.77556E-16
 -1      2381-1.17676E+01-6.73563E+00-2.77556E-16
 -1      2382-1.29796E+01-8.95254E+00-2.77556E-16
 -1      2383-1.17732E+01-5.24695E+00-2.77556E-16
 -1      2384-1.17732E+01-3.74695E+00-2.77556E-16
 -1      2385-1.30635E+01-5.98258E+00-2.77556E-16
 -1      2386-1.17751E+01-2.24704E+00-2.77556E-16
 -1      2387-1.17751E+01-7.47042E-01-2.77556E-16
 -1      2388-1.30711E+01-2.99399E+00-2.77556E-16
 -1      2389-1.17743E+01 7.52895E-01-2.77556E-16
 -1      2390-1.17743E+01 2.25289E+00-2.77556E-16
 -1      2391-1.30722E+01 5.85316E-03-2.77556E-16
 -1      2392-1.17746E+01 3.75117E+00-2.77556E-16
 -1      2393-1.17746E+01 5.25117E+00-2.77556E-16
 -1      2394-1.30717E+01 3.00406E+00-2.77556E-16
 -1      2395-1.17641E+01 6.74730E+00-2.77556E-16
 -1      2396-1.17641E+01 8.24730E+00-2.77556E-16
 -1      2397-1.30615E+01 5.99847E+00-2.77556E-16
 -1      2398-1.17137E+01 9.73827E+00-2.77556E-16
 -1      2399-1.17137E+01 1.12383E+01-2.77556E-16
 -1      2400-1.30006E+01 8.98557E+00-2.77556E-16
 -1      2401-1.28095E+01 1.16362E+01-2.77556E-16
 -1      2402-1.41566E+01 1.37574E+01-2.77556E-16
 -1      2403-1.56328E+01 1.37574E+01-2.77556E-16
 -1      2404-1.37763E+01 1.26553E+01-2.77556E-16
 -1      2405-1.70037E+01 1.36633E+01-2.77556E-16
 -1      2406-1.84798E+01 1.36633E+01-2.77556E-16
 -1      2407-1.62547E+01 1.24206E+01-2.77556E-16
 -1      2408-2.00676E+01 1.34922E+01-2.77556E-16
 -1      2409-2.15437E+01 1.34922E+01-2.77556E-16
 -1      2410-1.92133E+01 1.21555E+01-2.77556E-16
 -1      2411-2.30937E+01 1.38212E+01-2.77556E-16
 -1      2412-2.45698E+01 1.38212E+01-2.77556E-16
 -1      2413-2.23510E+01 1.23134E+01-2.77556E-16
 -1      2414-2.60029E+01 1.38491E+01-2.77556E-16
 -1      2415-2.74790E+01 1.38491E+01-2.77556E-16
 -1      2416-2.53341E+01 1.26703E+01-2.77556E-16
 -1      2417-2.89290E+01 1.37216E+01-2.77556E-16
 -1      2418-3.04051E+01 1.37216E+01-2.77556E-16
 -1      2419-2.82171E+01 1.25707E+01-2.77556E-16
 -1      2420-3.18812E+01 1.37216E+01-2.77556E-16
 -1      2421-3.33574E+01 1.37216E+01-2.77556E-16
 -1      2422-3.11432E+01 1.24433E+01-2.77556E-16
 -1      2423-3.48335E+01 1.37216E+01-2.77556E-16
 -1      2424-3.63097E+01 1.37216E+01-2.77556E-16
 -1      2425-3.40954E+01 1.24433E+01-2.77556E-16
 -1      2426-3.67093E+01 1.26386E+01-2.77556E-16
 -1      2427-3.63372E+01-1.37516E+01-2.77556E-16
 -1      2428-3.48611E+01-1.37516E+01-2.77556E-16
 -1      2429-3.67176E+01-1.26496E+01-2.77556E-16
 -1      2430-3.33574E+01-1.37216E+01-2.77556E-16
 -1      2431-3.18812E+01-1.37216E+01-2.77556E-16
 -1      2432-3.41230E+01-1.24733E+01-2.77556E-16
 -1      2433-3.04074E+01-1.38625E+01-2.77556E-16
 -1      2434-2.89313E+01-1.38625E+01-2.77556E-16
 -1      2435-3.11455E+01-1.25842E+01-2.77556E-16
 -1      2436-2.73205E+01-1.36692E+01-2.77556E-16
 -1      2437-2.58443E+01-1.36692E+01-2.77556E-16
 -1      2438-2.80608E+01-1.25317E+01-2.77556E-16
 -1      2439-2.45005E+01-1.40487E+01-2.77556E-16
 -1      2440-2.30244E+01-1.40487E+01-2.77556E-16
 -1      2441-2.51063E+01-1.27178E+01-2.77556E-16
 -1      2442-2.15497E+01-1.36764E+01-2.77556E-16
 -1      2443-2.00736E+01-1.36764E+01-2.77556E-16
 -1      2444-2.22878E+01-1.27251E+01-2.77556E-16
 -1      2445-1.86487E+01-1.40155E+01-2.77556E-16
 -1      2446-1.71725E+01-1.40155E+01-2.77556E-16
 -1      2447-1.93882E+01-1.26918E+01-2.77556E-16
 -1      2448-1.57899E+01-1.36444E+01-2.77556E-16
 -1      2449-1.43138E+01-1.36444E+01-2.77556E-16
 -1      2450-1.65806E+01-1.26599E+01-2.77556E-16
 -1      2451-1.39141E+01-1.25614E+01-2.77556E-16
 -1      2452-3.87458E+01-9.74243E+00-2.77556E-16
 -1      2453-3.87458E+01-1.12424E+01-2.77556E-16
 -1      2454-3.76500E+01-1.16404E+01-2.77556E-16
 -1      2455-3.87215E+01-6.74933E+00-2.77556E-16
 -1      2456-3.87215E+01-8.24933E+00-2.77556E-16
 -1      2457-3.74672E+01-8.99176E+00-2.77556E-16
 -1      2458-3.87689E+01-3.75108E+00-2.77556E-16
 -1      2459-3.87689E+01-5.25108E+00-2.77556E-16
 -1      2460-3.74903E+01-6.00042E+00-2.77556E-16
 -1      2461-3.87755E+01-7.47705E-01-2.77556E-16
 -1      2462-3.87755E+01-2.24771E+00-2.77556E-16
 -1      2463-3.75444E+01-2.99879E+00-2.77556E-16
 -1      2464-3.87333E+01 2.25262E+00-2.77556E-16
 -1      2465-3.87333E+01 7.52622E-01-2.77556E-16
 -1      2466-3.75088E+01 4.91695E-03-2.77556E-16
 -1      2467-3.87792E+01 5.25152E+00-2.77556E-16
 -1      2468-3.87792E+01 3.75152E+00-2.77556E-16
 -1      2469-3.75125E+01 3.00415E+00-2.77556E-16
 -1      2470-3.88347E+01 8.20910E+00-2.77556E-16
 -1      2471-3.88347E+01 6.70910E+00-2.77556E-16
 -1      2472-3.76139E+01 5.96063E+00-2.77556E-16
 -1      2473-3.86252E+01 1.11793E+01-2.77556E-16
 -1      2474-3.86252E+01 9.67931E+00-2.77556E-16
 -1      2475-3.74599E+01 8.88841E+00-2.77556E-16
 -1      2476-3.75487E+01 1.15963E+01-2.77556E-16
 -1      2477-3.65725E+01 3.77029E+00-2.77556E-16
 -1      2478-3.65267E+01 2.27139E+00-2.77556E-16
 -1      2479-3.65220E+01 7.72424E-01-2.77556E-16
 -1      2480-3.65641E+01-7.27904E-01-2.77556E-16
 -1      2481-3.55820E+01 1.53857E+00-2.77556E-16
 -1      2482-1.43700E+01-2.23889E+00-2.77556E-16
 -1      2483-1.56658E+01-1.48406E+00-2.77556E-16
 -1      2484-1.43689E+01-7.39255E-01-2.77556E-16
 -1      2485-1.43680E+01 7.60681E-01-2.77556E-16
 -1      2486-1.43680E+01-3.73880E+00-2.77556E-16
 -1      2487-2.19858E+01 1.10105E+01-2.77556E-16
 -1      2488-2.35358E+01 1.13396E+01-2.77556E-16
 -1      2489-2.46169E+01 1.17843E+01-2.77556E-16
 -1      2490-2.60500E+01 1.18122E+01-2.77556E-16
 -1      2491-2.42517E+01 1.04815E+01-2.77556E-16
 -1      2492-2.63105E+01-1.06945E+01-2.77556E-16
 -1      2493-2.48741E+01-9.85591E+00-2.77556E-16
 -1      2494-2.50136E+01-1.14998E+01-2.77556E-16
 -1      2495-2.36698E+01-1.18793E+01-2.77556E-16
 -1      2496-2.74928E+01-1.12812E+01-2.77556E-16
 -1      2497-2.73532E+01-9.63734E+00-2.77556E-16
 -1      2498-2.91036E+01-1.14746E+01-2.77556E-16
 -1      2499-1.43654E+01 5.25104E+00-2.77556E-16
 -1      2500-1.43549E+01 6.74716E+00-2.77556E-16
 -1      2501-1.43679E+01 3.75662E+00-2.77556E-16
 -1      2502-1.56613E+01 4.50532E+00-2.77556E-16
 -1      2503-1.43676E+01 2.25835E+00-2.77556E-16
 -1      2504-3.63420E+01-5.23077E+00-2.77556E-16
 -1      2505-3.62946E+01-6.72902E+00-2.77556E-16
 -1      2506-3.64827E+01-3.72636E+00-2.77556E-16
 -1      2507-3.52869E+01-4.45495E+00-2.77556E-16
 -1      2508-3.64893E+01-2.22298E+00-2.77556E-16
 -1      2509-3.18939E+01 1.09569E+01-2.77556E-16
 -1      2510-3.04177E+01 1.09569E+01-2.77556E-16
 -1      2511-2.87660E+01 1.13699E+01-2.77556E-16
 -1      2512-2.95167E+01 9.88360E+00-2.77556E-16
 -1      2513-2.73160E+01 1.14974E+01-2.77556E-16
 -1      2514-2.08352E+01-1.07216E+01-2.77556E-16
 -1      2515-1.94734E+01-9.80168E+00-2.77556E-16
 -1      2516-1.94512E+01-1.14329E+01-2.77556E-16
 -1      2517-1.80263E+01-1.17719E+01-2.77556E-16
 -1      2518-2.21951E+01-1.15070E+01-2.77556E-16
 -1      2519-2.22173E+01-9.87580E+00-2.77556E-16
 -1      2520-1.53773E+01 1.09945E+01-2.77556E-16
 -1      2521-1.67482E+01 1.09004E+01-2.77556E-16
 -1      2522-1.71972E+01 9.74037E+00-2.77556E-16
 -1      2523-1.80746E+01 1.11665E+01-2.77556E-16
 -1      2524-1.96623E+01 1.09954E+01-2.77556E-16
 -1      2525-3.51622E+01-1.08994E+01-2.77556E-16
 -1      2526-3.36585E+01-1.08694E+01-2.77556E-16
 -1      2527-3.29334E+01-9.33366E+00-2.77556E-16
 -1      2528-3.18942E+01-1.09075E+01-2.77556E-16
 -1      2529-3.04203E+01-1.10485E+01-2.77556E-16
 -1      2530-1.43586E+01-6.73163E+00-2.77556E-16
 -1      2531-1.43642E+01-5.24295E+00-2.77556E-16
 -1      2532-1.43123E+01-8.24006E+00-2.77556E-16
 -1      2533-1.56130E+01-7.50043E+00-2.77556E-16
 -1      2534-1.42340E+01-9.72134E+00-2.77556E-16
 -1      2535-3.66212E+01 6.71570E+00-2.77556E-16
 -1      2536-3.65657E+01 5.25812E+00-2.77556E-16
 -1      2537-3.64428E+01 9.37594E+00-2.77556E-16
 -1      2538-3.66523E+01 7.90573E+00-2.77556E-16
 -1      2539-3.56041E+01 7.20323E+00-2.77556E-16
 -1      2540-1.66437E+01-1.14009E+01-2.77556E-16
 -1      2541-1.68281E+01-9.76089E+00-2.77556E-16
 -1      2542-1.53824E+01-1.06488E+01-2.77556E-16
 -1      2543-1.40496E+01-1.13613E+01-2.77556E-16
 -1      2544-3.33574E+01 1.13170E+01-2.77556E-16
 -1      2545-3.48335E+01 1.13170E+01-2.77556E-16
 -1      2546-3.56729E+01 1.02747E+01-2.77556E-16
 -1      2547-3.64109E+01 1.14009E+01-2.77556E-16
 -1      2548-1.44609E+01 8.48446E+00-2.77556E-16
 -1      2549-1.44105E+01 9.97543E+00-2.77556E-16
 -1      2550-1.39170E+01 1.14956E+01-2.77556E-16
 -1      2551-3.60703E+01-8.39708E+00-2.77556E-16
 -1      2552-3.60947E+01-9.89017E+00-2.77556E-16
 -1      2553-3.65591E+01-1.14941E+01-2.77556E-16
 -1      2554-1.57648E+01 7.73703E+00-2.77556E-16
 -1      2555-1.69561E+01 3.75916E+00-2.77556E-16
 -1      2556-1.69536E+01 5.25357E+00-2.77556E-16
 -1      2557-1.82476E+01 6.00145E+00-2.77556E-16
 -1      2558-1.69527E+01 6.74762E+00-2.77556E-16
 -1      2559-1.70588E+01 8.48491E+00-2.77556E-16
 -1      2560-1.69587E+01 2.26770E+00-2.77556E-16
 -1      2561-1.82510E+01 3.01595E+00-2.77556E-16
 -1      2562-1.56643E+01 1.51324E+00-2.77556E-16
 -1      2563-1.69591E+01 7.70032E-01-2.77556E-16
 -1      2564-1.95440E+01 2.27282E+00-2.77556E-16
 -1      2565-1.95415E+01 3.76428E+00-2.77556E-16
 -1      2566-2.08334E+01 4.51061E+00-2.77556E-16
 -1      2567-1.95404E+01 5.25373E+00-2.77556E-16
 -1      2568-1.95395E+01 6.74778E+00-2.77556E-16
 -1      2569-1.95457E+01 7.82266E-01-2.77556E-16
 -1      2570-2.08361E+01 1.53060E+00-2.77556E-16
 -1      2571-1.82592E+01 2.57534E-02-2.77556E-16
 -1      2572-1.95514E+01-7.16470E-01-2.77556E-16
 -1      2573-1.69648E+01-7.28705E-01-2.77556E-16
 -1      2574-2.21269E+01 7.88016E-01-2.77556E-16
 -1      2575-2.21252E+01 2.27857E+00-2.77556E-16
 -1      2576-2.34124E+01 3.02503E+00-2.77556E-16
 -1      2577-2.21216E+01 3.76761E+00-2.77556E-16
 -1      2578-2.21206E+01 5.25707E+00-2.77556E-16
 -1      2579-2.21325E+01-6.95081E-01-2.77556E-16
 -1      2580-2.34215E+01 5.28925E-02-2.77556E-16
 -1      2581-2.08657E+01-1.45547E+00-2.77556E-16
 -1      2582-2.21603E+01-2.19059E+00-2.77556E-16
 -1      2583-1.95792E+01-2.21198E+00-2.77556E-16
 -1      2584-2.47116E+01-6.89750E-01-2.77556E-16
 -1      2585-2.47060E+01 7.93348E-01-2.77556E-16
 -1      2586-2.59945E+01 1.54412E+00-2.77556E-16
 -1      2587-2.47045E+01 2.28676E+00-2.77556E-16
 -1      2588-2.47009E+01 3.77580E+00-2.77556E-16
 -1      2589-2.47181E+01-2.17122E+00-2.77556E-16
 -1      2590-2.60026E+01-1.43076E+00-2.77556E-16
 -1      2591-2.34427E+01-2.95440E+00-2.77556E-16
 -1      2592-2.47337E+01-3.69541E+00-2.77556E-16
 -1      2593-2.21759E+01-3.71478E+00-2.77556E-16
 -1      2594-2.72828E+01 7.96794E-01-2.77556E-16
 -1      2595-2.72813E+01 2.29021E+00-2.77556E-16
 -1      2596-2.72930E+01-2.17262E+00-2.77556E-16
 -1      2597-2.72865E+01-6.91153E-01-2.77556E-16
 -1      2598-2.85732E+01 5.49349E-02-2.77556E-16
 -1      2599-2.72788E+01 5.28360E+00-2.77556E-16
 -1      2600-2.59921E+01 4.53234E+00-2.77556E-16
 -1      2601-2.72797E+01 3.78880E+00-2.77556E-16
 -1      2602-2.85680E+01 3.04147E+00-2.77556E-16
 -1      2603-2.47000E+01 5.27060E+00-2.77556E-16
 -1      2604-2.72954E+01-3.66087E+00-2.77556E-16
 -1      2605-2.85793E+01-2.92126E+00-2.77556E-16
 -1      2606-2.60071E+01-4.40850E+00-2.77556E-16
 -1      2607-2.72934E+01-5.15714E+00-2.77556E-16
 -1      2608-2.47317E+01-5.19168E+00-2.77556E-16
 -1      2609-1.95831E+01-3.71715E+00-2.77556E-16
 -1      2610-1.95766E+01-5.24571E+00-2.77556E-16
 -1      2611-2.08869E+01-4.47953E+00-2.77556E-16
 -1      2612-2.21693E+01-5.24334E+00-2.77556E-16
 -1      2613-1.82688E+01-2.97816E+00-2.77556E-16
 -1      2614-2.98458E+01-3.62318E+00-2.77556E-16
 -1      2615-2.98434E+01-2.13493E+00-2.77556E-16
 -1      2616-3.11278E+01-1.38145E+00-2.77556E-16
 -1      2617-2.98613E+01-6.79529E-01-2.77556E-16
 -1      2618-2.98576E+01 8.08418E-01-2.77556E-16
 -1      2619-2.73228E+01-6.67495E+00-2.77556E-16
 -1      2620-2.86111E+01-5.92733E+00-2.77556E-16
 -1      2621-2.98304E+01-5.16198E+00-2.77556E-16
 -1      2622-3.10945E+01-4.37564E+00-2.77556E-16
 -1      2623-2.98598E+01-6.67979E+00-2.77556E-16
 -1      2624-2.48528E+01-8.35797E+00-2.77556E-16
 -1      2625-2.60880E+01-7.47771E+00-2.77556E-16
 -1      2626-2.47699E+01-6.78502E+00-2.77556E-16
 -1      2627-2.34965E+01-6.07194E+00-2.77556E-16
 -1      2628-2.74057E+01-8.24790E+00-2.77556E-16
 -1      2629-2.33975E+01 5.98831E+00-2.77556E-16
 -1      2630-2.21092E+01 6.73131E+00-2.77556E-16
 -1      2631-2.21027E+01 8.18291E+00-2.77556E-16
 -1      2632-2.08259E+01 7.45166E+00-2.77556E-16
 -1      2633-1.95330E+01 8.19938E+00-2.77556E-16
 -1      2634-3.23146E+01-2.10163E+00-2.77556E-16
 -1      2635-3.23324E+01-6.46230E-01-2.77556E-16
 -1      2636-3.21566E+01-5.16697E+00-2.77556E-16
 -1      2637-3.21720E+01-3.62818E+00-2.77556E-16
 -1      2638-3.33766E+01-2.89296E+00-2.77556E-16
 -1      2639-3.36268E+01 9.53238E-02-2.77556E-16
 -1      2640-3.24400E+01 8.15507E-01-2.77556E-16
 -1      2641-3.24400E+01 2.30111E+00-2.77556E-16
 -1      2642-3.11456E+01 1.55956E+00-2.77556E-16
 -1      2643-2.98576E+01 2.29402E+00-2.77556E-16
 -1      2644-2.99048E+01-8.40848E+00-2.77556E-16
 -1      2645-3.11241E+01-7.64313E+00-2.77556E-16
 -1      2646-3.20564E+01-8.40570E+00-2.77556E-16
 -1      2647-3.20115E+01-6.67701E+00-2.77556E-16
 -1      2648-3.30889E+01-5.92955E+00-2.77556E-16
 -1      2649-3.45482E+01-6.63406E-01-2.77556E-16
 -1      2650-3.46558E+01 7.98332E-01-2.77556E-16
 -1      2651-3.43308E+01-3.68503E+00-2.77556E-16
 -1      2652-3.44734E+01-2.15848E+00-2.77556E-16
 -1      2653-3.55024E+01-1.45547E+00-2.77556E-16
 -1      2654-3.37313E+01 3.04966E+00-2.77556E-16
 -1      2655-3.24369E+01 3.79371E+00-2.77556E-16
 -1      2656-3.46605E+01 2.29730E+00-2.77556E-16
 -1      2657-3.46575E+01 3.78990E+00-2.77556E-16
 -1      2658-3.24362E+01 5.28591E+00-2.77556E-16
 -1      2659-3.11448E+01 4.53736E+00-2.77556E-16
 -1      2660-2.98553E+01 5.28481E+00-2.77556E-16
 -1      2661-2.98560E+01 3.79261E+00-2.77556E-16
 -1      2662-3.37246E+01 6.03303E+00-2.77556E-16
 -1      2663-3.24325E+01 6.77668E+00-2.77556E-16
 -1      2664-3.46506E+01 5.27772E+00-2.77556E-16
 -1      2665-3.46470E+01 6.76850E+00-2.77556E-16
 -1      2666-3.55798E+01 4.52537E+00-2.77556E-16
 -1      2667-3.24447E+01 8.49718E+00-2.77556E-16
 -1      2668-3.11562E+01 7.75006E+00-2.77556E-16
 -1      2669-2.98668E+01 8.49332E+00-2.77556E-16
 -1      2670-2.98546E+01 6.77283E+00-2.77556E-16
 -1      2671-2.85658E+01 6.02807E+00-2.77556E-16
 -1      2672-3.39082E+01 8.85727E+00-2.77556E-16
 -1      2673-3.26319E+01 9.83065E+00-2.77556E-16
 -1      2674-3.46781E+01 7.95853E+00-2.77556E-16
 -1      2675-3.48653E+01 9.29200E+00-2.77556E-16
 -1      2676-2.82150E+01 8.90636E+00-2.77556E-16
 -1      2677-2.72782E+01 6.77161E+00-2.77556E-16
 -1      2678-2.71741E+01 8.10579E+00-2.77556E-16
 -1      2679-2.58872E+01 7.36131E+00-2.77556E-16
 -1      2680-2.68240E+01 9.49606E+00-2.77556E-16
 -1      2681-1.69659E+01-2.22834E+00-2.77556E-16
 -1      2682-1.83851E+01 8.75095E+00-2.77556E-16
 -1      2683-2.45846E+01 8.07902E+00-2.77556E-16
 -1      2684-2.46887E+01 6.74485E+00-2.77556E-16
 -1      2685-2.44768E+01 9.36609E+00-2.77556E-16
 -1      2686-2.32783E+01 8.74963E+00-2.77556E-16
 -1      2687-2.65989E+01 1.06114E+01-2.77556E-16
 -1      2688-2.55580E+01 9.81085E+00-2.77556E-16
 -1      2689-2.19950E+01 9.46998E+00-2.77556E-16
 -1      2690-3.49220E+01-7.62743E+00-2.77556E-16
 -1      2691-3.40450E+01-6.69947E+00-2.77556E-16
 -1      2692-3.38208E+01-8.36754E+00-2.77556E-16
 -1      2693-3.41901E+01-5.18944E+00-2.77556E-16
 -1      2694-1.96715E+01 9.45484E+00-2.77556E-16
 -1      2695-1.56631E+01-4.48785E+00-2.77556E-16
 -1      2696-1.69219E+01-8.25168E+00-2.77556E-16
 -1      2697-1.69682E+01-6.74325E+00-2.77556E-16
 -1      2698-1.82750E+01-5.98891E+00-2.77556E-16
 -1      2699-1.69660E+01-5.23767E+00-2.77556E-16
 -1      2700-1.69698E+01-3.73351E+00-2.77556E-16
 -1      2701-1.81832E+01-9.00371E+00-2.77556E-16
 -1      2702-1.95673E+01-8.29246E+00-2.77556E-16
 -1      2703-2.08689E+01-7.54926E+00-2.77556E-16
 -1      2704-1.95787E+01-6.75129E+00-2.77556E-16
 -1      2705-2.35559E+01-9.16323E+00-2.77556E-16
 -1      2706-2.21960E+01-8.37786E+00-2.77556E-16
 -1      2707-2.22075E+01-6.83669E+00-2.77556E-16
 -1      2708-2.85880E+01-8.83458E+00-2.77556E-16
 -1      2709-2.98523E+01-9.79792E+00-2.77556E-16
 -1      2710-2.08102E+01 1.04438E+01-2.77556E-16
 -1      2711 4.00000E+01-7.48894E+00 2.56782E+00
 -1      2712 4.00000E+01-1.50000E+00 2.59808E+00
 -1      2713 4.00000E+01 4.50000E+00 2.59808E+00
 -1      2714 4.00000E+01 1.06589E+01 2.57756E+00
 -1      2715 4.00000E+01 7.47681E+00 7.48054E+00
 -1      2716 4.00000E+01-1.06524E+01 7.41878E+00
 -1      2717 4.00000E+01-4.50000E+00 7.40192E+00
 -1      2718 4.00000E+01 1.50000E+00 7.40192E+00
 -1      2719 4.00000E+01 1.28965E+01 6.17289E+00
 -1      2720 4.00000E+01-1.28964E+01 3.82711E+00
 -1      2721 4.00000E+01 7.53778E+00 2.53793E+00
 -1      2722 4.00000E+01 4.50255E+00 7.45467E+00
 -1      2723 4.00000E+01-7.52590E+00 7.47030E+00
 -1      2724 4.00000E+01-4.50000E+00 2.59808E+00
 -1      2725 4.00000E+01 1.50000E+00 2.59808E+00
 -1      2726 4.00000E+01-1.50000E+00 7.40192E+00
 -1      2727 4.00000E+01 1.06577E+01 7.41892E+00
 -1      2728 4.00000E+01 8.91628E+00 4.99784E+00
 -1      2729 4.00000E+01 1.29641E+01 3.82865E+00
 -1      2730 4.00000E+01-1.29629E+01 6.17074E+00
 -1      2731 4.00000E+01-1.06592E+01 2.58800E+00
 -1      2732 4.00000E+01-8.90840E+00 5.00773E+00
 -1      2733 4.00000E+01 6.04464E+00 4.97212E+00
 -1      2734 4.00000E+01 3.00787E+00 5.00414E+00
 -1      2735 4.00000E+01-6.00237E+00 5.00148E+00
 -1      2736 4.00000E+01-3.00040E+00 5.00025E+00
 -1      2737 4.00000E+01 1.24514E-03 5.00073E+00
 -1      2738 4.00000E+01 1.11910E+01 4.99941E+00
 -1      2739 4.00000E+01 1.31246E+01 1.78124E+00
 -1      2740 4.00000E+01-1.11889E+01 5.00177E+00
 -1      2741 4.00000E+01 1.31108E+01 8.21836E+00
 -1      2742 4.00000E+01-1.31231E+01 8.21791E+00
 -1      2743 4.00000E+01-1.31111E+01 1.78302E+00
 -1      2744 4.00000E+01 1.40554E+01 9.10918E+00
 -1      2745 4.00000E+01 1.40554E+01 7.85918E+00
 -1      2746 4.00000E+01 1.25554E+01 9.10918E+00
 -1      2747 4.00000E+01 1.40623E+01 2.14062E+00
 -1      2748 4.00000E+01 1.40623E+01 8.90620E-01
 -1      2749 4.00000E+01 1.25623E+01 8.90620E-01
 -1      2750 4.00000E+01-1.40556E+01 8.91511E-01
 -1      2751 4.00000E+01-1.40556E+01 2.14151E+00
 -1      2752 4.00000E+01-1.25556E+01 8.91511E-01
 -1      2753 4.00000E+01-1.40615E+01 7.85895E+00
 -1      2754 4.00000E+01-1.40615E+01 9.10895E+00
 -1      2755 4.00000E+01-1.25615E+01 9.10895E+00
 -1      2756 4.00000E+01 1.39482E+01 6.83644E+00
 -1      2757 4.00000E+01 1.39482E+01 5.58644E+00
 -1      2758 4.00000E+01 1.30037E+01 7.19563E+00
 -1      2759 4.00000E+01 1.39820E+01 4.41432E+00
 -1      2760 4.00000E+01 1.39820E+01 3.16432E+00
 -1      2761 4.00000E+01 1.29303E+01 5.00077E+00
 -1      2762 4.00000E+01 1.30443E+01 2.80494E+00
 -1      2763 4.00000E+01-1.39482E+01 3.16355E+00
 -1      2764 4.00000E+01-1.39482E+01 4.41356E+00
 -1      2765 4.00000E+01-1.30038E+01 2.80507E+00
 -1      2766 4.00000E+01-1.39815E+01 5.58537E+00
 -1      2767 4.00000E+01-1.39815E+01 6.83537E+00
 -1      2768 4.00000E+01-1.29297E+01 4.99893E+00
 -1      2769 4.00000E+01-1.30430E+01 7.19432E+00
 -1      2770 4.00000E+01-9.82962E+00 1.29400E+00
 -1      2771 4.00000E+01-1.13296E+01 1.29400E+00
 -1      2772 4.00000E+01-1.18852E+01 2.18551E+00
 -1      2773 4.00000E+01-6.74447E+00 1.28391E+00
 -1      2774 4.00000E+01-8.24447E+00 1.28391E+00
 -1      2775 4.00000E+01-9.07409E+00 2.57791E+00
 -1      2776 4.00000E+01-3.75000E+00 1.29904E+00
 -1      2777 4.00000E+01-5.25000E+00 1.29904E+00
 -1      2778 4.00000E+01-5.99447E+00 2.58295E+00
 -1      2779 4.00000E+01-7.50000E-01 1.29904E+00
 -1      2780 4.00000E+01-2.25000E+00 1.29904E+00
 -1      2781 4.00000E+01-3.00000E+00 2.59808E+00
 -1      2782 4.00000E+01 2.25000E+00 1.29904E+00
 -1      2783 4.00000E+01 7.50000E-01 1.29904E+00
 -1      2784 4.00000E+01-2.22045E-16 2.59808E+00
 -1      2785 4.00000E+01 5.25000E+00 1.29904E+00
 -1      2786 4.00000E+01 3.75000E+00 1.29904E+00
 -1      2787 4.00000E+01 3.00000E+00 2.59808E+00
 -1      2788 4.00000E+01 8.26889E+00 1.26897E+00
 -1      2789 4.00000E+01 6.76889E+00 1.26897E+00
 -1      2790 4.00000E+01 6.01889E+00 2.56800E+00
 -1      2791 4.00000E+01 1.13294E+01 1.28878E+00
 -1      2792 4.00000E+01 9.82944E+00 1.28878E+00
 -1      2793 4.00000E+01 9.09833E+00 2.55774E+00
 -1      2794 4.00000E+01 1.18917E+01 2.17940E+00
 -1      2795 4.00000E+01-1.13262E+01 8.70939E+00
 -1      2796 4.00000E+01-9.82619E+00 8.70939E+00
 -1      2797 4.00000E+01-1.18877E+01 7.81835E+00
 -1      2798 4.00000E+01-8.26295E+00 8.73515E+00
 -1      2799 4.00000E+01-6.76295E+00 8.73515E+00
 -1      2800 4.00000E+01-9.08915E+00 7.44454E+00
 -1      2801 4.00000E+01-5.25000E+00 8.70096E+00
 -1      2802 4.00000E+01-3.75000E+00 8.70096E+00
 -1      2803 4.00000E+01-6.01295E+00 7.43611E+00
 -1      2804 4.00000E+01-2.25000E+00 8.70096E+00
 -1      2805 4.00000E+01-7.50000E-01 8.70096E+00
 -1      2806 4.00000E+01-3.00000E+00 7.40192E+00
 -1      2807 4.00000E+01 7.50000E-01 8.70096E+00
 -1      2808 4.00000E+01 2.25000E+00 8.70096E+00
 -1      2809 4.00000E+01 0.00000E+00 7.40192E+00
 -1      2810 4.00000E+01 3.75128E+00 8.72733E+00
 -1      2811 4.00000E+01 5.25128E+00 8.72733E+00
 -1      2812 4.00000E+01 3.00128E+00 7.42830E+00
 -1      2813 4.00000E+01 6.73840E+00 8.74027E+00
 -1      2814 4.00000E+01 8.23840E+00 8.74027E+00
 -1      2815 4.00000E+01 5.98968E+00 7.46761E+00
 -1      2816 4.00000E+01 9.82883E+00 8.70946E+00
 -1      2817 4.00000E+01 1.13288E+01 8.70946E+00
 -1      2818 4.00000E+01 9.06723E+00 7.44973E+00
 -1      2819 4.00000E+01 1.18842E+01 7.81864E+00
 -1      2820 4.00000E+01-5.25119E+00 3.79978E+00
 -1      2821 4.00000E+01-6.74566E+00 3.78465E+00
 -1      2822 4.00000E+01-8.19867E+00 3.78778E+00
 -1      2823 4.00000E+01-9.78382E+00 3.79786E+00
 -1      2824 4.00000E+01-7.45539E+00 5.00461E+00
 -1      2825 4.00000E+01-2.25020E+00 3.79916E+00
 -1      2826 4.00000E+01-3.75020E+00 3.79916E+00
 -1      2827 4.00000E+01 7.50623E-01 3.79940E+00
 -1      2828 4.00000E+01-7.49377E-01 3.79940E+00
 -1      2829 4.00000E+01-1.49958E+00 5.00049E+00
 -1      2830 4.00000E+01 6.79121E+00 3.75502E+00
 -1      2831 4.00000E+01 5.27232E+00 3.78510E+00
 -1      2832 4.00000E+01 3.75393E+00 3.80111E+00
 -1      2833 4.00000E+01 2.25393E+00 3.80111E+00
 -1      2834 4.00000E+01 4.52626E+00 4.98813E+00
 -1      2835 4.00000E+01 9.78758E+00 3.78770E+00
 -1      2836 4.00000E+01 8.22703E+00 3.76789E+00
 -1      2837 4.00000E+01 1.09250E+01 3.78848E+00
 -1      2838 4.00000E+01 1.00537E+01 4.99863E+00
 -1      2839 4.00000E+01 1.20775E+01 4.41403E+00
 -1      2840 4.00000E+01 1.18115E+01 3.20310E+00
 -1      2841 4.00000E+01 5.27360E+00 6.21339E+00
 -1      2842 4.00000E+01 6.76073E+00 6.22633E+00
 -1      2843 4.00000E+01 8.19654E+00 6.23919E+00
 -1      2844 4.00000E+01 9.78697E+00 6.20838E+00
 -1      2845 4.00000E+01 7.48046E+00 4.98498E+00
 -1      2846 4.00000E+01-9.78039E+00 6.21326E+00
 -1      2847 4.00000E+01-8.21715E+00 6.23901E+00
 -1      2848 4.00000E+01-1.20759E+01 5.58625E+00
 -1      2849 4.00000E+01-1.09207E+01 6.21028E+00
 -1      2850 4.00000E+01-1.18077E+01 6.79476E+00
 -1      2851 4.00000E+01-1.00487E+01 5.00475E+00
 -1      2852 4.00000E+01-6.76414E+00 6.23589E+00
 -1      2853 4.00000E+01-5.25119E+00 6.20170E+00
 -1      2854 4.00000E+01-3.75020E+00 6.20109E+00
 -1      2855 4.00000E+01-2.25020E+00 6.20109E+00
 -1      2856 4.00000E+01-4.50138E+00 5.00086E+00
 -1      2857 4.00000E+01 2.25393E+00 6.20303E+00
 -1      2858 4.00000E+01 3.75521E+00 6.22941E+00
 -1      2859 4.00000E+01-7.49377E-01 6.20133E+00
 -1      2860 4.00000E+01 7.50623E-01 6.20133E+00
 -1      2861 4.00000E+01 1.50456E+00 5.00244E+00
 -1      2862 4.00000E+01 1.09243E+01 6.20916E+00
 -1      2863 4.00000E+01 1.20438E+01 5.58615E+00
 -1      2864 4.00000E+01 1.17771E+01 6.79590E+00
 -1      2865 4.00000E+01-1.20427E+01 4.41444E+00
 -1      2866 4.00000E+01-1.09241E+01 3.79488E+00
 -1      2867 4.00000E+01-1.17778E+01 3.20755E+00
 -1      2868-9.94760E-14 1.24340E+01 1.00000E+01
 -1      2869-1.45281E+01 1.21338E+01 1.00000E+01
 -1      2870 1.48140E+01-1.24549E+01 1.00000E+01
 -1      2871 2.36611E+01-1.25286E+01 1.00000E+01
 -1      2872-2.40636E+01 1.21379E+01 1.00000E+01
 -1      2873 6.08238E+00-1.21505E+01 1.00000E+01
 -1      2874-8.92833E+00-1.23159E+01 1.00000E+01
 -1      2875 1.16731E+01 1.21582E+01 1.00000E+01
 -1      2876-1.77657E+01-1.24944E+01 1.00000E+01
 -1      2877 2.11770E+01 1.21736E+01 1.00000E+01
 -1      2878-3.74027E+01-1.49582E+00 1.00000E+01
 -1      2879 3.69374E+01 1.22143E+00 1.00000E+01
 -1      2880-2.65356E+01-1.26197E+01 1.00000E+01
 -1      2881 2.98059E+01 1.22412E+01 1.00000E+01
 -1      2882-3.74043E+01 4.50395E+00 1.00000E+01
 -1      2883 3.74374E+01-4.81922E+00 1.00000E+01
 -1      2884-4.54594E-02-1.25318E+01 1.00000E+01
 -1      2885-8.95281E+00 1.23228E+01 1.00000E+01
 -1      2886-2.96195E+01 1.22614E+01 1.00000E+01
 -1      2887 6.16473E+00 1.21641E+01 1.00000E+01
 -1      2888 2.99908E+01-1.26243E+01 1.00000E+01
 -1      2889-3.74031E+01-7.49719E+00 1.00000E+01
 -1      2890 3.74191E+01 7.47332E+00 1.00000E+01
 -1      2891-3.28171E+01-1.23238E+01 1.00000E+01
 -1      2892-3.74696E+01 1.03828E+01 1.00000E+01
 -1      2893 3.74721E+01-1.03800E+01 1.00000E+01
 -1      2894 3.52673E+01 1.22879E+01 1.00000E+01
 -1      2895-3.74135E+01 7.48213E+00 1.00000E+01
 -1      2896-3.48111E+01 6.00188E+00 1.00000E+01
 -1      2897-3.48088E+01 3.01257E+00 1.00000E+01
 -1      2898-3.22233E+01 4.51238E+00 1.00000E+01
 -1      2899-3.22167E+01 1.52818E+00 1.00000E+01
 -1      2900-2.96380E+01 3.02476E+00 1.00000E+01
 -1      2901-2.96310E+01 4.55396E-02 1.00000E+01
 -1      2902-2.70565E+01 1.53930E+00 1.00000E+01
 -1      2903-2.70492E+01-1.43552E+00 1.00000E+01
 -1      2904-2.44782E+01 5.66639E-02 1.00000E+01
 -1      2905-2.44709E+01-2.91505E+00 1.00000E+01
 -1      2906-2.19022E+01-1.42395E+00 1.00000E+01
 -1      2907-2.19074E+01 1.54561E+00 1.00000E+01
 -1      2908-1.93339E+01 6.56511E-02 1.00000E+01
 -1      2909-1.93387E+01 3.03333E+00 1.00000E+01
 -1      2910-1.67664E+01 1.55402E+00 1.00000E+01
 -1      2911-1.67610E+01-1.41290E+00 1.00000E+01
 -1      2912-1.41949E+01 7.52190E-02 1.00000E+01
 -1      2913-1.41891E+01-2.89093E+00 1.00000E+01
 -1      2914-1.16239E+01-1.40300E+00 1.00000E+01
 -1      2915-1.16291E+01 1.56218E+00 1.00000E+01
 -1      2916-9.05885E+00 8.40827E-02 1.00000E+01
 -1      2917-9.05326E+00-2.88072E+00 1.00000E+01
 -1      2918-6.43930E+00-1.43978E+00 1.00000E+01
 -1      2919-6.49408E+00 1.57096E+00 1.00000E+01
 -1      2920-3.90671E+00 9.87562E-02 1.00000E+01
 -1      2921-3.78334E+00-3.02884E+00 1.00000E+01
 -1      2922-1.28808E+00-1.46907E+00 1.00000E+01
 -1      2923-1.32427E+00 1.58880E+00 1.00000E+01
 -1      2924 1.22744E+00 8.77813E-02 1.00000E+01
 -1      2925 1.24517E+00-2.96882E+00 1.00000E+01
 -1      2926 3.78061E+00-1.39811E+00 1.00000E+01
 -1      2927 3.79023E+00 1.58716E+00 1.00000E+01
 -1      2928 6.34680E+00 1.05024E-01 1.00000E+01
 -1      2929 6.33419E+00-2.86007E+00 1.00000E+01
 -1      2930 8.90969E+00-1.36797E+00 1.00000E+01
 -1      2931 8.92060E+00 1.59813E+00 1.00000E+01
 -1      2932 1.14786E+01 1.17518E-01 1.00000E+01
 -1      2933 1.14801E+01-2.84356E+00 1.00000E+01
 -1      2934 1.40442E+01-1.35774E+00 1.00000E+01
 -1      2935 1.40403E+01 1.60610E+00 1.00000E+01
 -1      2936 1.66085E+01 1.31210E-01 1.00000E+01
 -1      2937 1.66138E+01-2.83523E+00 1.00000E+01
 -1      2938 1.91796E+01-1.34697E+00 1.00000E+01
 -1      2939 1.91730E+01 1.62069E+00 1.00000E+01
 -1      2940 2.17479E+01 1.41500E-01 1.00000E+01
 -1      2941 2.17409E+01 3.11118E+00 1.00000E+01
 -1      2942 2.43179E+01 1.63183E+00 1.00000E+01
 -1      2943 2.43232E+01-1.33921E+00 1.00000E+01
 -1      2944 2.68965E+01 1.50578E-01 1.00000E+01
 -1      2945 2.69019E+01-2.82293E+00 1.00000E+01
 -1      2946 2.67963E+01 2.99426E+00 1.00000E+01
 -1      2947-2.96251E+01-2.94258E+00 1.00000E+01
 -1      2948 1.91847E+01-4.31394E+00 1.00000E+01
 -1      2949 1.91661E+01 4.59000E+00 1.00000E+01
 -1      2950-2.18957E+01-4.39363E+00 1.00000E+01
 -1      2951-2.70615E+01 4.51628E+00 1.00000E+01
 -1      2952 2.94773E+01-1.33159E+00 1.00000E+01
 -1      2953 2.94837E+01-4.30810E+00 1.00000E+01
 -1      2954-1.67720E+01 4.52093E+00 1.00000E+01
 -1      2955-1.93430E+01 5.99993E+00 1.00000E+01
 -1      2956 2.69068E+01-5.79681E+00 1.00000E+01
 -1      2957 2.17332E+01 6.08002E+00 1.00000E+01
 -1      2958 1.66185E+01-5.80103E+00 1.00000E+01
 -1      2959-2.44630E+01-5.88470E+00 1.00000E+01
 -1      2960 1.91889E+01-7.28011E+00 1.00000E+01
 -1      2961-2.18888E+01-7.36277E+00 1.00000E+01
 -1      2962-1.93222E+01-5.87169E+00 1.00000E+01
 -1      2963 1.91778E+01 7.50639E+00 1.00000E+01
 -1      2964 1.65982E+01 6.05914E+00 1.00000E+01
 -1      2965 1.64974E+01 9.46902E+00 1.00000E+01
 -1      2966 1.40244E+01 7.54495E+00 1.00000E+01
 -1      2967 3.20422E+01-2.81431E+00 1.00000E+01
 -1      2968 3.20697E+01-5.58013E+00 1.00000E+01
 -1      2969 3.20547E+01 1.66704E-01 1.00000E+01
 -1      2970-3.22193E+01 7.49814E+00 1.00000E+01
 -1      2971-1.67432E+01 7.42845E+00 1.00000E+01
 -1      2972-1.42004E+01 5.99791E+00 1.00000E+01
 -1      2973-1.93124E+01 9.43068E+00 1.00000E+01
 -1      2974-2.19131E+01 7.47929E+00 1.00000E+01
 -1      2975 2.17556E+01-5.79368E+00 1.00000E+01
 -1      2976-2.46207E+01-8.62577E+00 1.00000E+01
 -1      2977-2.70639E+01-7.32121E+00 1.00000E+01
 -1      2978-2.21415E+01-1.02796E+01 1.00000E+01
 -1      2979 2.18722E+01-8.56030E+00 1.00000E+01
 -1      2980 1.91932E+01-1.02455E+01 1.00000E+01
 -1      2981 3.46422E+01-1.31933E+00 1.00000E+01
 -1      2982 2.16761E+01 9.02403E+00 1.00000E+01
 -1      2983 2.42735E+01 7.56662E+00 1.00000E+01
 -1      2984 2.41264E+01 1.05390E+01 1.00000E+01
 -1      2985 2.68656E+01 9.06115E+00 1.00000E+01
 -1      2986-1.42116E+01 8.97365E+00 1.00000E+01
 -1      2987-1.16405E+01 7.49316E+00 1.00000E+01
 -1      2988-1.16471E+01 1.04599E+01 1.00000E+01
 -1      2989-9.02799E+00 9.07234E+00 1.00000E+01
 -1      2990-6.36445E+00 1.05033E+01 1.00000E+01
 -1      2991-6.43725E+00 7.56293E+00 1.00000E+01
 -1      2992-3.87878E+00 8.99671E+00 1.00000E+01
 -1      2993-3.87237E+00 6.07711E+00 1.00000E+01
 -1      2994-1.33034E+00 7.50859E+00 1.00000E+01
 -1      2995-9.04244E+00 6.04774E+00 1.00000E+01
 -1      2996-3.51644E+00 1.21220E+01 1.00000E+01
 -1      2997-1.30905E+00 4.59257E+00 1.00000E+01
 -1      2998 1.25238E+00 6.06440E+00 1.00000E+01
 -1      2999 1.33178E+00 9.47983E+00 1.00000E+01
 -1      3000 3.83666E+00 7.57037E+00 1.00000E+01
 -1      3001-6.46388E+00 4.57398E+00 1.00000E+01
 -1      3002 3.82031E+00 4.58850E+00 1.00000E+01
 -1      3003 6.39043E+00 6.07354E+00 1.00000E+01
 -1      3004 6.40374E+00 9.05049E+00 1.00000E+01
 -1      3005 8.96465E+00 7.56494E+00 1.00000E+01
 -1      3006 8.93307E+00 1.04992E+01 1.00000E+01
 -1      3007 8.93442E+00 4.57012E+00 1.00000E+01
 -1      3008-3.48083E+01 1.58208E-02 1.00000E+01
 -1      3009 3.74234E+01-7.53382E+00 1.00000E+01
 -1      3010 3.48019E+01-9.19412E+00 1.00000E+01
 -1      3011 3.51351E+01-1.22595E+01 1.00000E+01
 -1      3012 3.22305E+01-1.04891E+01 1.00000E+01
 -1      3013 1.40417E+01 4.57223E+00 1.00000E+01
 -1      3014-2.96392E+01 6.00455E+00 1.00000E+01
 -1      3015-2.70604E+01 7.49044E+00 1.00000E+01
 -1      3016-2.96333E+01 9.00906E+00 1.00000E+01
 -1      3017-2.69596E+01 1.04693E+01 1.00000E+01
 -1      3018-3.22106E+01 1.04781E+01 1.00000E+01
 -1      3019-3.48223E+01 8.97274E+00 1.00000E+01
 -1      3020-3.51334E+01 1.22254E+01 1.00000E+01
 -1      3021-3.74047E+01-4.49927E+00 1.00000E+01
 -1      3022-3.48128E+01-5.99895E+00 1.00000E+01
 -1      3023-3.45617E+01-9.47440E+00 1.00000E+01
 -1      3024-3.22239E+01-7.49422E+00 1.00000E+01
 -1      3025-3.22216E+01-4.49745E+00 1.00000E+01
 -1      3026-3.74922E+01-1.05296E+01 1.00000E+01
 -1      3027-3.48092E+01-2.98777E+00 1.00000E+01
 -1      3028 3.73300E+01 4.44961E+00 1.00000E+01
 -1      3029 3.48034E+01 5.98665E+00 1.00000E+01
 -1      3030 3.49047E+01 9.01066E+00 1.00000E+01
 -1      3031 3.22583E+01 7.49455E+00 1.00000E+01
 -1      3032 3.20215E+01 4.78145E+00 1.00000E+01
 -1      3033 2.95917E+01 6.18596E+00 1.00000E+01
 -1      3034 3.24301E+01 1.04972E+01 1.00000E+01
 -1      3035-2.44859E+01 8.97262E+00 1.00000E+01
 -1      3036 3.44767E+01 3.27698E+00 1.00000E+01
 -1      3037-3.74040E+01 1.50609E+00 1.00000E+01
 -1      3038-1.67556E+01-4.38094E+00 1.00000E+01
 -1      3039-1.41832E+01-5.85786E+00 1.00000E+01
 -1      3040-2.44832E+01 3.03111E+00 1.00000E+01
 -1      3041-1.93517E+01-8.65256E+00 1.00000E+01
 -1      3042-1.67268E+01-7.26977E+00 1.00000E+01
 -1      3043-1.41437E+01-8.76283E+00 1.00000E+01
 -1      3044-1.15635E+01-7.32269E+00 1.00000E+01
 -1      3045-1.16025E+01-1.02970E+01 1.00000E+01
 -1      3046-8.93581E+00-8.96633E+00 1.00000E+01
 -1      3047-6.40044E+00-1.05137E+01 1.00000E+01
 -1      3048-6.31061E+00-7.51794E+00 1.00000E+01
 -1      3049-3.82263E+00-9.01827E+00 1.00000E+01
 -1      3050-1.44080E+01-1.19856E+01 1.00000E+01
 -1      3051-3.73237E+00-6.09517E+00 1.00000E+01
 -1      3052-1.29056E+00-7.55411E+00 1.00000E+01
 -1      3053-3.62207E+00-1.21107E+01 1.00000E+01
 -1      3054-8.94458E+00-5.94850E+00 1.00000E+01
 -1      3055 2.93920E+01-7.08072E+00 1.00000E+01
 -1      3056 2.68469E+01-8.72779E+00 1.00000E+01
 -1      3057 1.65332E+01-8.57127E+00 1.00000E+01
 -1      3058 1.40212E+01-7.22753E+00 1.00000E+01
 -1      3059 2.43494E+01-7.22747E+00 1.00000E+01
 -1      3060-1.41994E+01 3.03944E+00 1.00000E+01
 -1      3061-1.93285E+01-2.90291E+00 1.00000E+01
 -1      3062 1.40436E+01-4.31243E+00 1.00000E+01
 -1      3063 1.14783E+01-5.79685E+00 1.00000E+01
 -1      3064 1.14526E+01-8.70962E+00 1.00000E+01
 -1      3065 8.90497E+00-7.28197E+00 1.00000E+01
 -1      3066 8.86297E+00-1.02533E+01 1.00000E+01
 -1      3067 6.24637E+00-8.85130E+00 1.00000E+01
 -1      3068 3.60988E+00-1.02679E+01 1.00000E+01
 -1      3069 3.73350E+00-7.29803E+00 1.00000E+01
 -1      3070 1.16103E+01-1.19473E+01 1.00000E+01
 -1      3071 6.30192E+00-5.81648E+00 1.00000E+01
 -1      3072 1.66046E+01 3.09656E+00 1.00000E+01
 -1      3073-1.15929E+01-4.38395E+00 1.00000E+01
 -1      3074 8.90152E+00-4.32782E+00 1.00000E+01
 -1      3075-9.05366E+00 3.06089E+00 1.00000E+01
 -1      3076-2.44866E+01 6.00063E+00 1.00000E+01
 -1      3077 1.48766E+01 1.23795E+01 1.00000E+01
 -1      3078 2.92957E+00 1.23861E+01 1.00000E+01
 -1      3079 1.77778E+01 1.24340E+01 1.00000E+01
 -1      3080-1.77778E+01 1.24340E+01 1.00000E+01
 -1      3081 2.68030E+01-1.19518E+01 1.00000E+01
 -1      3082-2.07407E+01 1.24340E+01 1.00000E+01
 -1      3083-1.16276E+01 4.53355E+00 1.00000E+01
 -1      3084-2.19097E+01 4.51333E+00 1.00000E+01
 -1      3085-3.22187E+01-1.47304E+00 1.00000E+01
 -1      3086 2.17522E+01-2.82665E+00 1.00000E+01
 -1      3087 2.42716E+01 4.57957E+00 1.00000E+01
 -1      3088-2.96180E+01-1.19636E+01 1.00000E+01
 -1      3089-2.70458E+01-4.39954E+00 1.00000E+01
 -1      3090 2.65969E+01 1.22920E+01 1.00000E+01
 -1      3091-1.27809E+00-4.56157E+00 1.00000E+01
 -1      3092 2.94269E+01 1.57040E+00 1.00000E+01
 -1      3093 2.43315E+01-4.30113E+00 1.00000E+01
 -1      3094-3.89506E+00 3.08370E+00 1.00000E+01
 -1      3095-2.96291E+01-5.91952E+00 1.00000E+01
 -1      3096 1.24284E+00 3.08487E+00 1.00000E+01
 -1      3097-2.96049E+01-8.79847E+00 1.00000E+01
 -1      3098 6.36091E+00 3.07944E+00 1.00000E+01
 -1      3099 1.14869E+01 3.08692E+00 1.00000E+01
 -1      3100 3.76267E+00-4.43248E+00 1.00000E+01
 -1      3101 1.14885E+01 8.98492E+00 1.00000E+01
 -1      3102 1.14901E+01 6.05401E+00 1.00000E+01
 -1      3103 2.98219E+01 9.27007E+00 1.00000E+01
 -1      3104-2.36710E+01-1.27544E+01 1.00000E+01
 -1      3105-6.37724E+00-4.48516E+00 1.00000E+01
 -1      3106 2.67767E+01 5.99244E+00 1.00000E+01
 -1      3107 3.72576E+01-2.03600E+00 1.00000E+01
 -1      3108 3.47689E+01-3.86459E+00 1.00000E+01
 -1      3109 2.06972E+01-1.26940E+01 1.00000E+01
 -1      3110 3.75714E+01 1.04332E+01 1.00000E+01
 -1      3111-3.55702E+01-1.25177E+01 1.00000E+01
 -1      3112 1.77109E+01-1.26607E+01 1.00000E+01
 -1      3113 1.21534E+00-6.04856E+00 1.00000E+01
 -1      3114 1.23541E+00-8.74978E+00 1.00000E+01
 -1      3115-1.67766E+01-1.00314E+01 1.00000E+01
 -1      3116-2.07489E+01-1.27576E+01 1.00000E+01
 -1      3117 1.92600E+01 1.01839E+01 1.00000E+01
 -1      3118-2.20968E+01 1.01136E+01 1.00000E+01
 -1      3119 1.39653E+01-9.95046E+00 1.00000E+01
 -1      3120-1.47742E+00 1.01413E+01 1.00000E+01
 -1      3121 2.44075E+01-9.94561E+00 1.00000E+01
 -1      3122-1.65146E+01 1.00801E+01 1.00000E+01
 -1      3123-1.29417E+00-1.02325E+01 1.00000E+01
 -1      3124 2.96296E+00-1.28454E+01 1.00000E+01
 -1      3125 8.86669E+00-1.28702E+01 1.00000E+01
 -1      3126 2.94958E+01-9.83847E+00 1.00000E+01
 -1      3127-1.17285E+01-1.29197E+01 1.00000E+01
 -1      3128 4.13329E+00 1.01302E+01 1.00000E+01
 -1      3129-2.72600E+01-9.93449E+00 1.00000E+01
 -1      3130 1.37120E+01 1.01073E+01 1.00000E+01
 -1      3131-3.17651E+01-1.00109E+01 1.00000E+01
 -1      3132-2.67001E+01 1.29616E+01 1.00000E+01
 -1      3133-1.18207E+01 1.29730E+01 1.00000E+01
 -1      3134 3.25377E+01 1.30052E+01 1.00000E+01
 -1      3135 2.37037E+01 1.29763E+01 1.00000E+01
 -1      3136 8.88889E+00 1.30101E+01 1.00000E+01
 -1      3137-3.24298E+01 1.29930E+01 1.00000E+01
 -1      3138 3.25083E+01-1.30746E+01 1.00000E+01
 -1      3139-6.12050E+00-1.29327E+01 1.00000E+01
 -1      3140-6.07314E+00 1.29712E+01 1.00000E+01
 -1      3141 3.47021E+01-6.52483E+00 1.00000E+01
 -1      3142 3.20000E+01-8.12910E+00 1.00000E+01
 -1      3143-3.78007E+01-1.27910E+01 1.00000E+01
 -1      3144-3.78074E+01 1.27977E+01 1.00000E+01
 -1      3145 3.78074E+01-1.27977E+01 1.00000E+01
 -1      3146 3.78374E+01 1.28273E+01 1.00000E+01
 -1      3147 2.91101E+01 3.87934E+00 1.00000E+01
 -1      3148 3.15926E+01 2.35923E+00 1.00000E+01
 -1      3149 3.40557E+01 1.00510E+00 1.00000E+01
 -1      3150 2.82725E+01 1.07161E+01 1.00000E+01
 -1      3151-1.94337E+01-1.10171E+01 1.00000E+01
 -1      3152 2.22456E+01-1.08543E+01 1.00000E+01
 -1      3153-2.48458E+01-1.08428E+01 1.00000E+01
 -1      3154 1.62672E+01-1.08704E+01 1.00000E+01
 -1      3155 1.53040E+00-1.10267E+01 1.00000E+01
 -1      3156-3.89037E+01 1.38988E+01 1.00000E+01
 -1      3157-3.74222E+01 1.38988E+01 1.00000E+01
 -1      3158-3.89037E+01 1.23988E+01 1.00000E+01
 -1      3159 3.74372E+01 1.39136E+01 1.00000E+01
 -1      3160 3.89187E+01 1.39136E+01 1.00000E+01
 -1      3161 3.89187E+01 1.24136E+01 1.00000E+01
 -1      3162 3.89037E+01-1.38988E+01 1.00000E+01
 -1      3163 3.74222E+01-1.38988E+01 1.00000E+01
 -1      3164 3.89037E+01-1.23988E+01 1.00000E+01
 -1      3165-3.74188E+01-1.38955E+01 1.00000E+01
 -1      3166-3.89003E+01-1.38955E+01 1.00000E+01
 -1      3167-3.89003E+01-1.23955E+01 1.00000E+01
 -1      3168-3.60852E+01 1.36127E+01 1.00000E+01
 -1      3169-3.46038E+01 1.36127E+01 1.00000E+01
 -1      3170-3.64704E+01 1.25115E+01 1.00000E+01
 -1      3171-3.32519E+01 1.39965E+01 1.00000E+01
 -1      3172-3.17704E+01 1.39965E+01 1.00000E+01
 -1      3173-3.37816E+01 1.26092E+01 1.00000E+01
 -1      3174-3.03653E+01 1.36307E+01 1.00000E+01
 -1      3175-2.88838E+01 1.36307E+01 1.00000E+01
 -1      3176-3.10247E+01 1.26272E+01 1.00000E+01
 -1      3177-2.74241E+01 1.39808E+01 1.00000E+01
 -1      3178-2.59427E+01 1.39808E+01 1.00000E+01
 -1      3179-2.81598E+01 1.26115E+01 1.00000E+01
 -1      3180-2.46244E+01 1.35689E+01 1.00000E+01
 -1      3181-2.31429E+01 1.35689E+01 1.00000E+01
 -1      3182-2.53819E+01 1.25497E+01 1.00000E+01
 -1      3183-2.14815E+01 1.37170E+01 1.00000E+01
 -1      3184-2.00000E+01 1.37170E+01 1.00000E+01
 -1      3185-2.24022E+01 1.22859E+01 1.00000E+01
 -1      3186-1.85185E+01 1.37170E+01 1.00000E+01
 -1      3187-1.70370E+01 1.37170E+01 1.00000E+01
 -1      3188-1.92593E+01 1.24340E+01 1.00000E+01
 -1      3189-1.54122E+01 1.35669E+01 1.00000E+01
 -1      3190-1.39307E+01 1.35669E+01 1.00000E+01
 -1      3191-1.61529E+01 1.22839E+01 1.00000E+01
 -1      3192-1.25770E+01 1.39865E+01 1.00000E+01
 -1      3193-1.10955E+01 1.39865E+01 1.00000E+01
 -1      3194-1.31744E+01 1.25534E+01 1.00000E+01
 -1      3195-9.66159E+00 1.36614E+01 1.00000E+01
 -1      3196-8.18011E+00 1.36614E+01 1.00000E+01
 -1      3197-1.03868E+01 1.26479E+01 1.00000E+01
 -1      3198-6.74027E+00 1.39856E+01 1.00000E+01
 -1      3199-5.25879E+00 1.39856E+01 1.00000E+01
 -1      3200-7.51298E+00 1.26470E+01 1.00000E+01
 -1      3201-3.98044E+00 1.35610E+01 1.00000E+01
 -1      3202-2.49896E+00 1.35610E+01 1.00000E+01
 -1      3203-4.79479E+00 1.25466E+01 1.00000E+01
 -1      3204-7.40741E-01 1.37170E+01 1.00000E+01
 -1      3205 7.40741E-01 1.37170E+01 1.00000E+01
 -1      3206-1.75822E+00 1.22780E+01 1.00000E+01
 -1      3207 2.20553E+00 1.36930E+01 1.00000E+01
 -1      3208 3.68701E+00 1.36930E+01 1.00000E+01
 -1      3209 1.46479E+00 1.24100E+01 1.00000E+01
 -1      3210 5.30459E+00 1.35820E+01 1.00000E+01
 -1      3211 6.78607E+00 1.35820E+01 1.00000E+01
 -1      3212 4.54715E+00 1.22751E+01 1.00000E+01
 -1      3213 8.14815E+00 1.40050E+01 1.00000E+01
 -1      3214 9.62963E+00 1.40050E+01 1.00000E+01
 -1      3215 7.52681E+00 1.25871E+01 1.00000E+01
 -1      3216 1.10217E+01 1.35791E+01 1.00000E+01
 -1      3217 1.25032E+01 1.35791E+01 1.00000E+01
 -1      3218 1.02810E+01 1.25841E+01 1.00000E+01
 -1      3219 1.41050E+01 1.36897E+01 1.00000E+01
 -1      3220 1.55864E+01 1.36897E+01 1.00000E+01
 -1      3221 1.32748E+01 1.22688E+01 1.00000E+01
 -1      3222 1.70370E+01 1.37170E+01 1.00000E+01
 -1      3223 1.85185E+01 1.37170E+01 1.00000E+01
 -1      3224 1.63272E+01 1.24067E+01 1.00000E+01
 -1      3225 2.02181E+01 1.35868E+01 1.00000E+01
 -1      3226 2.16996E+01 1.35868E+01 1.00000E+01
 -1      3227 1.94774E+01 1.23038E+01 1.00000E+01
 -1      3228 2.29630E+01 1.39882E+01 1.00000E+01
 -1      3229 2.44444E+01 1.39882E+01 1.00000E+01
 -1      3230 2.24404E+01 1.25750E+01 1.00000E+01
 -1      3231 2.58910E+01 1.36460E+01 1.00000E+01
 -1      3232 2.73725E+01 1.36460E+01 1.00000E+01
 -1      3233 2.51503E+01 1.26342E+01 1.00000E+01
 -1      3234 2.89770E+01 1.36206E+01 1.00000E+01
 -1      3235 3.04585E+01 1.36206E+01 1.00000E+01
 -1      3236 2.82014E+01 1.22666E+01 1.00000E+01
 -1      3237 3.18244E+01 1.40026E+01 1.00000E+01
 -1      3238 3.33059E+01 1.40026E+01 1.00000E+01
 -1      3239 3.11718E+01 1.26232E+01 1.00000E+01
 -1      3240 3.46707E+01 1.36439E+01 1.00000E+01
 -1      3241 3.61521E+01 1.36439E+01 1.00000E+01
 -1      3242 3.39025E+01 1.26466E+01 1.00000E+01
 -1      3243 3.65523E+01 1.25576E+01 1.00000E+01
 -1      3244 3.60861E+01-1.36298E+01 1.00000E+01
 -1      3245 3.46046E+01-1.36298E+01 1.00000E+01
 -1      3246 3.64712E+01-1.25286E+01 1.00000E+01
 -1      3247 3.32912E+01-1.40373E+01 1.00000E+01
 -1      3248 3.18097E+01-1.40373E+01 1.00000E+01
 -1      3249 3.38217E+01-1.26671E+01 1.00000E+01
 -1      3250 3.05510E+01-1.38122E+01 1.00000E+01
 -1      3251 2.90695E+01-1.38122E+01 1.00000E+01
 -1      3252 3.12496E+01-1.28495E+01 1.00000E+01
 -1      3253 2.74756E+01-1.34759E+01 1.00000E+01
 -1      3254 2.59941E+01-1.34759E+01 1.00000E+01
 -1      3255 2.83969E+01-1.22881E+01 1.00000E+01
 -1      3256 2.44232E+01-1.37643E+01 1.00000E+01
 -1      3257 2.29417E+01-1.37643E+01 1.00000E+01
 -1      3258 2.52321E+01-1.22402E+01 1.00000E+01
 -1      3259 2.14597E+01-1.38470E+01 1.00000E+01
 -1      3260 1.99782E+01-1.38470E+01 1.00000E+01
 -1      3261 2.21792E+01-1.26113E+01 1.00000E+01
 -1      3262 1.84851E+01-1.38304E+01 1.00000E+01
 -1      3263 1.70036E+01-1.38304E+01 1.00000E+01
 -1      3264 1.92040E+01-1.26774E+01 1.00000E+01
 -1      3265 1.55552E+01-1.37274E+01 1.00000E+01
 -1      3266 1.40737E+01-1.37274E+01 1.00000E+01
 -1      3267 1.62624E+01-1.25578E+01 1.00000E+01
 -1      3268 1.24718E+01-1.34736E+01 1.00000E+01
 -1      3269 1.09904E+01-1.34736E+01 1.00000E+01
 -1      3270 1.32122E+01-1.22011E+01 1.00000E+01
 -1      3271 9.61853E+00-1.39351E+01 1.00000E+01
 -1      3272 8.13705E+00-1.39351E+01 1.00000E+01
 -1      3273 1.02385E+01-1.24087E+01 1.00000E+01
 -1      3274 6.74489E+00-1.35752E+01 1.00000E+01
 -1      3275 5.26341E+00-1.35752E+01 1.00000E+01
 -1      3276 7.47454E+00-1.25103E+01 1.00000E+01
 -1      3277 3.70370E+00-1.39227E+01 1.00000E+01
 -1      3278 2.22222E+00-1.39227E+01 1.00000E+01
 -1      3279 4.52267E+00-1.24979E+01 1.00000E+01
 -1      3280 7.18011E-01-1.37659E+01 1.00000E+01
 -1      3281-7.63470E-01-1.37659E+01 1.00000E+01
 -1      3282 1.45875E+00-1.26886E+01 1.00000E+01
 -1      3283-2.55177E+00-1.35554E+01 1.00000E+01
 -1      3284-4.03326E+00-1.35554E+01 1.00000E+01
 -1      3285-1.83376E+00-1.23212E+01 1.00000E+01
 -1      3286-5.28247E+00-1.39663E+01 1.00000E+01
 -1      3287-6.76395E+00-1.39663E+01 1.00000E+01
 -1      3288-4.87128E+00-1.25217E+01 1.00000E+01
 -1      3289-8.16787E+00-1.36580E+01 1.00000E+01
 -1      3290-9.64935E+00-1.36580E+01 1.00000E+01
 -1      3291-7.52441E+00-1.26243E+01 1.00000E+01
 -1      3292-1.10494E+01-1.39599E+01 1.00000E+01
 -1      3293-1.25309E+01-1.39599E+01 1.00000E+01
 -1      3294-1.03284E+01-1.26178E+01 1.00000E+01
 -1      3295-1.38707E+01-1.34928E+01 1.00000E+01
 -1      3296-1.53522E+01-1.34928E+01 1.00000E+01
 -1      3297-1.30683E+01-1.24526E+01 1.00000E+01
 -1      3298-1.70310E+01-1.37472E+01 1.00000E+01
 -1      3299-1.85125E+01-1.37472E+01 1.00000E+01
 -1      3300-1.60869E+01-1.22400E+01 1.00000E+01
 -1      3301-2.00041E+01-1.38788E+01 1.00000E+01
 -1      3302-2.14856E+01-1.38788E+01 1.00000E+01
 -1      3303-1.92573E+01-1.26260E+01 1.00000E+01
 -1      3304-2.29466E+01-1.38772E+01 1.00000E+01
 -1      3305-2.44281E+01-1.38772E+01 1.00000E+01
 -1      3306-2.22100E+01-1.27560E+01 1.00000E+01
 -1      3307-2.58604E+01-1.38099E+01 1.00000E+01
 -1      3308-2.73419E+01-1.38099E+01 1.00000E+01
 -1      3309-2.51033E+01-1.26871E+01 1.00000E+01
 -1      3310-2.88831E+01-1.34818E+01 1.00000E+01
 -1      3311-3.03646E+01-1.34818E+01 1.00000E+01
 -1      3312-2.80768E+01-1.22917E+01 1.00000E+01
 -1      3313-3.19641E+01-1.36619E+01 1.00000E+01
 -1      3314-3.34456E+01-1.36619E+01 1.00000E+01
 -1      3315-3.12176E+01-1.21437E+01 1.00000E+01
 -1      3316-3.48222E+01-1.37589E+01 1.00000E+01
 -1      3317-3.63036E+01-1.37589E+01 1.00000E+01
 -1      3318-3.41937E+01-1.24208E+01 1.00000E+01
 -1      3319-3.66854E+01-1.26544E+01 1.00000E+01
 -1      3320-3.87348E+01 9.69142E+00 1.00000E+01
 -1      3321-3.87348E+01 1.11914E+01 1.00000E+01
 -1      3322-3.76385E+01 1.15903E+01 1.00000E+01
 -1      3323-3.87067E+01 6.74107E+00 1.00000E+01
 -1      3324-3.87067E+01 8.24107E+00 1.00000E+01
 -1      3325-3.74415E+01 8.93249E+00 1.00000E+01
 -1      3326-3.87021E+01 3.75198E+00 1.00000E+01
 -1      3327-3.87021E+01 5.25198E+00 1.00000E+01
 -1      3328-3.74089E+01 5.99304E+00 1.00000E+01
 -1      3329-3.87020E+01 7.53044E-01 1.00000E+01
 -1      3330-3.87020E+01 2.25304E+00 1.00000E+01
 -1      3331-3.74041E+01 3.00502E+00 1.00000E+01
 -1      3332-3.87013E+01-2.24791E+00 1.00000E+01
 -1      3333-3.87013E+01-7.47910E-01 1.00000E+01
 -1      3334-3.74033E+01 5.13371E-03 1.00000E+01
 -1      3335-3.87024E+01-5.24964E+00 1.00000E+01
 -1      3336-3.87024E+01-3.74964E+00 1.00000E+01
 -1      3337-3.74037E+01-2.99755E+00 1.00000E+01
 -1      3338-3.87015E+01-8.24859E+00 1.00000E+01
 -1      3339-3.87015E+01-6.74859E+00 1.00000E+01
 -1      3340-3.74039E+01-5.99823E+00 1.00000E+01
 -1      3341-3.87461E+01-1.12648E+01 1.00000E+01
 -1      3342-3.87461E+01-9.76482E+00 1.00000E+01
 -1      3343-3.74476E+01-9.01341E+00 1.00000E+01
 -1      3344-3.76464E+01-1.16603E+01 1.00000E+01
 -1      3345 3.87361E+01-9.68997E+00 1.00000E+01
 -1      3346 3.87361E+01-1.11900E+01 1.00000E+01
 -1      3347 3.76398E+01-1.15888E+01 1.00000E+01
 -1      3348 3.87117E+01-6.76691E+00 1.00000E+01
 -1      3349 3.87117E+01-8.26691E+00 1.00000E+01
 -1      3350 3.74478E+01-8.95688E+00 1.00000E+01
 -1      3351 3.87187E+01-3.90961E+00 1.00000E+01
 -1      3352 3.87187E+01-5.40961E+00 1.00000E+01
 -1      3353 3.74304E+01-6.17652E+00 1.00000E+01
 -1      3354 3.86288E+01-1.01800E+00 1.00000E+01
 -1      3355 3.86288E+01-2.51800E+00 1.00000E+01
 -1      3356 3.73475E+01-3.42761E+00 1.00000E+01
 -1      3357 3.84687E+01 2.11072E+00 1.00000E+01
 -1      3358 3.84687E+01 6.10715E-01 1.00000E+01
 -1      3359 3.70975E+01-4.07286E-01 1.00000E+01
 -1      3360 3.86650E+01 5.22480E+00 1.00000E+01
 -1      3361 3.86650E+01 3.72480E+00 1.00000E+01
 -1      3362 3.71337E+01 2.83552E+00 1.00000E+01
 -1      3363 3.87095E+01 8.23666E+00 1.00000E+01
 -1      3364 3.87095E+01 6.73666E+00 1.00000E+01
 -1      3365 3.73745E+01 5.96146E+00 1.00000E+01
 -1      3366 3.87857E+01 1.12166E+01 1.00000E+01
 -1      3367 3.87857E+01 9.71659E+00 1.00000E+01
 -1      3368 3.74952E+01 8.95325E+00 1.00000E+01
 -1      3369 3.77044E+01 1.16302E+01 1.00000E+01
 -1      3370-2.49693E+00 1.11317E+01 1.00000E+01
 -1      3371-7.38711E-01 1.12877E+01 1.00000E+01
 -1      3372 2.13067E+00 1.09329E+01 1.00000E+01
 -1      3373 6.65888E-01 1.09569E+01 1.00000E+01
 -1      3374-7.28235E-02 9.81057E+00 1.00000E+01
 -1      3375-1.29294E+01 9.71678E+00 1.00000E+01
 -1      3376-1.30876E+01 1.12969E+01 1.00000E+01
 -1      3377-1.43699E+01 1.05537E+01 1.00000E+01
 -1      3378-1.55214E+01 1.11069E+01 1.00000E+01
 -1      3379-1.53631E+01 9.52688E+00 1.00000E+01
 -1      3380-1.17339E+01 1.17164E+01 1.00000E+01
 -1      3381-1.71462E+01 1.12571E+01 1.00000E+01
 -1      3382 1.43897E+01-1.12027E+01 1.00000E+01
 -1      3383 1.27878E+01-1.09489E+01 1.00000E+01
 -1      3384 1.69890E+01-1.17656E+01 1.00000E+01
 -1      3385 1.55406E+01-1.16626E+01 1.00000E+01
 -1      3386 1.51162E+01-1.04104E+01 1.00000E+01
 -1      3387 2.56053E+01-1.09487E+01 1.00000E+01
 -1      3388 2.40343E+01-1.12371E+01 1.00000E+01
 -1      3389 2.29533E+01-1.16915E+01 1.00000E+01
 -1      3390 2.14714E+01-1.17741E+01 1.00000E+01
 -1      3391 2.33265E+01-1.03999E+01 1.00000E+01
 -1      3392-2.57227E+01 9.72096E+00 1.00000E+01
 -1      3393-2.42748E+01 1.05552E+01 1.00000E+01
 -1      3394-2.55116E+01 1.13036E+01 1.00000E+01
 -1      3395-2.68299E+01 1.17154E+01 1.00000E+01
 -1      3396-2.32913E+01 9.54311E+00 1.00000E+01
 -1      3397-2.30802E+01 1.11257E+01 1.00000E+01
 -1      3398-2.14188E+01 1.12738E+01 1.00000E+01
 -1      3399 7.55467E+00-9.55232E+00 1.00000E+01
 -1      3400 6.16437E+00-1.05009E+01 1.00000E+01
 -1      3401 7.47268E+00-1.12019E+01 1.00000E+01
 -1      3402 8.86483E+00-1.15618E+01 1.00000E+01
 -1      3403 4.92812E+00-9.55958E+00 1.00000E+01
 -1      3404 4.84613E+00-1.12092E+01 1.00000E+01
 -1      3405 3.28642E+00-1.15566E+01 1.00000E+01
 -1      3406-8.93207E+00-1.06411E+01 1.00000E+01
 -1      3407-1.02691E+01-9.63168E+00 1.00000E+01
 -1      3408-1.02654E+01-1.13065E+01 1.00000E+01
 -1      3409-1.16655E+01-1.16084E+01 1.00000E+01
 -1      3410-7.66438E+00-1.14148E+01 1.00000E+01
 -1      3411-7.66813E+00-9.74002E+00 1.00000E+01
 -1      3412-6.26047E+00-1.17232E+01 1.00000E+01
 -1      3413 1.02108E+01 9.74207E+00 1.00000E+01
 -1      3414 1.15808E+01 1.05715E+01 1.00000E+01
 -1      3415 1.03031E+01 1.13287E+01 1.00000E+01
 -1      3416 8.91098E+00 1.17547E+01 1.00000E+01
 -1      3417 1.26925E+01 1.11327E+01 1.00000E+01
 -1      3418 1.42943E+01 1.12434E+01 1.00000E+01
 -1      3419 1.26002E+01 9.54611E+00 1.00000E+01
 -1      3420-1.55923E+01-1.10085E+01 1.00000E+01
 -1      3421-1.72712E+01-1.12629E+01 1.00000E+01
 -1      3422-1.81052E+01-1.05242E+01 1.00000E+01
 -1      3423-1.85997E+01-1.17557E+01 1.00000E+01
 -1      3424-2.00913E+01-1.18874E+01 1.00000E+01
 -1      3425 2.29012E+01 9.78150E+00 1.00000E+01
 -1      3426 2.26517E+01 1.13563E+01 1.00000E+01
 -1      3427 2.14266E+01 1.05988E+01 1.00000E+01
 -1      3428 2.02185E+01 1.11788E+01 1.00000E+01
 -1      3429 2.04680E+01 9.60399E+00 1.00000E+01
 -1      3430 2.39151E+01 1.17576E+01 1.00000E+01
 -1      3431 1.85189E+01 1.13090E+01 1.00000E+01
 -1      3432-3.61060E+01-2.24179E+00 1.00000E+01
 -1      3433-3.48088E+01-1.48597E+00 1.00000E+01
 -1      3434-3.61055E+01-7.40000E-01 1.00000E+01
 -1      3435-3.61061E+01 7.60954E-01 1.00000E+01
 -1      3436-3.61070E+01-3.74352E+00 1.00000E+01
 -1      3437 3.59499E+01-1.67766E+00 1.00000E+01
 -1      3438 3.57898E+01-4.89484E-02 1.00000E+01
 -1      3439 3.54965E+01 1.11326E+00 1.00000E+01
 -1      3440 3.43489E+01-1.57114E-01 1.00000E+01
 -1      3441 3.59033E+01 3.86330E+00 1.00000E+01
 -1      3442 3.57070E+01 2.24921E+00 1.00000E+01
 -1      3443 3.42662E+01 2.14104E+00 1.00000E+01
 -1      3444-2.68978E+01-1.12771E+01 1.00000E+01
 -1      3445-2.84390E+01-1.09490E+01 1.00000E+01
 -1      3446-2.42584E+01-1.17986E+01 1.00000E+01
 -1      3447-2.56907E+01-1.17313E+01 1.00000E+01
 -1      3448-2.60529E+01-1.03887E+01 1.00000E+01
 -1      3449 2.98139E+01 1.07556E+01 1.00000E+01
 -1      3450 3.11260E+01 9.88362E+00 1.00000E+01
 -1      3451 3.11180E+01 1.13692E+01 1.00000E+01
 -1      3452 3.24839E+01 1.17512E+01 1.00000E+01
 -1      3453 2.74347E+01 1.15041E+01 1.00000E+01
 -1      3454 2.90392E+01 1.14786E+01 1.00000E+01
 -1      3455 2.90472E+01 9.99308E+00 1.00000E+01
 -1      3456-3.61077E+01 5.25292E+00 1.00000E+01
 -1      3457-3.61123E+01 6.74201E+00 1.00000E+01
 -1      3458-3.61065E+01 3.75826E+00 1.00000E+01
 -1      3459-3.48100E+01 4.50723E+00 1.00000E+01
 -1      3460-3.61064E+01 2.25933E+00 1.00000E+01
 -1      3461 3.60698E+01-5.67202E+00 1.00000E+01
 -1      3462 3.60628E+01-7.02932E+00 1.00000E+01
 -1      3463 3.60133E+01-2.95029E+00 1.00000E+01
 -1      3464 3.61031E+01-4.34190E+00 1.00000E+01
 -1      3465 3.47355E+01-5.19471E+00 1.00000E+01
 -1      3466-6.69814E-01-1.13821E+01 1.00000E+01
 -1      3467-2.45812E+00-1.11716E+01 1.00000E+01
 -1      3468 7.42470E-01-1.17792E+01 1.00000E+01
 -1      3469 1.18116E-01-1.06296E+01 1.00000E+01
 -1      3470 2.24668E+00-1.19361E+01 1.00000E+01
 -1      3471-1.03376E+01 9.76613E+00 1.00000E+01
 -1      3472-8.99040E+00 1.06976E+01 1.00000E+01
 -1      3473-1.03000E+01 1.13914E+01 1.00000E+01
 -1      3474-7.69622E+00 9.78782E+00 1.00000E+01
 -1      3475-7.65863E+00 1.14131E+01 1.00000E+01
 -1      3476-6.21880E+00 1.17373E+01 1.00000E+01
 -1      3477-2.82964E+01 9.73918E+00 1.00000E+01
 -1      3478-2.82896E+01 1.13654E+01 1.00000E+01
 -1      3479-2.96264E+01 1.06352E+01 1.00000E+01
 -1      3480-3.09151E+01 1.13698E+01 1.00000E+01
 -1      3481-3.09220E+01 9.74358E+00 1.00000E+01
 -1      3482-3.23202E+01 1.17355E+01 1.00000E+01
 -1      3483 7.66840E+00 9.77485E+00 1.00000E+01
 -1      3484 7.54890E+00 1.13317E+01 1.00000E+01
 -1      3485 6.28423E+00 1.06073E+01 1.00000E+01
 -1      3486 5.14901E+00 1.11471E+01 1.00000E+01
 -1      3487 5.26851E+00 9.59033E+00 1.00000E+01
 -1      3488 3.53143E+00 1.12581E+01 1.00000E+01
 -1      3489 3.08632E+01-1.01638E+01 1.00000E+01
 -1      3490 2.97433E+01-1.12314E+01 1.00000E+01
 -1      3491 3.11107E+01-1.15567E+01 1.00000E+01
 -1      3492 3.23694E+01-1.17818E+01 1.00000E+01
 -1      3493 2.81494E+01-1.08951E+01 1.00000E+01
 -1      3494-3.61079E+01-6.74807E+00 1.00000E+01
 -1      3495-3.61088E+01-5.24911E+00 1.00000E+01
 -1      3496-3.59824E+01-8.48579E+00 1.00000E+01
 -1      3497-3.46872E+01-7.73668E+00 1.00000E+01
 -1      3498-3.60270E+01-1.00020E+01 1.00000E+01
 -1      3499 3.61112E+01 6.72998E+00 1.00000E+01
 -1      3500 3.60667E+01 5.21813E+00 1.00000E+01
 -1      3501 3.61619E+01 8.24199E+00 1.00000E+01
 -1      3502 3.48541E+01 7.49865E+00 1.00000E+01
 -1      3503 3.62381E+01 9.72192E+00 1.00000E+01
 -1      3504-3.50660E+01-1.09961E+01 1.00000E+01
 -1      3505-3.36894E+01-1.08991E+01 1.00000E+01
 -1      3506-3.22911E+01-1.11674E+01 1.00000E+01
 -1      3507-3.31634E+01-9.74265E+00 1.00000E+01
 -1      3508-3.06916E+01-1.09873E+01 1.00000E+01
 -1      3509-3.61179E+01 8.22744E+00 1.00000E+01
 -1      3510-3.61459E+01 9.67779E+00 1.00000E+01
 -1      3511-3.49779E+01 1.05991E+01 1.00000E+01
 -1      3512-3.63015E+01 1.13041E+01 1.00000E+01
 -1      3513 3.61127E+01-8.36397E+00 1.00000E+01
 -1      3514 3.61370E+01-9.78704E+00 1.00000E+01
 -1      3515 3.49685E+01-1.07268E+01 1.00000E+01
 -1      3516 3.63036E+01-1.13197E+01 1.00000E+01
 -1      3517 3.38487E+01 1.13925E+01 1.00000E+01
 -1      3518 3.36674E+01 9.75391E+00 1.00000E+01
 -1      3519 3.50860E+01 1.06493E+01 1.00000E+01
 -1      3520 3.64193E+01 1.13605E+01 1.00000E+01
 -1      3521-3.48167E+01 7.48731E+00 1.00000E+01
 -1      3522-3.35160E+01 3.76248E+00 1.00000E+01
 -1      3523-3.35172E+01 5.25713E+00 1.00000E+01
 -1      3524-3.22213E+01 6.00526E+00 1.00000E+01
 -1      3525-3.35152E+01 6.75001E+00 1.00000E+01
 -1      3526-3.35208E+01 8.23544E+00 1.00000E+01
 -1      3527-3.35127E+01 2.27038E+00 1.00000E+01
 -1      3528-3.22200E+01 3.02028E+00 1.00000E+01
 -1      3529-3.48085E+01 1.51420E+00 1.00000E+01
 -1      3530-3.35125E+01 7.72002E-01 1.00000E+01
 -1      3531-3.09273E+01 2.27647E+00 1.00000E+01
 -1      3532-3.09306E+01 3.76857E+00 1.00000E+01
 -1      3533-2.96386E+01 4.51466E+00 1.00000E+01
 -1      3534-3.09312E+01 5.25847E+00 1.00000E+01
 -1      3535-3.09292E+01 6.75135E+00 1.00000E+01
 -1      3536-3.09239E+01 7.86862E-01 1.00000E+01
 -1      3537-2.96345E+01 1.53515E+00 1.00000E+01
 -1      3538-3.22177E+01 2.75714E-02 1.00000E+01
 -1      3539-3.09248E+01-7.13751E-01 1.00000E+01
 -1      3540-3.35135E+01-7.28610E-01 1.00000E+01
 -1      3541-2.83437E+01 7.92418E-01 1.00000E+01
 -1      3542-2.83472E+01 2.28203E+00 1.00000E+01
 -1      3543-2.70590E+01 3.02779E+00 1.00000E+01
 -1      3544-2.83497E+01 3.77052E+00 1.00000E+01
 -1      3545-2.83503E+01 5.26042E+00 1.00000E+01
 -1      3546-2.83401E+01-6.94990E-01 1.00000E+01
 -1      3547-2.70528E+01 5.18880E-02 1.00000E+01
 -1      3548-2.96281E+01-1.44852E+00 1.00000E+01
 -1      3549-2.83371E+01-2.18905E+00 1.00000E+01
 -1      3550-3.09219E+01-2.20781E+00 1.00000E+01
 -1      3551-2.57637E+01-6.89428E-01 1.00000E+01
 -1      3552-2.57673E+01 7.97980E-01 1.00000E+01
 -1      3553-2.44807E+01 1.54389E+00 1.00000E+01
 -1      3554-2.57699E+01 2.28520E+00 1.00000E+01
 -1      3555-2.57724E+01 3.77370E+00 1.00000E+01
 -1      3556-2.57600E+01-2.17528E+00 1.00000E+01
 -1      3557-2.44745E+01-1.42919E+00 1.00000E+01
 -1      3558-2.70475E+01-2.91753E+00 1.00000E+01
 -1      3559-2.57584E+01-3.65729E+00 1.00000E+01
 -1      3560-2.83354E+01-3.67106E+00 1.00000E+01
 -1      3561-2.31866E+01-2.16950E+00 1.00000E+01
 -1      3562-2.31902E+01-6.83643E-01 1.00000E+01
 -1      3563-2.19048E+01 6.08323E-02 1.00000E+01
 -1      3564-2.31928E+01 8.01139E-01 1.00000E+01
 -1      3565-2.31953E+01 2.28836E+00 1.00000E+01
 -1      3566-2.31833E+01-3.65434E+00 1.00000E+01
 -1      3567-2.18990E+01-2.90879E+00 1.00000E+01
 -1      3568-2.44670E+01-4.39987E+00 1.00000E+01
 -1      3569-2.31794E+01-5.13916E+00 1.00000E+01
 -1      3570-2.57544E+01-5.14212E+00 1.00000E+01
 -1      3571-2.06181E+01-6.79149E-01 1.00000E+01
 -1      3572-2.06207E+01 8.05632E-01 1.00000E+01
 -1      3573-2.06153E+01-2.16343E+00 1.00000E+01
 -1      3574-1.93312E+01-1.41863E+00 1.00000E+01
 -1      3575-2.06121E+01-3.64827E+00 1.00000E+01
 -1      3576-1.93363E+01 1.54949E+00 1.00000E+01
 -1      3577-2.06231E+01 2.28947E+00 1.00000E+01
 -1      3578-2.06242E+01 3.77333E+00 1.00000E+01
 -1      3579-2.19085E+01 3.02947E+00 1.00000E+01
 -1      3580-2.31965E+01 3.77222E+00 1.00000E+01
 -1      3581-1.80501E+01 8.09836E-01 1.00000E+01
 -1      3582-1.80525E+01 2.29368E+00 1.00000E+01
 -1      3583-1.80475E+01-6.73624E-01 1.00000E+01
 -1      3584-1.67637E+01 7.05615E-02 1.00000E+01
 -1      3585-1.80447E+01-2.15790E+00 1.00000E+01
 -1      3586-1.67692E+01 3.03748E+00 1.00000E+01
 -1      3587-1.80553E+01 3.77713E+00 1.00000E+01
 -1      3588-1.80575E+01 5.26043E+00 1.00000E+01
 -1      3589-1.93409E+01 4.51663E+00 1.00000E+01
 -1      3590-2.06263E+01 5.25663E+00 1.00000E+01
 -1      3591-1.54780E+01-6.68840E-01 1.00000E+01
 -1      3592-1.54806E+01 8.14620E-01 1.00000E+01
 -1      3593-1.41971E+01 1.55733E+00 1.00000E+01
 -1      3594-1.54829E+01 2.29673E+00 1.00000E+01
 -1      3595-1.54857E+01 3.78018E+00 1.00000E+01
 -1      3596-1.54751E+01-2.15192E+00 1.00000E+01
 -1      3597-1.41920E+01-1.40786E+00 1.00000E+01
 -1      3598-1.67583E+01-2.89692E+00 1.00000E+01
 -1      3599-1.54723E+01-3.63594E+00 1.00000E+01
 -1      3600-1.80420E+01-3.64193E+00 1.00000E+01
 -1      3601-1.29065E+01-2.14697E+00 1.00000E+01
 -1      3602-1.29094E+01-6.63889E-01 1.00000E+01
 -1      3603-1.16265E+01 7.95899E-02 1.00000E+01
 -1      3604-1.29120E+01 8.18698E-01 1.00000E+01
 -1      3605-1.29143E+01 2.30081E+00 1.00000E+01
 -1      3606-1.28910E+01-3.63744E+00 1.00000E+01
 -1      3607-1.16084E+01-2.89347E+00 1.00000E+01
 -1      3608-1.54694E+01-5.11940E+00 1.00000E+01
 -1      3609-1.41861E+01-4.37440E+00 1.00000E+01
 -1      3610-1.28880E+01-5.12091E+00 1.00000E+01
 -1      3611-1.03414E+01-6.59457E-01 1.00000E+01
 -1      3612-1.03440E+01 8.23130E-01 1.00000E+01
 -1      3613-1.03386E+01-2.14186E+00 1.00000E+01
 -1      3614-9.05606E+00-1.39832E+00 1.00000E+01
 -1      3615-1.03231E+01-3.63234E+00 1.00000E+01
 -1      3616-9.05625E+00 1.57248E+00 1.00000E+01
 -1      3617-1.03414E+01 2.31153E+00 1.00000E+01
 -1      3618-1.16284E+01 3.04786E+00 1.00000E+01
 -1      3619-1.29135E+01 3.78650E+00 1.00000E+01
 -1      3620-1.03406E+01 3.79722E+00 1.00000E+01
 -1      3621-7.74628E+00-2.16025E+00 1.00000E+01
 -1      3622-7.74907E+00-6.77849E-01 1.00000E+01
 -1      3623-6.46669E+00 6.55916E-02 1.00000E+01
 -1      3624-7.77646E+00 8.27523E-01 1.00000E+01
 -1      3625-7.77387E+00 2.31593E+00 1.00000E+01
 -1      3626-7.71525E+00-3.68294E+00 1.00000E+01
 -1      3627-6.40827E+00-2.96247E+00 1.00000E+01
 -1      3628-1.02687E+01-5.16623E+00 1.00000E+01
 -1      3629-8.99892E+00-4.41461E+00 1.00000E+01
 -1      3630-7.66091E+00-5.21683E+00 1.00000E+01
 -1      3631-5.17300E+00-6.70512E-01 1.00000E+01
 -1      3632-5.20039E+00 8.34860E-01 1.00000E+01
 -1      3633-5.11132E+00-2.23431E+00 1.00000E+01
 -1      3634-3.84503E+00-1.46504E+00 1.00000E+01
 -1      3635-5.08029E+00-3.75700E+00 1.00000E+01
 -1      3636-3.90088E+00 1.59123E+00 1.00000E+01
 -1      3637-5.19457E+00 2.32733E+00 1.00000E+01
 -1      3638-7.75877E+00 3.81744E+00 1.00000E+01
 -1      3639-6.47898E+00 3.07247E+00 1.00000E+01
 -1      3640-5.17947E+00 3.82884E+00 1.00000E+01
 -1      3641-2.53571E+00-2.24895E+00 1.00000E+01
 -1      3642-2.59740E+00-6.85157E-01 1.00000E+01
 -1      3643-1.30618E+00 5.98641E-02 1.00000E+01
 -1      3644-2.61549E+00 8.43778E-01 1.00000E+01
 -1      3645-2.60966E+00 2.33625E+00 1.00000E+01
 -1      3646-2.53072E+00-3.79520E+00 1.00000E+01
 -1      3647-1.28309E+00-3.01532E+00 1.00000E+01
 -1      3648-2.50523E+00-5.32837E+00 1.00000E+01
 -1      3649-3.75786E+00-4.56201E+00 1.00000E+01
 -1      3650-5.05481E+00-5.29016E+00 1.00000E+01
 -1      3651-3.03208E-02-6.90645E-01 1.00000E+01
 -1      3652-4.84133E-02 8.38290E-01 1.00000E+01
 -1      3653-2.14559E-02-2.21895E+00 1.00000E+01
 -1      3654 1.23631E+00-1.44052E+00 1.00000E+01
 -1      3655-1.64592E-02-3.76519E+00 1.00000E+01
 -1      3656 1.23514E+00 1.58633E+00 1.00000E+01
 -1      3657-4.07144E-02 2.33683E+00 1.00000E+01
 -1      3658-2.60206E+00 3.83814E+00 1.00000E+01
 -1      3659-1.31666E+00 3.09069E+00 1.00000E+01
 -1      3660-3.31067E-02 3.83872E+00 1.00000E+01
 -1      3661 2.51289E+00-2.18346E+00 1.00000E+01
 -1      3662 2.50403E+00-6.55163E-01 1.00000E+01
 -1      3663 3.78542E+00 9.45286E-02 1.00000E+01
 -1      3664 2.50884E+00 8.37473E-01 1.00000E+01
 -1      3665 2.51653E+00 2.33602E+00 1.00000E+01
 -1      3666 2.50392E+00-3.70065E+00 1.00000E+01
 -1      3667 3.77164E+00-2.91529E+00 1.00000E+01
 -1      3668-3.13743E-02-5.30506E+00 1.00000E+01
 -1      3669 1.23026E+00-4.50869E+00 1.00000E+01
 -1      3670 2.48901E+00-5.24052E+00 1.00000E+01
 -1      3671 5.06370E+00-6.46542E-01 1.00000E+01
 -1      3672 5.06851E+00 8.46094E-01 1.00000E+01
 -1      3673 5.05740E+00-2.12909E+00 1.00000E+01
 -1      3674 6.34049E+00-1.37752E+00 1.00000E+01
 -1      3675 5.04843E+00-3.64628E+00 1.00000E+01
 -1      3676 6.35386E+00 1.59223E+00 1.00000E+01
 -1      3677 5.07557E+00 2.33330E+00 1.00000E+01
 -1      3678 2.53157E+00 3.83669E+00 1.00000E+01
 -1      3679 3.80527E+00 3.08783E+00 1.00000E+01
 -1      3680 5.09061E+00 3.83397E+00 1.00000E+01
 -1      3681 7.62194E+00-2.11402E+00 1.00000E+01
 -1      3682 7.62824E+00-6.31471E-01 1.00000E+01
 -1      3683 8.91514E+00 1.15082E-01 1.00000E+01
 -1      3684 7.63370E+00 8.51577E-01 1.00000E+01
 -1      3685 7.64076E+00 2.33879E+00 1.00000E+01
 -1      3686 7.61785E+00-3.59394E+00 1.00000E+01
 -1      3687 8.90560E+00-2.84789E+00 1.00000E+01
 -1      3688 7.60172E+00-5.07215E+00 1.00000E+01
 -1      3689 6.31806E+00-4.33828E+00 1.00000E+01
 -1      3690 5.03230E+00-5.12448E+00 1.00000E+01
 -1      3691 1.01942E+01-6.25224E-01 1.00000E+01
 -1      3692 1.01996E+01 8.57823E-01 1.00000E+01
 -1      3693 1.01949E+01-2.10576E+00 1.00000E+01
 -1      3694 1.14793E+01-1.36302E+00 1.00000E+01
 -1      3695 1.01908E+01-3.58569E+00 1.00000E+01
 -1      3696 1.14828E+01 1.60222E+00 1.00000E+01
 -1      3697 1.02038E+01 2.34252E+00 1.00000E+01
 -1      3698 7.64767E+00 3.82478E+00 1.00000E+01
 -1      3699 8.92751E+00 3.08413E+00 1.00000E+01
 -1      3700 1.02107E+01 3.82852E+00 1.00000E+01
 -1      3701 1.27621E+01-2.10065E+00 1.00000E+01
 -1      3702 1.27614E+01-6.20110E-01 1.00000E+01
 -1      3703 1.40423E+01 1.24181E-01 1.00000E+01
 -1      3704 1.27595E+01 8.61809E-01 1.00000E+01
 -1      3705 1.27636E+01 2.34651E+00 1.00000E+01
 -1      3706 1.27618E+01-3.57800E+00 1.00000E+01
 -1      3707 1.40439E+01-2.83509E+00 1.00000E+01
 -1      3708 1.14792E+01-4.32021E+00 1.00000E+01
 -1      3709 1.27609E+01-5.05464E+00 1.00000E+01
 -1      3710 1.01899E+01-5.06234E+00 1.00000E+01
 -1      3711 1.53264E+01-6.13264E-01 1.00000E+01
 -1      3712 1.53244E+01 8.68655E-01 1.00000E+01
 -1      3713 1.53290E+01-2.09649E+00 1.00000E+01
 -1      3714 1.66112E+01-1.35201E+00 1.00000E+01
 -1      3715 1.53287E+01-3.57383E+00 1.00000E+01
 -1      3716 1.66066E+01 1.61389E+00 1.00000E+01
 -1      3717 1.53225E+01 2.35133E+00 1.00000E+01
 -1      3718 1.53232E+01 3.83440E+00 1.00000E+01
 -1      3719 1.40410E+01 3.08916E+00 1.00000E+01
 -1      3720 1.27643E+01 3.82957E+00 1.00000E+01
 -1      3721 1.78967E+01-2.09110E+00 1.00000E+01
 -1      3722 1.78941E+01-6.07881E-01 1.00000E+01
 -1      3723 1.91763E+01 1.36857E-01 1.00000E+01
 -1      3724 1.78908E+01 8.75949E-01 1.00000E+01
 -1      3725 1.78888E+01 2.35862E+00 1.00000E+01
 -1      3726 1.78992E+01-3.57459E+00 1.00000E+01
 -1      3727 1.91822E+01-2.83046E+00 1.00000E+01
 -1      3728 1.66162E+01-4.31813E+00 1.00000E+01
 -1      3729 1.79016E+01-5.05749E+00 1.00000E+01
 -1      3730 1.53311E+01-5.05673E+00 1.00000E+01
 -1      3731 2.04638E+01-6.02737E-01 1.00000E+01
 -1      3732 2.04605E+01 8.81094E-01 1.00000E+01
 -1      3733 2.04659E+01-2.08681E+00 1.00000E+01
 -1      3734 2.17500E+01-1.34257E+00 1.00000E+01
 -1      3735 2.04684E+01-3.57029E+00 1.00000E+01
 -1      3736 2.17444E+01 1.62634E+00 1.00000E+01
 -1      3737 2.04570E+01 2.36594E+00 1.00000E+01
 -1      3738 2.04535E+01 3.85059E+00 1.00000E+01
 -1      3739 1.91696E+01 3.10535E+00 1.00000E+01
 -1      3740 1.78854E+01 3.84328E+00 1.00000E+01
 -1      3741 2.30329E+01 8.86663E-01 1.00000E+01
 -1      3742 2.30294E+01 2.37151E+00 1.00000E+01
 -1      3743 2.30356E+01-5.98858E-01 1.00000E+01
 -1      3744 2.43205E+01 1.46306E-01 1.00000E+01
 -1      3745 2.30377E+01-2.08293E+00 1.00000E+01
 -1      3746 2.42947E+01 3.10570E+00 1.00000E+01
 -1      3747 2.30062E+01 3.84538E+00 1.00000E+01
 -1      3748 2.17371E+01 4.59560E+00 1.00000E+01
 -1      3749 2.04497E+01 5.33501E+00 1.00000E+01
 -1      3750 2.30024E+01 5.32979E+00 1.00000E+01
 -1      3751 2.56098E+01-5.94318E-01 1.00000E+01
 -1      3752 2.56072E+01 8.91203E-01 1.00000E+01
 -1      3753 2.68464E+01 1.57242E+00 1.00000E+01
 -1      3754 2.55571E+01 2.31304E+00 1.00000E+01
 -1      3755 2.55340E+01 3.78692E+00 1.00000E+01
 -1      3756 2.56125E+01-2.08107E+00 1.00000E+01
 -1      3757 2.68992E+01-1.33617E+00 1.00000E+01
 -1      3758 2.43273E+01-2.82017E+00 1.00000E+01
 -1      3759 2.56167E+01-3.56203E+00 1.00000E+01
 -1      3760 2.30418E+01-3.56389E+00 1.00000E+01
 -1      3761 2.81896E+01-2.07726E+00 1.00000E+01
 -1      3762 2.81869E+01-5.90506E-01 1.00000E+01
 -1      3763 2.81617E+01 8.60488E-01 1.00000E+01
 -1      3764 2.81116E+01 2.28233E+00 1.00000E+01
 -1      3765 2.94521E+01 1.19404E-01 1.00000E+01
 -1      3766 2.81928E+01-3.56551E+00 1.00000E+01
 -1      3767 2.94805E+01-2.81985E+00 1.00000E+01
 -1      3768 2.69043E+01-4.30987E+00 1.00000E+01
 -1      3769 2.81953E+01-5.05246E+00 1.00000E+01
 -1      3770 2.56191E+01-5.04897E+00 1.00000E+01
 -1      3771 2.67865E+01 4.49335E+00 1.00000E+01
 -1      3772 2.55241E+01 5.28601E+00 1.00000E+01
 -1      3773 2.92685E+01 2.72487E+00 1.00000E+01
 -1      3774 2.79532E+01 3.43680E+00 1.00000E+01
 -1      3775 2.79434E+01 4.93589E+00 1.00000E+01
 -1      3776-3.22201E+01-2.98524E+00 1.00000E+01
 -1      3777-3.09233E+01-3.72001E+00 1.00000E+01
 -1      3778-3.09253E+01-5.20848E+00 1.00000E+01
 -1      3779-2.96271E+01-4.43105E+00 1.00000E+01
 -1      3780-2.83375E+01-5.15952E+00 1.00000E+01
 -1      3781 1.79037E+01-6.54057E+00 1.00000E+01
 -1      3782 1.91868E+01-5.79703E+00 1.00000E+01
 -1      3783 2.04723E+01-6.53690E+00 1.00000E+01
 -1      3784 2.04701E+01-5.05381E+00 1.00000E+01
 -1      3785 2.17539E+01-4.31016E+00 1.00000E+01
 -1      3786 2.04555E+01 6.79321E+00 1.00000E+01
 -1      3787 1.91720E+01 6.04820E+00 1.00000E+01
 -1      3788 1.78880E+01 6.78277E+00 1.00000E+01
 -1      3789 1.78821E+01 5.32457E+00 1.00000E+01
 -1      3790 1.66014E+01 4.57785E+00 1.00000E+01
 -1      3791-2.31759E+01-6.62373E+00 1.00000E+01
 -1      3792-2.18923E+01-5.87820E+00 1.00000E+01
 -1      3793-2.06055E+01-6.61723E+00 1.00000E+01
 -1      3794-2.06090E+01-5.13266E+00 1.00000E+01
 -1      3795-1.93253E+01-4.38730E+00 1.00000E+01
 -1      3796-2.70610E+01 6.00336E+00 1.00000E+01
 -1      3797-2.83498E+01 6.74750E+00 1.00000E+01
 -1      3798-2.57740E+01 5.25846E+00 1.00000E+01
 -1      3799-2.57735E+01 6.74554E+00 1.00000E+01
 -1      3800-2.44849E+01 4.51587E+00 1.00000E+01
 -1      3801 3.07630E+01-3.56120E+00 1.00000E+01
 -1      3802 3.07598E+01-2.07295E+00 1.00000E+01
 -1      3803 3.20485E+01-1.32380E+00 1.00000E+01
 -1      3804 3.07660E+01-5.82443E-01 1.00000E+01
 -1      3805 3.07408E+01 8.68551E-01 1.00000E+01
 -1      3806 2.81494E+01-6.43876E+00 1.00000E+01
 -1      3807 2.94379E+01-5.69441E+00 1.00000E+01
 -1      3808 3.07767E+01-4.94412E+00 1.00000E+01
 -1      3809 3.20560E+01-4.19722E+00 1.00000E+01
 -1      3810 3.07309E+01-6.33043E+00 1.00000E+01
 -1      3811-1.67576E+01 5.97469E+00 1.00000E+01
 -1      3812-1.80431E+01 6.71419E+00 1.00000E+01
 -1      3813-1.54862E+01 5.25942E+00 1.00000E+01
 -1      3814-1.54718E+01 6.71318E+00 1.00000E+01
 -1      3815-1.41999E+01 4.51867E+00 1.00000E+01
 -1      3816-1.80278E+01 8.42957E+00 1.00000E+01
 -1      3817-1.93277E+01 7.71531E+00 1.00000E+01
 -1      3818-2.06128E+01 8.45498E+00 1.00000E+01
 -1      3819-2.06280E+01 6.73961E+00 1.00000E+01
 -1      3820-2.19114E+01 5.99631E+00 1.00000E+01
 -1      3821 2.68768E+01-7.26230E+00 1.00000E+01
 -1      3822 2.81195E+01-7.90425E+00 1.00000E+01
 -1      3823 2.56281E+01-6.51214E+00 1.00000E+01
 -1      3824 2.55981E+01-7.97763E+00 1.00000E+01
 -1      3825 2.43404E+01-5.76430E+00 1.00000E+01
 -1      3826 2.17047E+01 7.55202E+00 1.00000E+01
 -1      3827 2.04270E+01 8.26521E+00 1.00000E+01
 -1      3828 2.30034E+01 6.82332E+00 1.00000E+01
 -1      3829 2.29748E+01 8.29533E+00 1.00000E+01
 -1      3830 2.42725E+01 6.07310E+00 1.00000E+01
 -1      3831 1.65759E+01-7.18615E+00 1.00000E+01
 -1      3832 1.78611E+01-7.92569E+00 1.00000E+01
 -1      3833 1.53199E+01-6.51428E+00 1.00000E+01
 -1      3834 1.52772E+01-7.89940E+00 1.00000E+01
 -1      3835 1.40324E+01-5.76998E+00 1.00000E+01
 -1      3836-2.45419E+01-7.25523E+00 1.00000E+01
 -1      3837-2.32548E+01-7.99427E+00 1.00000E+01
 -1      3838-2.57635E+01-6.60295E+00 1.00000E+01
 -1      3839-2.58423E+01-7.97349E+00 1.00000E+01
 -1      3840-2.70549E+01-5.86037E+00 1.00000E+01
 -1      3841 2.05306E+01-7.92020E+00 1.00000E+01
 -1      3842 2.18139E+01-7.17699E+00 1.00000E+01
 -1      3843 1.91910E+01-8.76280E+00 1.00000E+01
 -1      3844 2.05327E+01-9.40290E+00 1.00000E+01
 -1      3845 1.78632E+01-9.40838E+00 1.00000E+01
 -1      3846-2.06203E+01-8.00767E+00 1.00000E+01
 -1      3847-1.93370E+01-7.26212E+00 1.00000E+01
 -1      3848-2.33811E+01-9.45271E+00 1.00000E+01
 -1      3849-2.20152E+01-8.82121E+00 1.00000E+01
 -1      3850-2.07466E+01-9.46611E+00 1.00000E+01
 -1      3851-1.80245E+01-6.57073E+00 1.00000E+01
 -1      3852-1.67412E+01-5.82536E+00 1.00000E+01
 -1      3853-1.80389E+01-5.12632E+00 1.00000E+01
 -1      3854-1.80393E+01-7.96117E+00 1.00000E+01
 -1      3855 1.78376E+01 8.48771E+00 1.00000E+01
 -1      3856 1.65478E+01 7.76408E+00 1.00000E+01
 -1      3857 1.92189E+01 8.84517E+00 1.00000E+01
 -1      3858 1.78787E+01 9.82648E+00 1.00000E+01
 -1      3859 1.52609E+01 8.50698E+00 1.00000E+01
 -1      3860 1.53113E+01 6.80205E+00 1.00000E+01
 -1      3861 1.40330E+01 6.05859E+00 1.00000E+01
 -1      3862 1.53199E+01 5.31569E+00 1.00000E+01
 -1      3863 1.51047E+01 9.78816E+00 1.00000E+01
 -1      3864 1.38682E+01 8.82613E+00 1.00000E+01
 -1      3865 1.71376E+01 1.09515E+01 1.00000E+01
 -1      3866 1.56870E+01 1.09242E+01 1.00000E+01
 -1      3867 1.27572E+01 6.79948E+00 1.00000E+01
 -1      3868 1.27659E+01 5.31311E+00 1.00000E+01
 -1      3869 1.14893E+01 7.51946E+00 1.00000E+01
 -1      3870 1.27564E+01 8.26493E+00 1.00000E+01
 -1      3871 3.34193E+01-4.72236E+00 1.00000E+01
 -1      3872 3.34056E+01-3.33945E+00 1.00000E+01
 -1      3873 3.33422E+01-2.06682E+00 1.00000E+01
 -1      3874 3.33485E+01-5.76311E-01 1.00000E+01
 -1      3875 3.47056E+01-2.59196E+00 1.00000E+01
 -1      3876 3.06960E+01-7.60491E+00 1.00000E+01
 -1      3877 3.20348E+01-6.85461E+00 1.00000E+01
 -1      3878 3.33859E+01-6.05248E+00 1.00000E+01
 -1      3879 3.33511E+01-7.32696E+00 1.00000E+01
 -1      3880 3.30552E+01 5.85901E-01 1.00000E+01
 -1      3881 3.18237E+01 1.26297E+00 1.00000E+01
 -1      3882 3.05098E+01 1.96481E+00 1.00000E+01
 -1      3883 3.28241E+01 1.68216E+00 1.00000E+01
 -1      3884-2.96363E+01 7.50680E+00 1.00000E+01
 -1      3885-3.09263E+01 8.25360E+00 1.00000E+01
 -1      3886-3.22150E+01 8.98812E+00 1.00000E+01
 -1      3887-3.35165E+01 9.72542E+00 1.00000E+01
 -1      3888-1.42060E+01 7.48578E+00 1.00000E+01
 -1      3889-1.54774E+01 8.20105E+00 1.00000E+01
 -1      3890-1.66289E+01 8.75428E+00 1.00000E+01
 -1      3891-1.79135E+01 9.75540E+00 1.00000E+01
 -1      3892-1.29204E+01 6.74554E+00 1.00000E+01
 -1      3893-1.29261E+01 8.23341E+00 1.00000E+01
 -1      3894-1.29140E+01 5.26573E+00 1.00000E+01
 -1      3895-1.16340E+01 6.01336E+00 1.00000E+01
 -1      3896-2.07046E+01 9.77214E+00 1.00000E+01
 -1      3897-2.20049E+01 8.79644E+00 1.00000E+01
 -1      3898-2.00266E+01 1.09323E+01 1.00000E+01
 -1      3899-1.85451E+01 1.09323E+01 1.00000E+01
 -1      3900-2.44862E+01 7.48663E+00 1.00000E+01
 -1      3901-2.31998E+01 6.73996E+00 1.00000E+01
 -1      3902-2.31995E+01 8.22596E+00 1.00000E+01
 -1      3903-2.31981E+01 5.25698E+00 1.00000E+01
 -1      3904 2.31108E+01-7.89388E+00 1.00000E+01
 -1      3905 2.30525E+01-6.51058E+00 1.00000E+01
 -1      3906 2.30435E+01-5.04740E+00 1.00000E+01
 -1      3907-2.71620E+01-8.62785E+00 1.00000E+01
 -1      3908-2.59404E+01-9.28013E+00 1.00000E+01
 -1      3909-2.47333E+01-9.73429E+00 1.00000E+01
 -1      3910-2.34937E+01-1.05612E+01 1.00000E+01
 -1      3911-2.83465E+01-6.62036E+00 1.00000E+01
 -1      3912-2.96170E+01-7.35899E+00 1.00000E+01
 -1      3913-2.83344E+01-8.05984E+00 1.00000E+01
 -1      3914-2.84325E+01-9.36648E+00 1.00000E+01
 -1      3915-2.07876E+01-1.06484E+01 1.00000E+01
 -1      3916-1.93927E+01-9.83484E+00 1.00000E+01
 -1      3917-2.14452E+01-1.15186E+01 1.00000E+01
 -1      3918-2.29063E+01-1.15170E+01 1.00000E+01
 -1      3919 2.07194E+01-1.05499E+01 1.00000E+01
 -1      3920 2.20589E+01-9.70728E+00 1.00000E+01
 -1      3921 2.31398E+01-9.25296E+00 1.00000E+01
 -1      3922 2.43784E+01-8.58654E+00 1.00000E+01
 -1      3923 1.64002E+01-9.72081E+00 1.00000E+01
 -1      3924 1.77302E+01-1.05579E+01 1.00000E+01
 -1      3925 1.84520E+01-1.14531E+01 1.00000E+01
 -1      3926 1.99452E+01-1.14698E+01 1.00000E+01
 -1      3927 2.42000E+01 9.05280E+00 1.00000E+01
 -1      3928 2.55695E+01 8.31389E+00 1.00000E+01
 -1      3929 2.54960E+01 9.80006E+00 1.00000E+01
 -1      3930 2.55251E+01 6.77953E+00 1.00000E+01
 -1      3931 2.68211E+01 7.52679E+00 1.00000E+01
 -1      3932 2.67312E+01 1.06766E+01 1.00000E+01
 -1      3933 2.53617E+01 1.14155E+01 1.00000E+01
 -1      3934 2.97068E+01 7.72801E+00 1.00000E+01
 -1      3935 2.83437E+01 9.16561E+00 1.00000E+01
 -1      3936 2.82286E+01 7.62355E+00 1.00000E+01
 -1      3937 2.81842E+01 6.08920E+00 1.00000E+01
 -1      3938 2.75691E+01 9.88863E+00 1.00000E+01
 -1      3939-1.16438E+01 8.97654E+00 1.00000E+01
 -1      3940-1.03342E+01 8.28275E+00 1.00000E+01
 -1      3941-1.03415E+01 6.77045E+00 1.00000E+01
 -1      3942-9.03522E+00 7.56004E+00 1.00000E+01
 -1      3943-1.03350E+01 5.29065E+00 1.00000E+01
 -1      3944-7.73262E+00 8.31763E+00 1.00000E+01
 -1      3945-6.40085E+00 9.03312E+00 1.00000E+01
 -1      3946-7.73984E+00 6.80533E+00 1.00000E+01
 -1      3947-5.15802E+00 8.27982E+00 1.00000E+01
 -1      3948-5.12162E+00 9.75001E+00 1.00000E+01
 -1      3949-3.69761E+00 1.05594E+01 1.00000E+01
 -1      3950-4.94044E+00 1.13127E+01 1.00000E+01
 -1      3951-5.15481E+00 6.82002E+00 1.00000E+01
 -1      3952-3.87558E+00 7.53691E+00 1.00000E+01
 -1      3953-6.45057E+00 6.06846E+00 1.00000E+01
 -1      3954-5.16813E+00 5.32555E+00 1.00000E+01
 -1      3955-7.75316E+00 5.31086E+00 1.00000E+01
 -1      3956-2.60136E+00 6.79285E+00 1.00000E+01
 -1      3957-2.60456E+00 8.25265E+00 1.00000E+01
 -1      3958-1.40388E+00 8.82495E+00 1.00000E+01
 -1      3959-2.67810E+00 9.56901E+00 1.00000E+01
 -1      3960-2.59071E+00 5.33484E+00 1.00000E+01
 -1      3961-1.31970E+00 6.05058E+00 1.00000E+01
 -1      3962-3.88371E+00 4.58040E+00 1.00000E+01
 -1      3963-2.83344E-02 5.32849E+00 1.00000E+01
 -1      3964-3.89797E-02 6.78649E+00 1.00000E+01
 -1      3965 1.29208E+00 7.77211E+00 1.00000E+01
 -1      3966 7.15838E-04 8.49421E+00 1.00000E+01
 -1      3967-9.04805E+00 4.55431E+00 1.00000E+01
 -1      3968 1.24761E+00 4.57463E+00 1.00000E+01
 -1      3969 2.54452E+00 6.81738E+00 1.00000E+01
 -1      3970 2.58422E+00 8.52510E+00 1.00000E+01
 -1      3971 2.53635E+00 5.32645E+00 1.00000E+01
 -1      3972 3.82848E+00 6.07944E+00 1.00000E+01
 -1      3973 3.98497E+00 8.85027E+00 1.00000E+01
 -1      3974 2.73253E+00 9.80500E+00 1.00000E+01
 -1      3975 5.10537E+00 5.33102E+00 1.00000E+01
 -1      3976 5.11354E+00 6.82196E+00 1.00000E+01
 -1      3977 6.39708E+00 7.56202E+00 1.00000E+01
 -1      3978 5.12020E+00 8.31043E+00 1.00000E+01
 -1      3979 6.37567E+00 4.57649E+00 1.00000E+01
 -1      3980 7.67754E+00 6.81924E+00 1.00000E+01
 -1      3981 7.68419E+00 8.30771E+00 1.00000E+01
 -1      3982 7.66243E+00 5.32183E+00 1.00000E+01
 -1      3983 8.94953E+00 6.06753E+00 1.00000E+01
 -1      3984 8.94886E+00 9.03208E+00 1.00000E+01
 -1      3985 1.02266E+01 8.27493E+00 1.00000E+01
 -1      3986 1.02123E+01 5.31207E+00 1.00000E+01
 -1      3987 1.02274E+01 6.80948E+00 1.00000E+01
 -1      3988 1.14885E+01 4.57047E+00 1.00000E+01
 -1      3989-3.35139E+01-2.23040E+00 1.00000E+01
 -1      3990 3.47520E+01-7.85948E+00 1.00000E+01
 -1      3991 3.35162E+01-9.84160E+00 1.00000E+01
 -1      3992 3.36828E+01-1.13743E+01 1.00000E+01
 -1      3993 3.34009E+01-8.66161E+00 1.00000E+01
 -1      3994 3.21153E+01-9.30909E+00 1.00000E+01
 -1      3995 3.07479E+01-8.98378E+00 1.00000E+01
 -1      3996-2.83469E+01 8.24975E+00 1.00000E+01
 -1      3997-2.70100E+01 8.97987E+00 1.00000E+01
 -1      3998-2.57732E+01 8.23153E+00 1.00000E+01
 -1      3999-3.36720E+01 1.13517E+01 1.00000E+01
 -1      4000-3.48110E+01-4.49336E+00 1.00000E+01
 -1      4001-3.33928E+01-8.48431E+00 1.00000E+01
 -1      4002-3.35184E+01-6.74659E+00 1.00000E+01
 -1      4003-3.22227E+01-5.99583E+00 1.00000E+01
 -1      4004-3.35172E+01-5.24820E+00 1.00000E+01
 -1      4005-3.35154E+01-3.74261E+00 1.00000E+01
 -1      4006-3.19945E+01-8.75256E+00 1.00000E+01
 -1      4007-3.65312E+01-1.15237E+01 1.00000E+01
 -1      4008-3.09265E+01-6.70687E+00 1.00000E+01
 -1      4009-3.09144E+01-8.14634E+00 1.00000E+01
 -1      4010-3.06850E+01-9.40469E+00 1.00000E+01
 -1      4011 3.46400E+01 4.63182E+00 1.00000E+01
 -1      4012 3.35815E+01 8.25260E+00 1.00000E+01
 -1      4013 3.35308E+01 6.74060E+00 1.00000E+01
 -1      4014 3.21399E+01 6.13800E+00 1.00000E+01
 -1      4015 3.34124E+01 5.38405E+00 1.00000E+01
 -1      4016 3.32491E+01 4.02922E+00 1.00000E+01
 -1      4017 3.23442E+01 8.99586E+00 1.00000E+01
 -1      4018 3.09250E+01 6.84025E+00 1.00000E+01
 -1      4019 3.08066E+01 5.48371E+00 1.00000E+01
 -1      4020 3.10401E+01 8.38231E+00 1.00000E+01
 -1      4021 2.93509E+01 5.03265E+00 1.00000E+01
 -1      4022 3.05658E+01 4.33039E+00 1.00000E+01
 -1      4023 3.18070E+01 3.57034E+00 1.00000E+01
 -1      4024 3.30347E+01 2.81811E+00 1.00000E+01
 -1      4025 3.03514E+01 3.11928E+00 1.00000E+01
 -1      4026-1.54550E+01-6.56382E+00 1.00000E+01
 -1      4027-1.54352E+01-8.01630E+00 1.00000E+01
 -1      4028-1.41634E+01-7.31034E+00 1.00000E+01
 -1      4029-1.28536E+01-8.04276E+00 1.00000E+01
 -1      4030-1.28733E+01-6.59028E+00 1.00000E+01
 -1      4031-1.15782E+01-5.85332E+00 1.00000E+01
 -1      4032-1.80642E+01-9.34197E+00 1.00000E+01
 -1      4033-1.67517E+01-8.65057E+00 1.00000E+01
 -1      4034-1.54602E+01-9.39710E+00 1.00000E+01
 -1      4035-1.28731E+01-9.52993E+00 1.00000E+01
 -1      4036-1.15830E+01-8.80986E+00 1.00000E+01
 -1      4037-1.42758E+01-1.03742E+01 1.00000E+01
 -1      4038-1.30052E+01-1.11413E+01 1.00000E+01
 -1      4039-1.02496E+01-8.14451E+00 1.00000E+01
 -1      4040-8.94020E+00-7.45741E+00 1.00000E+01
 -1      4041-1.02540E+01-6.63560E+00 1.00000E+01
 -1      4042-6.35553E+00-9.01582E+00 1.00000E+01
 -1      4043-7.62321E+00-8.24213E+00 1.00000E+01
 -1      4044-7.62760E+00-6.73322E+00 1.00000E+01
 -1      4045-5.11153E+00-9.76599E+00 1.00000E+01
 -1      4046-5.06662E+00-8.26810E+00 1.00000E+01
 -1      4047-5.01125E+00-1.13122E+01 1.00000E+01
 -1      4048-3.72235E+00-1.05645E+01 1.00000E+01
 -1      4049-3.77750E+00-7.55672E+00 1.00000E+01
 -1      4050-5.02149E+00-6.80655E+00 1.00000E+01
 -1      4051-6.34393E+00-6.00155E+00 1.00000E+01
 -1      4052-2.55660E+00-8.28619E+00 1.00000E+01
 -1      4053-2.51147E+00-6.82464E+00 1.00000E+01
 -1      4054-2.55840E+00-9.62541E+00 1.00000E+01
 -1      4055-1.29237E+00-8.89332E+00 1.00000E+01
 -1      4056-1.28433E+00-6.05784E+00 1.00000E+01
 -1      4057-3.76114E-02-6.80133E+00 1.00000E+01
 -1      4058-2.75764E-02-8.15194E+00 1.00000E+01
 -1      4059 1.22538E+00-7.39917E+00 1.00000E+01
 -1      4060-2.93782E-02-9.49116E+00 1.00000E+01
 -1      4061 2.81713E+01-9.28313E+00 1.00000E+01
 -1      4062 2.94439E+01-8.45959E+00 1.00000E+01
 -1      4063 2.56272E+01-9.33670E+00 1.00000E+01
 -1      4064 2.68250E+01-1.03398E+01 1.00000E+01
 -1      4065 1.39932E+01-8.58900E+00 1.00000E+01
 -1      4066 1.52493E+01-9.26086E+00 1.00000E+01
 -1      4067 1.27497E+01-6.51219E+00 1.00000E+01
 -1      4068 1.14654E+01-7.25324E+00 1.00000E+01
 -1      4069 1.27369E+01-7.96857E+00 1.00000E+01
 -1      4070 1.27089E+01-9.33004E+00 1.00000E+01
 -1      4071 1.01916E+01-6.53941E+00 1.00000E+01
 -1      4072 1.01788E+01-7.99580E+00 1.00000E+01
 -1      4073 8.90324E+00-5.80489E+00 1.00000E+01
 -1      4074 8.88397E+00-8.76766E+00 1.00000E+01
 -1      4075 1.01578E+01-9.48148E+00 1.00000E+01
 -1      4076 1.02367E+01-1.11003E+01 1.00000E+01
 -1      4077 1.15315E+01-1.03284E+01 1.00000E+01
 -1      4078 7.57567E+00-8.06664E+00 1.00000E+01
 -1      4079 7.60344E+00-6.54923E+00 1.00000E+01
 -1      4080 6.27414E+00-7.33389E+00 1.00000E+01
 -1      4081 4.98993E+00-8.07466E+00 1.00000E+01
 -1      4082 3.67169E+00-8.78294E+00 1.00000E+01
 -1      4083 5.01771E+00-6.55725E+00 1.00000E+01
 -1      4084 2.48446E+00-8.02390E+00 1.00000E+01
 -1      4085 2.42265E+00-9.50882E+00 1.00000E+01
 -1      4086 1.38291E+00-9.88825E+00 1.00000E+01
 -1      4087 2.57014E+00-1.06473E+01 1.00000E+01
 -1      4088 3.74809E+00-5.86525E+00 1.00000E+01
 -1      4089 2.47442E+00-6.67329E+00 1.00000E+01
 -1      4090-2.96115E+01-1.03810E+01 1.00000E+01
 -1      4091 2.88122E+01 9.90927E+00 4.96224E+00
 -1      4092 3.50759E+01-1.00850E+01 5.03979E+00
 -1      4093-3.50769E+01 1.00858E+01 4.94861E+00
 -1      4094 3.50760E+01 1.00846E+01 5.07075E+00
 -1      4095 3.08759E+01 5.15630E+00 4.96077E+00
 -1      4096-2.02041E+01 1.54813E+00 5.01802E+00
 -1      4097-2.53375E+01-1.43130E+00 5.01545E+00
 -1      4098-2.53498E+01 4.51496E+00 5.01715E+00
 -1      4099-1.49555E+01 1.55620E+00 5.00764E+00
 -1      4100-3.28704E+01 3.04793E+00 4.97955E+00
 -1      4101-2.01922E+01-4.38916E+00 5.01823E+00
 -1      4102 1.48151E+01 1.00099E+01 4.93438E+00
 -1      4103 2.05610E+01-7.53140E-01 5.00036E+00
 -1      4104-1.47637E+01-4.37551E+00 4.98870E+00
 -1      4105 1.57788E+01-4.31981E+00 5.03964E+00
 -1      4106 1.57726E+01 1.61313E+00 5.09223E+00
 -1      4107 2.56671E+01 9.88147E-01 4.99825E+00
 -1      4108 3.32016E+01 2.39109E-01 4.93408E+00
 -1      4109 2.08894E+01 4.59345E+00 5.09374E+00
 -1      4110-2.08061E+01 1.00644E+01 5.01703E+00
 -1      4111-3.30742E+01-2.98446E+00 5.04645E+00
 -1      4112-2.79930E+01-5.96846E+00 5.00422E+00
 -1      4113-3.50760E+01-1.00959E+01 5.02879E+00
 -1      4114-2.59343E+01 9.91368E+00 4.99918E+00
 -1      4115 2.31737E+01-5.26100E+00 5.01113E+00
 -1      4116 2.83769E+01-5.36240E+00 5.02197E+00
 -1      4117-1.75855E+01 6.00169E+00 4.90370E+00
 -1      4118 2.37580E+01 8.88141E+00 5.03605E+00
 -1      4119 3.36074E+01-5.05382E+00 5.01683E+00
 -1      4120-1.74651E+01-8.82924E+00 4.97244E+00
 -1      4121 2.08150E+01-1.00165E+01 5.06681E+00
 -1      4122-2.46843E+01-9.89357E+00 4.95616E+00
 -1      4123 2.59563E+01-9.90497E+00 5.06888E+00
 -1      4124-3.05504E+01 7.64139E+00 5.12199E+00
 -1      4125-1.36985E+01 9.30979E+00 4.93258E+00
 -1      4126-3.02418E+01-1.02490E+01 5.40013E+00
 -1      4127 1.41210E+01-9.21228E+00 4.89282E+00
 -1      4128 3.55004E+01 4.33832E+00 4.48002E+00
 -1      4129 1.93962E+01 1.03855E+01 5.37478E+00
 -1      4130 1.36596E+01 5.60863E+00 4.38533E+00
 -1      4131-2.96332E+01-8.90393E-02 4.29765E+00
 -1      4132 3.05042E+01-1.04489E+01 4.34693E+00
 -1      4133 2.64407E+01 5.35651E+00 4.36340E+00
 -1      4134-1.28341E+01-8.60974E+00 5.52528E+00
 -1      4135 2.92420E+01-1.24213E+00 4.09377E+00
 -1      4136-1.29714E+01 5.22163E+00 5.99011E+00
 -1      4137-3.58260E+01 5.98977E+00 5.86002E+00
 -1      4138 1.18357E+01-5.72619E+00 5.76556E+00
 -1      4139 1.25890E+01-1.36331E+00 5.83912E+00
 -1      4140-2.08239E+01-1.10671E+01 6.05123E+00
 -1      4141-3.58398E+01 1.38194E-01 5.87550E+00
 -1      4142-2.39429E+01-5.92020E+00 5.88606E+00
 -1      4143-2.16413E+01 6.11150E+00 4.07008E+00
 -1      4144 1.92878E+01-6.28199E+00 5.98515E+00
 -1      4145-3.24731E+01-6.98908E+00 4.10568E+00
 -1      4146 1.13808E+01 2.56497E+00 5.94521E+00
 -1      4147-1.75706E+01-1.41534E+00 5.99351E+00
 -1      4148-1.70762E+01 1.11661E+01 6.13573E+00
 -1      4149 1.75905E+01 6.88745E+00 4.03920E+00
 -1      4150 3.62056E+01-2.21095E+00 3.79265E+00
 -1      4151-2.91623E+01 4.02301E+00 6.14702E+00
 -1      4152-3.62327E+01-5.20659E+00 6.20666E+00
 -1      4153-2.96538E+01 1.13999E+01 4.22278E+00
 -1      4154 1.72336E+01-1.12739E+01 6.17880E+00
 -1      4155-1.11503E+01 8.15685E-02 6.09238E+00
 -1      4156 2.58230E+01-2.69457E+00 6.25997E+00
 -1      4157-2.13341E+01-7.92841E+00 3.73099E+00
 -1      4158 1.13383E+01 1.14886E+01 5.82771E+00
 -1      4159-1.48737E+01-1.15093E+01 4.03514E+00
 -1      4160 2.91709E+01 1.95759E+00 6.19821E+00
 -1      4161-2.36290E+01 1.54537E+00 6.62414E+00
 -1      4162 1.10572E+01-1.13369E+01 6.16874E+00
 -1      4163-2.19102E+01-1.42399E+00 3.44851E+00
 -1      4164-1.07112E+01 1.13100E+01 6.37048E+00
 -1      4165-1.03067E+01-1.12672E+01 6.58353E+00
 -1      4166-3.65146E+01 3.05966E+00 3.62952E+00
 -1      4167 3.19635E+01 8.45310E+00 6.38442E+00
 -1      4168 1.75709E+01-8.59014E+00 3.57332E+00
 -1      4169 1.73191E+01-1.35075E+00 6.68020E+00
 -1      4170 2.58143E+01 1.16146E+01 3.68129E+00
 -1      4171 3.19210E+01 1.15717E+01 3.77969E+00
 -1      4172 2.21329E+01 1.16765E+01 3.32762E+00
 -1      4173-3.65841E+01-2.64980E+00 3.52487E+00
 -1      4174 1.76005E+01 4.35558E+00 6.69735E+00
 -1      4175 2.37311E+01-1.70164E+00 3.40154E+00
 -1      4176 3.66270E+01 1.14969E+00 5.95228E+00
 -1      4177 1.08854E+01 7.52040E+00 6.42288E+00
 -1      4178 3.11244E+01-7.43455E+00 6.44661E+00
 -1      4179 2.25478E+01 1.77876E+00 6.70486E+00
 -1      4180 3.67105E+01-5.98531E+00 3.28470E+00
 -1      4181-2.38526E+01 7.41401E+00 6.68190E+00
 -1      4182-1.10339E+01-5.11500E+00 6.15558E+00
 -1      4183-2.65373E+01 1.53984E+00 3.28141E+00
 -1      4184-2.84038E+01-2.68480E+00 6.56272E+00
 -1      4185 1.89359E+01 2.05862E+00 3.43476E+00
 -1      4186 3.08795E+01-3.27686E+00 6.60223E+00
 -1      4187 3.35914E+01 7.23103E+00 3.36617E+00
 -1      4188-1.33494E+01-1.35744E+00 3.60228E+00
 -1      4189 2.02181E+01-3.96889E+00 3.33895E+00
 -1      4190-1.75736E+01 3.03616E+00 6.87595E+00
 -1      4191-2.74681E+01-1.17457E+01 3.76398E+00
 -1      4192-9.91284E+00 3.42042E+00 6.55674E+00
 -1      4193 3.61113E+01-7.04507E+00 6.67814E+00
 -1      4194-3.22107E+01 2.75668E-02 6.76228E+00
 -1      4195-1.74595E+01-5.78496E+00 6.80937E+00
 -1      4196 3.59279E+01 7.05333E+00 6.77333E+00
 -1      4197 9.49938E+00-2.85335E+00 6.83759E+00
 -1      4198 2.30609E+01 2.55295E+00 3.19521E+00
 -1      4199-2.99828E+01-3.51455E+00 3.32642E+00
 -1      4200-2.74197E+01 7.01610E+00 3.40329E+00
 -1      4201 3.69372E+01-1.19446E+01 3.04606E+00
 -1      4202 1.50317E+01-1.33805E+00 3.26552E+00
 -1      4203 2.38146E+01 5.75904E+00 6.69763E+00
 -1      4204 2.33476E+01-8.29140E+00 6.79763E+00
 -1      4205-1.74811E+01-5.76052E+00 3.20333E+00
 -1      4206-3.33004E+01 6.20203E+00 3.31392E+00
 -1      4207 2.81548E+01 1.21696E+01 7.14249E+00
 -1      4208-3.09621E+01-5.23205E+00 6.77797E+00
 -1      4209-1.48196E+01 4.50160E+00 3.07577E+00
 -1      4210-2.28276E+01 2.93995E+00 3.15835E+00
 -1      4211-1.78440E+01 9.15247E+00 3.34717E+00
 -1      4212 3.69541E+01 1.19287E+01 3.07242E+00
 -1      4213-3.34811E+01 2.93403E-02 3.24632E+00
 -1      4214-3.65274E+01 1.19342E+01 6.99301E+00
 -1      4215-2.26988E+01-2.79611E+00 6.87374E+00
 -1      4216-2.54837E+01-4.38718E+00 3.13581E+00
 -1      4217-3.69798E+01 1.19552E+01 3.03928E+00
 -1      4218-3.69665E+01-1.19408E+01 3.06505E+00
 -1      4219 3.69517E+01 1.19931E+01 6.95917E+00
 -1      4220 3.08647E+01 2.16965E+00 3.15330E+00
 -1      4221 2.57472E+01-6.89548E+00 3.23214E+00
 -1      4222-2.72777E+01 9.44649E-01 6.60370E+00
 -1      4223 2.83156E+01-1.19294E+01 6.57158E+00
 -1      4224 3.69672E+01-1.19769E+01 6.93752E+00
 -1      4225-3.65711E+01 7.73560E+00 3.12580E+00
 -1      4226-1.20825E+01 1.18470E+01 2.97913E+00
 -1      4227-1.24310E+01-6.12527E+00 3.13697E+00
 -1      4228 1.55477E+01 7.18629E+00 6.86508E+00
 -1      4229 1.24226E+01-1.16924E+01 2.84456E+00
 -1      4230-2.34103E+01 1.16100E+01 3.29364E+00
 -1      4231 3.28096E+01-8.02429E+00 3.38627E+00
 -1      4232-3.69149E+01-1.20091E+01 6.93253E+00
 -1      4233-1.42692E+01-1.40795E+00 6.91012E+00
 -1      4234 2.34214E+01-1.17101E+01 6.51286E+00
 -1      4235-3.59106E+01-7.14242E+00 3.25375E+00
 -1      4236-1.83386E+01-1.19361E+01 3.90244E+00
 -1      4237 3.31290E+01 3.20375E+00 6.77920E+00
 -1      4238-1.03691E+01 7.69279E+00 6.63373E+00
 -1      4239 3.14649E+01 1.19110E+01 7.05292E+00
 -1      4240-3.22921E+01 1.15589E+01 6.60813E+00
 -1      4241-1.73207E+01 1.73608E-01 2.98478E+00
 -1      4242 2.26272E+01 1.17049E+01 6.81896E+00
 -1      4243-2.06897E+01 4.37865E+00 6.83502E+00
 -1      4244 2.08369E+01 7.58802E+00 6.91196E+00
 -1      4245 2.09254E+01 7.65255E+00 3.43037E+00
 -1      4246 3.09225E+01-4.06489E+00 3.14380E+00
 -1      4247 2.89568E+01 7.14800E+00 3.07307E+00
 -1      4248 1.56407E+01-7.06662E+00 7.02199E+00
 -1      4249-2.24740E+01-1.18166E+01 3.08517E+00
 -1      4250-2.74144E+01-8.86098E+00 6.74915E+00
 -1      4251-3.04451E+01 4.39571E+00 3.03020E+00
 -1      4252-3.39901E+01-7.61221E+00 7.09029E+00
 -1      4253-2.78160E+01 1.18556E+01 7.01460E+00
 -1      4254-2.05354E+01-7.15692E+00 6.91924E+00
 -1      4255 1.24324E+01-3.21993E+00 3.21764E+00
 -1      4256-2.72259E+01 6.70065E+00 6.74084E+00
 -1      4257-2.33963E+01 1.06893E+01 6.99597E+00
 -1      4258 3.67191E+01-3.67565E+00 6.84929E+00
 -1      4259-3.26590E+01 5.76598E+00 6.92499E+00
 -1      4260 2.09719E+01-3.52222E+00 6.82753E+00
 -1      4261-3.69998E+01 3.06971E+00 7.00207E+00
 -1      4262 1.30498E+01 1.20356E+01 3.10942E+00
 -1      4263 1.25724E+01 9.22629E-01 3.26889E+00
 -1      4264 2.85156E+01 6.95524E+00 6.28935E+00
 -1      4265 2.10564E+01-7.19325E+00 3.31353E+00
 -1      4266 2.34102E+01-1.11300E+01 3.13992E+00
 -1      4267-1.56710E+01 1.17948E+01 3.17024E+00
 -1      4268 3.15539E+01-1.19204E+01 7.08301E+00
 -1      4269 2.59492E+01-5.93486E+00 7.18750E+00
 -1      4270-1.67326E+01-1.15565E+01 6.89188E+00
 -1      4271 1.71555E+01 1.17823E+01 3.24846E+00
 -1      4272-1.82334E+01 3.33696E+00 3.07841E+00
 -1      4273 2.77936E+01-1.19969E+01 3.33068E+00
 -1      4274 3.56845E+01 1.50016E+00 2.81232E+00
 -1      4275 2.67129E+01-3.17777E+00 3.07125E+00
 -1      4276 3.68716E+01 7.67720E+00 3.64880E+00
 -1      4277 1.61036E+01-1.15810E+01 3.00742E+00
 -1      4278 1.93433E+01-1.20940E+01 2.98614E+00
 -1      4279-2.51939E+01-1.21875E+01 7.12199E+00
 -1      4280-1.17783E+01-1.19060E+01 3.87497E+00
 -1      4281 8.37221E+00 1.20487E+01 7.03868E+00
 -1      4282 3.31715E+01-1.17994E+01 2.97791E+00
 -1      4283-2.42637E+01 7.81633E+00 3.12977E+00
 -1      4284-2.84646E+01-8.64671E+00 3.09354E+00
 -1      4285-1.96666E+01 7.59786E+00 7.03465E+00
 -1      4286-3.26322E+01-1.21005E+01 4.07677E+00
 -1      4287 2.76454E+01 2.64749E+00 3.01181E+00
 -1      4288-1.53491E+01 7.30024E+00 6.99548E+00
 -1      4289-3.27934E+01 1.18436E+01 3.37641E+00
 -1      4290 1.00541E+01-8.26413E+00 7.03572E+00
 -1      4291 1.89679E+01 1.42735E+00 6.78005E+00
 -1      4292 1.68237E+01 1.20402E+01 6.47734E+00
 -1      4293 2.88747E+01-7.91797E+00 2.99335E+00
 -1      4294-1.88717E+01 1.21660E+01 3.58938E+00
 -1      4295 1.19341E+01 8.61734E+00 2.70282E+00
 -1      4296 1.62159E+01 4.12452E+00 3.12709E+00
 -1      4297 8.12314E+00 6.08131E+00 7.28773E+00
 -1      4298 1.41886E+01 3.71980E+00 6.91765E+00
 -1      4299 1.36923E+01-6.69625E+00 2.59597E+00
 -1      4300-7.34216E+00 5.08523E-02 7.29955E+00
 -1      4301 2.60836E+01 8.53328E+00 2.87241E+00
 -1      4302 2.60580E+01 3.49890E+00 6.93436E+00
 -1      4303 2.81474E+01-8.66252E+00 6.81845E+00
 -1      4304 1.82093E+01-1.49983E+00 2.95132E+00
 -1      4305 8.22801E+00-1.21875E+01 7.07947E+00
 -1      4306-1.33562E+01-1.22555E+01 6.78125E+00
 -1      4307-7.32992E+00 6.07493E+00 7.34433E+00
 -1      4308-1.38026E+01 1.21883E+01 6.36706E+00
 -1      4309 2.34070E+01 5.68673E+00 3.51524E+00
 -1      4310-1.84909E+01-2.77158E+00 2.88531E+00
 -1      4311-1.49171E+01-8.19744E+00 3.07170E+00
 -1      4312-2.43768E+01-7.35122E+00 3.09679E+00
 -1      4313-3.70791E+01 8.76713E+00 7.07983E+00
 -1      4314 2.83107E+01-9.43505E-01 7.09454E+00
 -1      4315-1.25164E+01 6.82210E+00 3.16453E+00
 -1      4316-1.00153E+01-8.06415E+00 7.08747E+00
 -1      4317-3.70566E+01-8.22815E+00 6.63516E+00
 -1      4318 8.04202E+00-5.80717E+00 7.32770E+00
 -1      4319 1.41425E+01-1.16754E+01 6.96172E+00
 -1      4320 2.31488E+01-1.27814E+00 7.09169E+00
 -1      4321 7.91233E+00-1.78698E-01 7.29755E+00
 -1      4322 8.48086E+00 2.93436E+00 7.19830E+00
 -1      4323 3.38821E+01-2.34545E+00 6.59072E+00
 -1      4324-2.03795E+01-7.22551E-01 7.15944E+00
 -1      4325-1.34317E+01 2.48786E+00 7.70748E+00
 -1      4326-1.20181E+01 2.69538E+00 4.12065E+00
 -1      4327-3.28146E+01-1.04841E+01 7.11801E+00
 -1      4328-2.82842E+01-1.22828E+01 6.72543E+00
 -1      4329-1.35269E+00 1.15710E+01 7.50851E+00
 -1      4330-7.33752E+00-1.18522E+01 7.37201E+00
 -1      4331-2.69243E+01 1.19759E+01 2.96839E+00
 -1      4332 3.32592E+01-2.05404E+00 2.85346E+00
 -1      4333 1.76018E+01-5.56686E+00 2.85996E+00
 -1      4334-2.73712E+01-1.98492E+00 2.77527E+00
 -1      4335-2.55991E+01-3.72726E+00 7.25858E+00
 -1      4336-2.24211E+01-4.92822E+00 2.90606E+00
 -1      4337-1.53999E+01-8.10322E+00 7.20866E+00
 -1      4338 2.55056E+01 1.04456E+01 7.15501E+00
 -1      4339 1.50283E+01 7.73387E+00 2.86693E+00
 -1      4340-3.70840E+01-2.39253E+00 7.08347E+00
 -1      4341-2.32309E+01-8.54442E+00 7.28211E+00
 -1      4342 3.73977E+01-8.95325E+00 3.41909E+00
 -1      4343-3.72343E+01 2.28279E-01 2.75835E+00
 -1      4344 1.99900E+01-1.20931E+01 7.11677E+00
 -1      4345-6.91401E+00 3.06467E+00 7.40810E+00
 -1      4346-2.36295E+01 4.51686E+00 7.51261E+00
 -1      4347 1.46742E+01-2.83580E+00 7.43687E+00
 -1      4348-1.33620E+00-1.15257E+01 7.47676E+00
 -1      4349 1.74844E+01-4.31686E+00 7.51958E+00
 -1      4350-3.34514E+01 8.74938E+00 7.22719E+00
 -1      4351 7.62409E+00 9.09135E+00 7.20475E+00
 -1      4352 2.87047E+01 1.21310E+01 2.88362E+00
 -1      4353 1.82598E+01-8.72464E+00 7.48931E+00
 -1      4354-3.43576E+01-4.57785E+00 2.81059E+00
 -1      4355 3.12549E+01-3.45022E-01 7.14858E+00
 -1      4356 3.29356E+01 4.33343E+00 2.91467E+00
 -1      4357 1.45956E+01 1.59936E-01 7.43636E+00
 -1      4358-1.21060E+01-9.16175E+00 2.65159E+00
 -1      4359-6.91304E+00-2.97200E+00 7.43490E+00
 -1      4360-7.92835E+00-4.46189E+00 8.71210E+00
 -1      4361-6.60452E+00-5.24674E+00 8.71311E+00
 -1      4362-6.64144E+00-3.72907E+00 8.71362E+00
 -1      4363-1.00450E+01-3.99895E+00 8.08039E+00
 -1      4364-1.10943E+01-2.51634E+00 6.12690E+00
 -1      4365-1.01031E+01-1.39954E+00 8.05034E+00
 -1      4366-7.98574E+00-2.92731E+00 8.71346E+00
 -1      4367-9.03455E+00-1.44689E+00 6.76714E+00
 -1      4368-8.97507E+00-4.04272E+00 6.79430E+00
 -1      4369 1.25273E+01 1.07976E+01 7.91280E+00
 -1      4370 1.30779E+01 1.07491E+01 5.37957E+00
 -1      4371 1.42695E+01 1.00588E+01 7.47029E+00
 -1      4372 1.22983E+01 8.81404E+00 8.20967E+00
 -1      4373 1.28515E+01 8.76547E+00 5.67754E+00
 -1      4374 1.11165E+01 9.50597E+00 6.12965E+00
 -1      4375-5.68633E+00-5.24628E+00 7.52638E+00
 -1      4376-5.65184E+00-6.76038E+00 7.51702E+00
 -1      4377-5.95362E+00-4.48975E+00 6.25158E+00
 -1      4378 1.46328E+01 8.64711E+00 8.43419E+00
 -1      4379 1.51820E+01 8.59800E+00 5.90004E+00
 -1      4380 1.32164E+01 7.35349E+00 6.64189E+00
 -1      4381-2.07755E+01 1.12490E+01 7.50930E+00
 -1      4382-2.07899E+01 1.25319E+01 6.24858E+00
 -1      4383-2.07571E+01 1.37168E+01 8.74026E+00
 -1      4384-1.89083E+01 1.17999E+01 8.06831E+00
 -1      4385-1.89243E+01 1.30827E+01 6.80780E+00
 -1      4386-1.89410E+01 1.06152E+01 5.57620E+00
 -1      4387-1.63309E+01 6.82761E+00 3.21042E+00
 -1      4388-1.57698E+01 9.23114E+00 4.13787E+00
 -1      4389-1.42600E+01 6.90557E+00 4.00404E+00
 -1      4390-1.36669E+01 5.66097E+00 3.11970E+00
 -1      4391-1.31088E+01 8.06616E+00 4.04874E+00
 -1      4392-1.51761E+01 7.98675E+00 3.25290E+00
 -1      4393-1.62028E+01 5.25167E+00 3.98910E+00
 -1      4394-1.56406E+01 7.65521E+00 4.91674E+00
 -1      4395-1.77152E+01 7.57719E+00 4.12537E+00
 -1      4396-4.40829E+00-9.01017E+00 7.50138E+00
 -1      4397-4.40871E+00-1.05090E+01 7.50443E+00
 -1      4398-3.16782E+00-1.02631E+01 6.23897E+00
 -1      4399-3.16786E+00-1.17627E+01 6.23838E+00
 -1      4400-2.57843E+00-1.02719E+01 8.73866E+00
 -1      4401-2.00722E+01 1.25320E+01 5.00246E+00
 -1      4402-1.82078E+01 1.30827E+01 5.56187E+00
 -1      4403 5.67580E+00 3.04230E+00 7.51404E+00
 -1      4404 4.40675E+00 3.79436E+00 7.50513E+00
 -1      4405 4.40582E+00 5.29471E+00 7.50338E+00
 -1      4406 5.67556E+00 4.54030E+00 7.52400E+00
 -1      4407 2.93174E+01 9.58972E+00 7.48130E+00
 -1      4408 2.85429E+01 1.03127E+01 7.48134E+00
 -1      4409 2.89885E+01 1.07198E+01 8.57130E+00
 -1      4410 2.82139E+01 1.14429E+01 8.57132E+00
 -1      4411 2.84837E+01 1.10394E+01 6.05240E+00
 -1      4412 5.68915E+00 6.03788E+00 7.51728E+00
 -1      4413 7.23892E+00 4.57928E+00 8.65190E+00
 -1      4414 7.25437E+00 6.07743E+00 8.65016E+00
 -1      4415 6.56310E+00 6.04426E+00 6.20378E+00
 -1      4416-9.48349E+00-7.00825E+00 8.54378E+00
 -1      4417-1.05277E+01-6.58860E+00 6.62290E+00
 -1      4418-9.98974E+00-5.53277E+00 8.08045E+00
 -1      4419-8.46789E+00-5.52118E+00 7.25648E+00
 -1      4420 3.26965E+01 8.63204E+00 1.68303E+00
 -1      4421 3.27562E+01 9.40139E+00 3.57293E+00
 -1      4422 3.18613E+01 1.08024E+01 1.88976E+00
 -1      4423 3.03789E+01 8.59054E+00 1.53648E+00
 -1      4424 3.04390E+01 9.35989E+00 3.42638E+00
 -1      4425 3.12740E+01 7.18953E+00 3.21963E+00
 -1      4426 6.56809E+00 4.53821E+00 6.22437E+00
 -1      4427 3.13704E+00 4.54899E+00 7.50058E+00
 -1      4428 3.12160E+00 3.04850E+00 7.50099E+00
 -1      4429 4.38993E+00 2.29409E+00 7.50048E+00
 -1      4430-4.43651E+00 1.04994E+01 7.50425E+00
 -1      4431-3.14897E+00 9.82842E+00 7.50061E+00
 -1      4432-3.17592E+00 1.17857E+01 6.25424E+00
 -1      4433-1.88737E+00 1.11151E+01 6.25428E+00
 -1      4434-2.61495E+00 1.02839E+01 8.75438E+00
 -1      4435 1.84917E+00 3.79723E+00 7.50018E+00
 -1      4436 3.09303E+00 1.54370E+00 7.50057E+00
 -1      4437 1.82075E+00 2.29260E+00 7.50024E+00
 -1      4438 4.39021E+00 7.94112E-01 7.50502E+00
 -1      4439 6.44415E+00-9.18791E-02 6.20883E+00
 -1      4440 5.83671E+00 7.04680E-01 8.64839E+00
 -1      4441 6.44938E+00 1.41194E+00 6.21831E+00
 -1      4442 4.37688E+00-3.71652E+00 7.50355E+00
 -1      4443 4.38548E+00-2.20026E+00 7.50155E+00
 -1      4444 3.08839E+00-1.44922E+00 7.50048E+00
 -1      4445 3.07918E+00-2.96670E+00 7.50057E+00
 -1      4446-1.91057E+01 1.35828E+01 4.28866E+00
 -1      4447-1.98391E+01 1.11152E+01 4.30317E+00
 -1      4448-1.79749E+01 1.16660E+01 4.86250E+00
 -1      4449 4.38533E+00-6.99398E-01 7.50296E+00
 -1      4450 3.08818E+00 5.09962E-02 7.50108E+00
 -1      4451 3.07976E+00-4.46678E+00 7.50066E+00
 -1      4452-6.68196E-01 5.31882E+00 7.50008E+00
 -1      4453 6.06880E-01 4.56490E+00 7.50009E+00
 -1      4454 6.25573E-01 3.05015E+00 7.50006E+00
 -1      4455-6.49393E-01 3.80402E+00 7.50013E+00
 -1      4456-1.87421E+00-1.10924E+01 6.23836E+00
 -1      4457 1.48333E+01-7.14711E+00 8.51230E+00
 -1      4458 1.48810E+01-8.13931E+00 5.95734E+00
 -1      4459 1.40759E+01-8.21993E+00 7.44848E+00
 -1      4460 1.20390E+01-7.74604E+00 8.51247E+00
 -1      4461 1.20909E+01-8.73904E+00 5.96147E+00
 -1      4462 1.28498E+01-7.66529E+00 7.02393E+00
 -1      4463-3.09067E+00-2.26481E+00 7.50089E+00
 -1      4464-4.38954E+00-3.01557E+00 7.50992E+00
 -1      4465-4.38753E+00-1.51447E+00 7.50776E+00
 -1      4466 6.22165E-01-2.98444E+00 7.49995E+00
 -1      4467 6.21944E-01-4.48465E+00 7.50009E+00
 -1      4468 1.82201E+00-3.73481E+00 7.50011E+00
 -1      4469-7.83075E+00 1.28083E+01 7.36547E+00
 -1      4470-6.38541E+00 1.31319E+01 7.37347E+00
 -1      4471-6.54077E+00 1.19026E+01 7.39110E+00
 -1      4472-3.15930E+01-6.36316E+00 8.38904E+00
 -1      4473-3.06020E+01-7.74051E+00 6.08906E+00
 -1      4474-3.12330E+01-8.87162E+00 7.70017E+00
 -1      4475-3.25194E+01-8.98916E+00 8.55906E+00
 -1      4476-3.15281E+01-1.03665E+01 6.25909E+00
 -1      4477-3.18884E+01-7.85808E+00 6.94800E+00
 -1      4478-6.45046E-01-6.77733E+00 7.50012E+00
 -1      4479 6.17172E-01-7.37517E+00 7.50006E+00
 -1      4480 6.21019E-01-8.82902E+00 7.49999E+00
 -1      4481-6.41430E-01-8.23120E+00 7.49996E+00
 -1      4482-3.13475E+00 5.28908E+00 7.50150E+00
 -1      4483-4.43278E+00 6.03978E+00 7.50229E+00
 -1      4484-4.44334E+00 4.54244E+00 7.50758E+00
 -1      4485-3.14594E+00 3.79223E+00 7.50103E+00
 -1      4486 3.86651E+01 4.47609E+00 8.72737E+00
 -1      4487 3.64153E+01 4.39397E+00 7.24009E+00
 -1      4488 3.77502E+01 4.42044E+00 5.96738E+00
 -1      4489 3.83135E+01 2.82613E+00 6.70350E+00
 -1      4490 3.60637E+01 2.74400E+00 5.21615E+00
 -1      4491 3.69785E+01 2.79966E+00 7.97619E+00
 -1      4492-1.84358E+00-1.48477E+00 7.50020E+00
 -1      4493-6.43780E-01-2.23460E+00 7.50003E+00
 -1      4494-1.84404E+00-2.98482E+00 7.50026E+00
 -1      4495-5.33888E+00-3.00115E+00 8.70457E+00
 -1      4496-5.94391E+00-2.98773E+00 6.26442E+00
 -1      4497-5.94861E+00-1.48580E+00 6.25810E+00
 -1      4498 3.31002E+01-8.75979E+00 5.74319E+00
 -1      4499 3.29631E+01-8.31436E+00 8.22335E+00
 -1      4500 3.49391E+01-9.63959E+00 7.51996E+00
 -1      4501 3.55936E+01-8.56504E+00 5.85897E+00
 -1      4502 3.54567E+01-8.11962E+00 8.33911E+00
 -1      4503 3.36178E+01-7.23981E+00 6.56237E+00
 -1      4504-4.44275E+00 3.04216E+00 7.50676E+00
 -1      4505 1.81300E+00 7.93923E-01 7.50018E+00
 -1      4506 1.81303E+00-7.06183E-01 7.50024E+00
 -1      4507 6.21522E-01-1.48359E+00 7.50007E+00
 -1      4508 1.82196E+00-2.23457E+00 7.50016E+00
 -1      4509-6.38806E-01-3.78077E+00 7.50009E+00
 -1      4510-6.38830E-01-5.28095E+00 7.50006E+00
 -1      4511-6.76805E-01 1.13811E+01 6.25405E+00
 -1      4512-9.02771E-02 1.22337E+01 6.25402E+00
 -1      4513 5.32640E-01 1.11145E+01 6.25400E+00
 -1      4514-3.09102E+00-3.76469E+00 7.50093E+00
 -1      4515-4.38896E+00-4.51610E+00 7.50765E+00
 -1      4516-4.43268E+00 7.53919E+00 7.50348E+00
 -1      4517-5.58938E+00 6.07636E+00 8.66353E+00
 -1      4518-6.16217E+00 6.03528E+00 6.21341E+00
 -1      4519-6.16331E+00 7.53885E+00 6.21758E+00
 -1      4520-1.13885E+01-6.60793E-01 8.04623E+00
 -1      4521-1.13315E+01-3.25913E+00 8.07794E+00
 -1      4522 3.43147E+01 3.77104E+00 5.62961E+00
 -1      4523 3.52294E+01 3.82669E+00 8.38964E+00
 -1      4524 3.48780E+01 2.17672E+00 6.36574E+00
 -1      4525-5.71469E+00 8.28516E+00 7.52417E+00
 -1      4526-6.88046E+00 6.81920E+00 8.66921E+00
 -1      4527-1.92097E+01 6.00080E+00 2.45058E+00
 -1      4528-1.96126E+01 6.05654E+00 4.48651E+00
 -1      4529-2.12384E+01 6.05584E+00 2.03450E+00
 -1      4530-1.95326E+01 4.66853E+00 1.53863E+00
 -1      4531-1.99372E+01 4.72431E+00 3.57414E+00
 -1      4532-1.79099E+01 4.66927E+00 3.99096E+00
 -1      4533-5.94549E+00 3.03336E+00 6.24269E+00
 -1      4534-5.94932E+00 4.53081E+00 6.23486E+00
 -1      4535-5.39660E+00 3.07369E+00 8.69657E+00
 -1      4536 5.64425E+00-4.41007E+00 7.52385E+00
 -1      4537 5.64383E+00-5.91020E+00 7.52226E+00
 -1      4538 6.51971E+00-5.90764E+00 6.23234E+00
 -1      4539 7.16696E+00-5.81251E+00 8.66451E+00
 -1      4540 6.51867E+00-4.40121E+00 6.23948E+00
 -1      4541 3.06510E+00-5.89954E+00 7.50121E+00
 -1      4542 4.36284E+00-6.65012E+00 7.50296E+00
 -1      4543 4.37704E+00-5.21705E+00 7.50582E+00
 -1      4544-5.38390E+00 4.56901E+00 8.69979E+00
 -1      4545 6.06892E-01-6.02455E+00 7.50014E+00
 -1      4546 1.80710E+00-5.27465E+00 7.50027E+00
 -1      4547-5.53691E+00 1.24877E+01 7.51496E+00
 -1      4548-5.67691E+00 1.12554E+01 7.51395E+00
 -1      4549 6.17847E-01 1.55154E+00 7.50010E+00
 -1      4550-1.85186E+00 1.57015E-02 7.50034E+00
 -1      4551-6.44056E-01-7.33722E-01 7.50007E+00
 -1      4552 2.63955E+01 7.26091E+00 8.14491E+00
 -1      4553 2.61649E+01 6.35713E+00 6.49349E+00
 -1      4554 2.40445E+01 6.66282E+00 8.34904E+00
 -1      4555 2.48902E+01 9.00610E+00 8.57772E+00
 -1      4556 2.46602E+01 8.10228E+00 6.92638E+00
 -1      4557 2.70107E+01 8.70044E+00 6.72219E+00
 -1      4558 6.12710E-01 4.47836E-02 7.50007E+00
 -1      4559-3.15370E+00 2.29214E+00 7.50196E+00
 -1      4560-1.86162E+00 3.04452E+00 7.50044E+00
 -1      4561-1.86985E+00 1.54469E+00 7.50030E+00
 -1      4562-6.16360E+00-1.19258E+01 6.21165E+00
 -1      4563-6.16887E+00-1.04237E+01 6.22229E+00
 -1      4564-5.57193E+00-1.04348E+01 8.68260E+00
 -1      4565-3.25439E+01 2.28807E+00 7.48989E+00
 -1      4566-3.25472E+01 3.78018E+00 7.48989E+00
 -1      4567-3.06928E+01 4.26770E+00 8.07360E+00
 -1      4568-3.10163E+01 3.53548E+00 5.56327E+00
 -1      4569-3.06895E+01 2.77559E+00 8.07361E+00
 -1      4570 5.66381E+00-2.93123E+00 7.50855E+00
 -1      4571 7.18506E+00-4.33213E+00 8.67236E+00
 -1      4572 2.67252E+00 1.15224E+01 7.50034E+00
 -1      4573 2.05007E+00 1.26413E+01 7.49998E+00
 -1      4574 7.87701E-01 1.19785E+01 8.75438E+00
 -1      4575-1.83889E+00-4.53091E+00 7.50022E+00
 -1      4576-3.16514E+00 6.80800E+00 7.50061E+00
 -1      4577-1.88440E+00 6.06549E+00 7.50033E+00
 -1      4578-1.85421E+00 4.54654E+00 7.50025E+00
 -1      4579-6.56975E-01 2.30207E+00 7.50009E+00
 -1      4580-6.62082E-01 7.95300E-01 7.50012E+00
 -1      4581-3.15156E+00-7.00755E-01 7.50141E+00
 -1      4582-4.44900E+00 5.00889E-02 7.49940E+00
 -1      4583-6.67520E-01-1.13572E+01 6.23822E+00
 -1      4584 5.40555E-01-1.10888E+01 6.23825E+00
 -1      4585-8.30537E-02-1.22442E+01 6.23819E+00
 -1      4586-3.06467E+00-5.29789E+00 7.50134E+00
 -1      4587-4.36142E+00-6.04861E+00 7.50016E+00
 -1      4588-4.44875E+00 1.54906E+00 7.50836E+00
 -1      4589-3.15997E+00 7.99673E-01 7.50092E+00
 -1      4590 3.03665E+01 1.07405E+01 4.37096E+00
 -1      4591 3.19424E+01 1.00124E+01 5.08206E+00
 -1      4592 3.03878E+01 9.18119E+00 5.67335E+00
 -1      4593 2.88847E+01 8.52864E+00 4.01765E+00
 -1      4594 3.04603E+01 7.80058E+00 4.72876E+00
 -1      4595-6.64682E-01-1.02168E+01 6.23820E+00
 -1      4596-1.79189E+01 6.74870E+00 2.45059E+00
 -1      4597-1.99468E+01 6.80367E+00 2.03443E+00
 -1      4598-3.22346E+01 7.83633E+00 1.65689E+00
 -1      4599-3.19254E+01 6.92171E+00 4.21793E+00
 -1      4600-3.08597E+01 8.55602E+00 2.56085E+00
 -1      4601-3.19812E+01 1.06571E+01 1.68813E+00
 -1      4602-3.16719E+01 9.74250E+00 4.24918E+00
 -1      4603-3.30470E+01 9.02281E+00 3.34516E+00
 -1      4604-1.82413E+01 5.41646E+00 1.53852E+00
 -1      4605-1.44794E+01-5.11677E+00 7.49726E+00
 -1      4606-1.44825E+01-3.63348E+00 7.49717E+00
 -1      4607-1.26094E+01-5.48640E+00 8.07434E+00
 -1      4608-1.26127E+01-4.00269E+00 8.07362E+00
 -1      4609-1.28999E+01-4.74499E+00 5.56919E+00
 -1      4610-3.00923E+01 8.32526E+00 7.56114E+00
 -1      4611-3.14213E+01 9.60015E+00 5.86508E+00
 -1      4612-3.09631E+01 1.02840E+01 8.30415E+00
 -1      4613-2.87248E+01 1.04323E+01 8.50737E+00
 -1      4614-3.00540E+01 1.17072E+01 6.81136E+00
 -1      4615-2.91834E+01 9.74849E+00 6.06830E+00
 -1      4616-2.99237E+01-9.52376E+00 7.70019E+00
 -1      4617-3.02837E+01-7.01530E+00 8.38908E+00
 -1      4618 1.48501E+01 1.11944E+01 7.46923E+00
 -1      4619 1.31088E+01 1.19328E+01 7.91199E+00
 -1      4620-5.67891E+00 9.75472E+00 7.51823E+00
 -1      4621-6.84328E+00 8.29180E+00 8.67128E+00
 -1      4622 1.92897E+01 8.94594E+00 7.68840E+00
 -1      4623 1.73620E+01 7.34628E+00 8.43249E+00
 -1      4624 1.74724E+01 8.78604E+00 6.11969E+00
 -1      4625 2.01167E+01 8.98677E+00 6.14344E+00
 -1      4626 1.81914E+01 7.38714E+00 6.88792E+00
 -1      4627 2.00089E+01 7.54719E+00 8.45650E+00
 -1      4628 3.79639E+01 5.77794E+00 7.11402E+00
 -1      4629 3.66289E+01 5.75146E+00 8.38670E+00
 -1      4630 3.57142E+01 5.69583E+00 5.62669E+00
 -1      4631-5.39943E+00-1.43602E+00 8.71033E+00
 -1      4632 3.14809E+00 6.03427E+00 7.50075E+00
 -1      4633 2.83943E+01 8.83573E+00 8.14483E+00
 -1      4634 2.91688E+01 8.11270E+00 8.14479E+00
 -1      4635 2.86640E+01 8.43225E+00 5.62580E+00
 -1      4636-1.67547E+01 7.57635E+00 1.67314E+00
 -1      4637-1.52412E+01 5.25162E+00 1.53691E+00
 -1      4638-1.40868E+01 6.41182E+00 1.57884E+00
 -1      4639 3.09969E+00-7.41228E+00 7.50058E+00
 -1      4640-2.75519E+01 3.03996E+00 1.64059E+00
 -1      4641-2.62656E+01 2.28870E+00 1.64053E+00
 -1      4642-2.67070E+01 5.02681E+00 1.70145E+00
 -1      4643-2.69786E+01 4.27797E+00 3.34234E+00
 -1      4644-2.79933E+01 5.77807E+00 1.70151E+00
 -1      4645-3.31071E+01-7.55322E+00 8.54519E+00
 -1      4646-3.24760E+01-6.42213E+00 6.93413E+00
 -1      4647-3.34024E+01-9.04815E+00 7.10415E+00
 -1      4648 5.83261E+00-7.89633E-01 8.64771E+00
 -1      4649 6.45026E+00-1.58839E+00 6.19751E+00
 -1      4650-1.27093E+01-6.63323E-01 6.49672E+00
 -1      4651-1.29512E+01-1.40528E+00 8.45843E+00
 -1      4652-1.26525E+01-3.26102E+00 6.52901E+00
 -1      4653-5.31165E+00-4.53542E+00 8.70982E+00
 -1      4654 1.85153E+00-8.13787E+00 7.50015E+00
 -1      4655-4.36344E+00-7.54812E+00 7.50370E+00
 -1      4656-5.65002E+00-8.26074E+00 7.51503E+00
 -1      4657 1.58189E+01 1.10248E+01 5.70560E+00
 -1      4658 1.58536E+01 1.22099E+01 8.24030E+00
 -1      4659 1.40812E+01 1.17632E+01 6.14911E+00
 -1      4660-3.39418E+01-2.98612E+00 7.52332E+00
 -1      4661-3.26482E+01-3.74097E+00 7.52333E+00
 -1      4662-3.42274E+01-4.85203E+00 8.10340E+00
 -1      4663-3.46534E+01-4.09553E+00 5.62656E+00
 -1      4664-3.55211E+01-4.09718E+00 8.10339E+00
 -1      4665-3.21159E+01-8.93059E+00 6.24522E+00
 -1      4666 5.53664E+00-1.05769E+01 7.51479E+00
 -1      4667 5.53689E+00-1.20758E+01 7.51367E+00
 -1      4668 6.61527E+00-1.20962E+01 6.08328E+00
 -1      4669 7.14891E+00-1.21696E+01 8.53947E+00
 -1      4670 6.61357E+00-1.05942E+01 6.10175E+00
 -1      4671 3.45284E+01 5.12854E+00 6.77627E+00
 -1      4672-4.43631E+00 8.99950E+00 7.50340E+00
 -1      4673-3.22138E+01 7.77889E-01 8.38121E+00
 -1      4674-3.06864E+01 2.02529E+00 6.45466E+00
 -1      4675-3.25406E+01 1.53775E+00 5.87092E+00
 -1      4676-2.59436E+01 3.02741E+00 4.14924E+00
 -1      4677-2.56722E+01 3.77624E+00 2.50823E+00
 -1      4678-2.63847E+01 5.76553E+00 4.21018E+00
 -1      4679 7.68384E-01-9.96742E+00 7.50000E+00
 -1      4680-5.07289E-02-1.01377E+01 8.73855E+00
 -1      4681 9.67774E-02-1.12761E+01 8.73852E+00
 -1      4682 7.11883E+00-1.51934E+00 8.65160E+00
 -1      4683-5.94873E+00 1.53180E+00 6.25147E+00
 -1      4684-5.40144E+00 1.58041E+00 8.69686E+00
 -1      4685-3.41887E+01 8.14392E+00 4.13126E+00
 -1      4686-3.36980E+01 8.19642E+00 1.65691E+00
 -1      4687-3.45863E+01 1.01383E+01 2.47424E+00
 -1      4688-3.39352E+01 1.09647E+01 4.16250E+00
 -1      4689-3.34445E+01 1.10172E+01 1.68816E+00
 -1      4690-2.26689E+01-1.42710E+00 1.72397E+00
 -1      4691-2.26634E+01 5.60075E-02 1.72397E+00
 -1      4692-2.49776E+01 1.53791E+00 1.64046E+00
 -1      4693-2.42235E+01 5.79341E-02 3.36496E+00
 -1      4694-2.49832E+01 5.48095E-02 1.64046E+00
 -1      4695 1.27937E+01-8.96147E+00 7.45040E+00
 -1      4696 1.07545E+01-8.48700E+00 8.51591E+00
 -1      4697 2.74544E+01-1.26996E-01 4.54599E+00
 -1      4698 2.81426E+01-1.32950E+00 2.04670E+00
 -1      4699 2.63551E+01-2.14365E-01 2.49884E+00
 -1      4700 2.66563E+01 1.81781E+00 4.00500E+00
 -1      4701 2.73440E+01 6.15310E-01 1.50576E+00
 -1      4702 2.84438E+01 7.02681E-01 3.55279E+00
 -1      4703-2.84911E+01 2.96777E+00 3.15581E+00
 -1      4704-2.95061E+01 4.46788E+00 1.51500E+00
 -1      4705-2.89324E+01 5.70591E+00 3.21673E+00
 -1      4706-2.36239E+01-1.42765E+00 4.23199E+00
 -1      4707-2.43838E+01-1.43076E+00 2.50732E+00
 -1      4708-2.59375E+01 5.42764E-02 4.14840E+00
 -1      4709-3.12100E+01-9.64130E+00 8.55909E+00
 -1      4710-3.23136E+01 1.53726E+00 1.62309E+00
 -1      4711-3.15571E+01-2.98494E-02 3.77197E+00
 -1      4712-3.03896E+01 1.47807E+00 2.14870E+00
 -1      4713-3.07955E+01 3.72043E+00 1.51504E+00
 -1      4714-3.00392E+01 2.15333E+00 3.66391E+00
 -1      4715-3.19631E+01 2.21252E+00 3.13825E+00
 -1      4716-2.88882E+01 7.17102E+00 5.93140E+00
 -1      4717-2.84296E+01 7.85488E+00 8.37052E+00
 -1      4718-2.75211E+01 9.27810E+00 6.87773E+00
 -1      4719 2.12339E+01 4.10120E-01 2.49946E+00
 -1      4720 2.21458E+01-1.22739E+00 4.20080E+00
 -1      4721 2.28186E+01-6.41372E-02 1.70041E+00
 -1      4722 2.24833E+01 2.06317E+00 1.59726E+00
 -1      4723 2.33960E+01 4.25659E-01 3.29838E+00
 -1      4724 2.18109E+01 8.99889E-01 4.09759E+00
 -1      4725 2.12276E+01-1.08237E+00 2.49942E+00
 -1      4726 2.28124E+01-1.55661E+00 1.70040E+00
 -1      4727 1.84127E+00-6.78735E+00 7.50027E+00
 -1      4728 3.08866E+00-1.29841E+01 7.50023E+00
 -1      4729 2.68927E+00-1.17489E+01 7.50050E+00
 -1      4730 2.06570E+00-1.29041E+01 7.50003E+00
 -1      4731 1.37378E+01-6.39690E+00 6.39159E+00
 -1      4732 1.29292E+01-6.47732E+00 7.88248E+00
 -1      4733 1.09477E+01-6.99255E+00 6.40273E+00
 -1      4734-1.86047E+00-7.52175E+00 7.50014E+00
 -1      4735-1.85401E+00-6.02544E+00 7.50029E+00
 -1      4736 3.07886E+01 1.02452E+01 1.88975E+00
 -1      4737 2.93062E+01 8.03337E+00 1.53645E+00
 -1      4738 2.68776E+01-2.29731E+00 1.53549E+00
 -1      4739 2.61901E+01-1.09481E+00 4.03471E+00
 -1      4740 2.79775E+01-2.20995E+00 3.58250E+00
 -1      4741-1.42312E+01-2.14960E+00 8.45619E+00
 -1      4742-1.45176E+01-2.89189E+00 5.94966E+00
 -1      4743-6.71073E+00-7.51116E+00 7.28664E+00
 -1      4744-8.03625E+00-6.72951E+00 7.29323E+00
 -1      4745-7.03502E+00-5.24028E+00 6.02794E+00
 -1      4746-3.03896E+01-7.54311E-03 2.14870E+00
 -1      4747-3.23136E+01 5.16465E-02 1.62308E+00
 -1      4748-3.53244E+01 1.57539E+00 7.93781E+00
 -1      4749-3.43550E+01 1.59306E+00 5.42753E+00
 -1      4750-3.38397E+01 3.03026E+00 7.48987E+00
 -1      4751-3.35097E+01 1.52008E+00 8.38119E+00
 -1      4752-3.40252E+01 8.28831E-02 6.31889E+00
 -1      4753-2.31222E+01 2.23798E+00 1.57890E+00
 -1      4754-2.23690E+01 7.57979E-01 3.30343E+00
 -1      4755-2.46823E+01 2.23989E+00 3.21988E+00
 -1      4756 1.16167E+01-8.35968E+00 3.90693E+00
 -1      4757 1.20808E+01-9.11101E+00 2.67477E+00
 -1      4758 1.14193E+01-7.09372E+00 2.77087E+00
 -1      4759 1.18496E+01-7.84721E+00 1.52470E+00
 -1      4760 1.39125E+01-7.95488E+00 3.74535E+00
 -1      4761-2.99570E+01-1.14871E+01 2.69993E+00
 -1      4762-2.93533E+01-9.44786E+00 4.24683E+00
 -1      4763-2.90681E+01-1.06859E+01 1.54669E+00
 -1      4764-3.11521E+01-1.24128E+01 2.03832E+00
 -1      4765-3.05484E+01-1.03736E+01 3.58516E+00
 -1      4766-3.14369E+01-1.11747E+01 4.73843E+00
 -1      4767 3.97914E+00-1.24228E+01 7.50204E+00
 -1      4768 3.15609E+00 7.52543E+00 7.50101E+00
 -1      4769 4.41328E+00 6.78580E+00 7.50230E+00
 -1      4770 3.30472E+00 8.80540E+00 7.50130E+00
 -1      4771 4.56285E+00 9.56617E+00 7.50550E+00
 -1      4772 3.27392E+00 1.03945E+01 7.50048E+00
 -1      4773-2.56676E+01-6.90306E-01 2.50737E+00
 -1      4774-2.62671E+01 7.95259E-01 1.64051E+00
 -1      4775 1.99457E+01-3.27134E-01 2.49935E+00
 -1      4776 2.76532E+01-3.50135E+00 8.13014E+00
 -1      4777 2.71000E+01-4.02848E+00 5.64094E+00
 -1      4778 2.89307E+01-4.83526E+00 7.51118E+00
 -1      4779 2.77163E+01-5.12149E+00 8.59382E+00
 -1      4780 2.71632E+01-5.64863E+00 6.10472E+00
 -1      4781 2.58861E+01-4.31472E+00 6.72374E+00
 -1      4782-1.82422E+01 3.92230E+00 1.53847E+00
 -1      4783-3.08028E+00-6.79270E+00 7.50047E+00
 -1      4784 2.52955E+01 5.87574E+00 8.34898E+00
 -1      4785 2.76468E+01 6.47384E+00 8.14488E+00
 -1      4786-1.47866E+01 9.39227E+00 2.46303E+00
 -1      4787-1.68602E+01 9.31381E+00 1.67306E+00
 -1      4788-1.41894E+01 8.14763E+00 1.57785E+00
 -1      4789-3.27648E+01 4.40696E+00 5.95228E+00
 -1      4790-3.09106E+01 4.89450E+00 6.53601E+00
 -1      4791-3.24413E+01 5.13918E+00 8.46255E+00
 -1      4792-3.59044E+01 3.04115E+00 8.50107E+00
 -1      4793-3.64198E+01 1.60395E+00 6.43879E+00
 -1      4794-3.49350E+01 3.05882E+00 5.99083E+00
 -1      4795 4.41412E+00 8.28614E+00 7.50418E+00
 -1      4796-3.16846E+00 8.26788E+00 7.50088E+00
 -1      4797-7.82870E+00 1.41429E+01 6.52216E+00
 -1      4798-8.95236E+00 1.36612E+01 9.15172E+00
 -1      4799-9.83155E+00 1.31551E+01 7.33746E+00
 -1      4800-9.83402E+00 1.18163E+01 8.18728E+00
 -1      4801-8.70702E+00 1.22955E+01 5.56283E+00
 -1      4802-3.09246E+01 1.52617E+00 8.38123E+00
 -1      4803-2.94004E+01 3.52388E+00 8.07365E+00
 -1      4804-2.84578E+01 1.98471E+00 8.30196E+00
 -1      4805-2.82200E+01 2.48383E+00 6.37536E+00
 -1      4806-2.97440E+01 4.86110E-01 6.68299E+00
 -1      4807 2.40951E+01-2.29869E+00 1.70051E+00
 -1      4808 2.34525E+01-3.48133E+00 4.20629E+00
 -1      4809 2.38169E+01-4.07838E+00 2.50509E+00
 -1      4810 2.55862E+01-3.03674E+00 1.53542E+00
 -1      4811 2.49431E+01-4.21939E+00 4.04109E+00
 -1      4812 2.52219E+01-2.43970E+00 3.23639E+00
 -1      4813-1.47939E+01-6.98060E+00 8.60559E+00
 -1      4814-1.32180E+01-6.60832E+00 6.67777E+00
 -1      4815-1.50833E+01-6.23915E+00 6.09922E+00
 -1      4816 3.03799E+00-8.89707E+00 7.50079E+00
 -1      4817 1.29811E+01-7.46795E+00 5.33079E+00
 -1      4818-3.28135E+01 8.86361E+00 5.03529E+00
 -1      4819 2.63627E+01-2.75875E+00 8.13020E+00
 -1      4820 2.64257E+01-4.37889E+00 8.59387E+00
 -1      4821 1.40478E+01-9.58145E+00 7.44853E+00
 -1      4822 1.48052E+01-8.50861E+00 8.51211E+00
 -1      4823 1.91314E+01 1.07876E+00 1.71670E+00
 -1      4824 2.04196E+01 1.81600E+00 1.71683E+00
 -1      4825 1.97487E+01 6.52742E-01 4.21756E+00
 -1      4826 4.30217E+00-1.11346E+01 7.50389E+00
 -1      4827 4.30199E+00-9.63436E+00 7.50223E+00
 -1      4828 5.61826E+00-7.42796E+00 7.51746E+00
 -1      4829-1.52710E+01 4.12865E+00 6.43143E+00
 -1      4830-1.71746E+01 3.77860E+00 8.43879E+00
 -1      4831-1.48709E+01 4.87121E+00 7.99419E+00
 -1      4832-1.41597E+01 6.26093E+00 6.49194E+00
 -1      4833-1.60613E+01 5.91049E+00 8.49802E+00
 -1      4834-1.64613E+01 5.16809E+00 6.93539E+00
 -1      4835 1.11889E+01 6.78752E+00 8.21255E+00
 -1      4836 1.11341E+01 5.04190E+00 6.18535E+00
 -1      4837 1.14381E+01 4.30878E+00 7.97351E+00
 -1      4838 9.80979E+00 6.06570E+00 8.64797E+00
 -1      4839 9.75529E+00 4.32241E+00 6.63100E+00
 -1      4840 9.51352E+00 6.79688E+00 6.87367E+00
 -1      4841-2.88281E+01-9.55499E+00 6.07462E+00
 -1      4842-2.85097E+01-8.82976E+00 8.37467E+00
 -1      4843-2.91882E+01-7.04653E+00 6.76356E+00
 -1      4844 5.61965E+00-8.92620E+00 7.50664E+00
 -1      4845 4.36380E+00-8.15011E+00 7.50373E+00
 -1      4846-6.70504E+00 1.41415E+01 5.76438E+00
 -1      4847-7.83495E+00 1.36624E+01 8.38741E+00
 -1      4848-6.39006E+00 1.39868E+01 8.39330E+00
 -1      4849 2.50719E+01 5.28497E-01 2.49876E+00
 -1      4850 2.41031E+01-8.16415E-01 1.70051E+00
 -1      4851 2.46992E+01-3.56748E-01 4.19990E+00
 -1      4852 2.53863E+01-1.55923E+00 1.70060E+00
 -1      4853-4.25556E+00 1.20620E+01 7.50195E+00
 -1      4854-2.43375E+00 1.18463E+01 8.75452E+00
 -1      4855 6.11576E-01 6.05470E+00 7.50006E+00
 -1      4856-1.80466E+01 8.32409E+00 1.67291E+00
 -1      4857-1.97425E+01 7.63196E+00 3.70860E+00
 -1      4858-3.12559E+00-8.25405E+00 7.50086E+00
 -1      4859-1.31316E+00-9.53994E+00 8.73864E+00
 -1      4860-1.88419E+00-9.50744E+00 6.23819E+00
 -1      4861-3.35099E+01-1.48011E+00 8.38119E+00
 -1      4862-3.26425E+01-1.47844E+00 5.90437E+00
 -1      4863-3.50790E+01-2.68850E+00 6.06498E+00
 -1      4864-3.46473E+01-1.18249E+00 6.92288E+00
 -1      4865-3.59467E+01-2.69015E+00 8.54177E+00
 -1      4866 7.13443E+00 1.45131E+00 8.65353E+00
 -1      4867 7.41679E+00 3.00669E+00 8.60561E+00
 -1      4868 6.75228E+00 2.96626E+00 6.14759E+00
 -1      4869 8.19785E+00 1.37538E+00 7.24824E+00
 -1      4870-3.09212E+01 3.65567E-02 8.38124E+00
 -1      4871-2.84543E+01 4.95096E-01 8.30196E+00
 -1      4872 1.85393E+00 5.28691E+00 7.50019E+00
 -1      4873 1.24546E+01 7.53280E+00 8.20951E+00
 -1      4874 1.47891E+01 7.36581E+00 8.43418E+00
 -1      4875 3.55520E+01 2.21335E+00 7.97620E+00
 -1      4876 3.38029E+01 3.24037E+00 8.38965E+00
 -1      4877 1.97353E+00-1.08395E+01 7.50011E+00
 -1      4878-1.89534E+00 7.52351E+00 7.50018E+00
 -1      4879-8.55945E+00-7.77957E+00 5.83045E+00
 -1      4880 7.13884E+00-7.33165E+00 8.66743E+00
 -1      4881 2.23362E+00-1.40614E+01 6.08221E+00
 -1      4882 2.10492E+00-1.39225E+01 8.58255E+00
 -1      4883 1.21017E+00-1.39815E+01 6.08216E+00
 -1      4884 3.60139E+01 1.10389E+01 6.01497E+00
 -1      4885 3.54419E+01 1.34966E+01 5.96512E+00
 -1      4886 3.45041E+01 1.25424E+01 5.02092E+00
 -1      4887 3.32705E+01 1.09978E+01 6.06184E+00
 -1      4888 3.26984E+01 1.34555E+01 6.01199E+00
 -1      4889 3.42082E+01 1.19520E+01 7.00604E+00
 -1      4890-1.13156E+01-4.74982E+00 8.07748E+00
 -1      4891 8.30693E+00 4.50992E+00 7.24717E+00
 -1      4892 3.01268E+00-1.04602E+01 7.50040E+00
 -1      4893 1.82596E+00-9.70112E+00 7.50014E+00
 -1      4894 9.98754E+00 4.49419E+00 8.59627E+00
 -1      4895 9.92682E+00 2.74833E+00 6.57336E+00
 -1      4896 2.09979E+01 2.30578E+00 3.31485E+00
 -1      4897-2.88550E+01-1.09974E+01 4.58206E+00
 -1      4898-2.85698E+01-1.22355E+01 1.88189E+00
 -1      4899-2.79664E+01-1.01962E+01 3.42875E+00
 -1      4900-8.18075E+00 7.57563E+00 8.66985E+00
 -1      4901 3.34018E+01 6.10482E+00 5.86707E+00
 -1      4902 3.39457E+01 7.75322E+00 6.57887E+00
 -1      4903 3.14197E+01 6.80470E+00 5.67260E+00
 -1      4904 3.20024E+01 4.18003E+00 5.87000E+00
 -1      4905 3.25463E+01 5.82843E+00 6.58182E+00
 -1      4906 3.27775E+01 7.84208E+00 4.87528E+00
 -1      4907 3.29112E+01 7.36540E+00 1.68302E+00
 -1      4908 3.05936E+01 7.32389E+00 1.53648E+00
 -1      4909 5.71664E+00 8.33093E+00 8.60131E+00
 -1      4910 6.30431E+00 7.54767E+00 6.15047E+00
 -1      4911 7.00235E+00 7.58423E+00 8.60589E+00
 -1      4912-1.77797E+01-9.67113E+00 2.48512E+00
 -1      4913-1.93989E+01-8.37875E+00 4.35132E+00
 -1      4914-1.97141E+01-9.22071E+00 1.86485E+00
 -1      4915-1.82159E+01-1.12246E+01 1.95049E+00
 -1      4916-1.98360E+01-9.93227E+00 3.81658E+00
 -1      4917-1.79018E+01-1.03828E+01 4.43736E+00
 -1      4918-4.30697E+00-1.20555E+01 7.50243E+00
 -1      4919-2.47809E+00-1.18179E+01 8.73870E+00
 -1      4920 6.52147E+00-7.40385E+00 6.22040E+00
 -1      4921-3.09729E+01 1.14794E+01 5.41548E+00
 -1      4922-3.01022E+01 9.52066E+00 4.67238E+00
 -1      4923-2.87350E+01 1.16277E+01 5.61869E+00
 -1      4924 2.25301E+01-4.82452E+00 2.50499E+00
 -1      4925 2.28080E+01-3.04486E+00 1.70044E+00
 -1      4926-2.71699E+01 2.73048E+00 8.30201E+00
 -1      4927-2.63138E+01 2.72981E+00 5.81045E+00
 -1      4928-2.62062E+01 4.51563E+00 7.50887E+00
 -1      4929-2.53452E+01 4.51658E+00 8.75636E+00
 -1      4930-2.44900E+01 4.51591E+00 6.26491E+00
 -1      4931-2.54536E+01 2.73076E+00 7.05814E+00
 -1      4932-2.56713E+01 5.27106E+00 2.50822E+00
 -1      4933-2.67060E+01 6.52162E+00 1.70145E+00
 -1      4934-3.19740E+01-1.27421E+01 6.05262E+00
 -1      4935-3.12239E+01-1.27421E+01 7.28120E+00
 -1      4936-2.89584E+01-1.36414E+01 7.08487E+00
 -1      4937-3.05494E+01-1.13834E+01 6.92173E+00
 -1      4938-2.97084E+01-1.36414E+01 5.85627E+00
 -1      4939 3.22336E+01 6.19367E+00 4.16346E+00
 -1      4940 3.47597E+01 7.14219E+00 5.06976E+00
 -1      4941 3.33603E+01 5.21740E+00 5.07269E+00
 -1      4942 2.00866E+01 1.26926E+01 6.41934E+00
 -1      4943 2.02878E+01 1.12795E+01 7.68809E+00
 -1      4944 2.09770E+01 1.35867E+01 8.73213E+00
 -1      4945 1.87996E+01 1.35198E+01 6.97033E+00
 -1      4946 1.89995E+01 1.21067E+01 8.23875E+00
 -1      4947 1.81101E+01 1.12128E+01 5.92589E+00
 -1      4948-6.78947E-01 6.77687E+00 7.50011E+00
 -1      4949-1.35875E+01 5.60998E+00 7.99571E+00
 -1      4950-1.47773E+01 6.64915E+00 8.49895E+00
 -1      4951-2.15395E+01 1.25320E+01 5.00923E+00
 -1      4952-2.20842E+01 1.28444E+01 7.23789E+00
 -1      4953-2.21011E+01 1.03768E+01 6.00661E+00
 -1      4954-2.28344E+01 1.28443E+01 5.99866E+00
 -1      4955 7.87292E+00 7.58562E+00 7.24983E+00
 -1      4956-2.78972E+01 4.45533E+00 4.02362E+00
 -1      4957-8.20123E+00 1.13261E+01 7.21156E+00
 -1      4958-9.06923E+00 1.08187E+01 5.39193E+00
 -1      4959-1.19368E+01-6.86149E+00 5.84074E+00
 -1      4960-1.35108E+01-7.23403E+00 7.76314E+00
 -1      4961-1.41166E+01-8.35645E+00 6.36566E+00
 -1      4962 3.54494E+01-1.34885E+01 5.95415E+00
 -1      4963 3.60216E+01-1.10310E+01 5.98867E+00
 -1      4964 3.45038E+01-1.25426E+01 5.00530E+00
 -1      4965 3.27427E+01-1.34602E+01 6.02689E+00
 -1      4966 3.33150E+01-1.10027E+01 6.06140E+00
 -1      4967 3.42605E+01-1.19487E+01 7.01025E+00
 -1      4968 2.88973E+01-2.62581E+00 8.54735E+00
 -1      4969 2.76066E+01-1.88321E+00 8.54741E+00
 -1      4970 2.70667E+01-1.81904E+00 6.67727E+00
 -1      4971 2.38163E+01-5.57370E+00 2.50509E+00
 -1      4972 2.55857E+01-4.53208E+00 1.53541E+00
 -1      4973 1.93305E+01 1.02848E+01 7.68838E+00
 -1      4974 2.00499E+01 8.88596E+00 8.45650E+00
 -1      4975 1.28433E+01 4.88708E+00 8.46171E+00
 -1      4976 1.25373E+01 5.62002E+00 6.66968E+00
 -1      4977 1.27846E+01 3.14203E+00 6.42829E+00
 -1      4978-1.92705E+01 1.37169E+01 8.73990E+00
 -1      4979-1.74393E+01 1.30827E+01 6.80785E+00
 -1      4980 7.23293E+00-1.05177E+01 8.54753E+00
 -1      4981-3.00499E+01-1.19231E+01 3.92039E+00
 -1      4982-2.20696E+01 1.15616E+01 8.49832E+00
 -1      4983-3.06874E+01-1.26246E+01 5.19366E+00
 -1      4984-2.92630E+01-1.12659E+01 6.06279E+00
 -1      4985-2.81125E+01 4.26965E+00 8.07369E+00
 -1      4986-2.72559E+01 4.26898E+00 5.58213E+00
 -1      4987-1.75722E+01 8.10374E-01 6.43472E+00
 -1      4988-1.71721E+01 2.29502E+00 8.43878E+00
 -1      4989-1.71716E+01 6.93391E-02 7.99799E+00
 -1      4990-1.59200E+01-1.41165E+00 6.45138E+00
 -1      4991-1.55179E+01 7.30004E-02 8.45512E+00
 -1      4992-1.59210E+01 8.14012E-01 6.89251E+00
 -1      4993-1.58644E+01 1.55514E+00 7.50498E+00
 -1      4994-1.62645E+01 2.29624E+00 5.94161E+00
 -1      4995-1.46134E+01 7.41270E-02 5.95888E+00
 -1      4996-3.53246E+01-1.42479E+00 7.93781E+00
 -1      4997-3.64619E+01-1.12717E+00 6.47949E+00
 -1      4998-2.68752E+01 1.08846E+01 6.00697E+00
 -1      4999-2.82422E+01 8.77758E+00 5.06060E+00
 -1      5000-2.65803E+01 8.30719E+00 5.87004E+00
 -1      5001 1.34973E+00-1.19948E+01 7.50015E+00
 -1      5002 1.48375E+01 1.36896E+01 8.70316E+00
 -1      5003 1.30677E+01 1.32427E+01 6.61521E+00
 -1      5004 1.58106E+01 1.35199E+01 6.94148E+00
 -1      5005 1.14168E+01 1.02366E+01 7.91527E+00
 -1      5006 1.11869E+01 8.25320E+00 8.21081E+00
 -1      5007 4.56244E+00 1.10666E+01 7.50331E+00
 -1      5008 5.86692E+00 9.61115E+00 8.60053E+00
 -1      5009 6.30429E+00 1.05456E+01 6.15235E+00
 -1      5010 6.30236E+00 9.04566E+00 6.15247E+00
 -1      5011 1.79513E+01 9.92733E+00 7.68889E+00
 -1      5012 1.60236E+01 8.32763E+00 8.43309E+00
 -1      5013 1.28006E+01-1.01929E+01 8.48319E+00
 -1      5014 1.41326E+01-1.04438E+01 5.92794E+00
 -1      5015 1.21008E+01-9.97053E+00 6.99566E+00
 -1      5016 3.63252E+01 1.34966E+01 7.19085E+00
 -1      5017 3.35816E+01 1.34555E+01 7.23772E+00
 -1      5018-3.53334E+01 8.96319E+00 1.56287E+00
 -1      5019-3.58240E+01 8.91070E+00 4.03720E+00
 -1      5020-3.49357E+01 6.96882E+00 3.21986E+00
 -1      5021 3.45459E+01 5.78468E+00 3.92310E+00
 -1      5022-3.35854E+01-8.14231E+00 2.05278E+00
 -1      5023-3.37746E+01-8.54252E+00 4.56724E+00
 -1      5024-3.48871E+01-9.69575E+00 2.51433E+00
 -1      5025-3.36651E+01-1.06980E+01 2.03832E+00
 -1      5026-3.38541E+01-1.10982E+01 4.55277E+00
 -1      5027-3.25527E+01-9.54478E+00 4.09122E+00
 -1      5028-8.16255E+00-7.79273E+00 8.54339E+00
 -1      5029-6.82309E+00-9.68401E+00 8.68795E+00
 -1      5030-7.24089E+00-9.67741E+00 5.97927E+00
 -1      5031-8.68019E+00-9.95840E+00 7.23144E+00
 -1      5032-3.44569E+01-1.42313E+00 5.46098E+00
 -1      5033-1.62627E+01 7.04618E-02 5.50008E+00
 -1      5034-1.78736E+01-8.16188E+00 2.48510E+00
 -1      5035-1.98080E+01-7.71156E+00 1.86486E+00
 -1      5036-9.47631E+00-8.51664E+00 8.54277E+00
 -1      5037-8.13911E+00-1.04096E+01 8.68575E+00
 -1      5038 1.90514E+00 8.48004E+00 7.50024E+00
 -1      5039 1.87393E+00 1.00693E+01 7.50020E+00
 -1      5040 1.21124E+00 1.39483E+01 6.08210E+00
 -1      5041 2.08812E+00 1.36929E+01 8.58251E+00
 -1      5042 3.07225E+00 1.27484E+01 7.50018E+00
 -1      5043 2.23391E+00 1.40554E+01 6.08207E+00
 -1      5044 1.38943E+00-1.30132E+01 8.58266E+00
 -1      5045-1.52198E+01-3.67959E+00 2.49138E+00
 -1      5046-1.40574E+01-2.86642E+00 4.29592E+00
 -1      5047-1.45114E+01-2.17038E+00 1.79994E+00
 -1      5048-1.70816E+01-2.87769E+00 1.44214E+00
 -1      5049-1.59185E+01-2.06386E+00 3.24330E+00
 -1      5050-1.66264E+01-3.57372E+00 3.93560E+00
 -1      5051 2.14026E+01 4.57423E+00 2.54611E+00
 -1      5052 2.01178E+01 3.83331E+00 2.54603E+00
 -1      5053 2.04238E+01 3.30687E+00 1.71684E+00
 -1      5054 1.91388E+01 2.56592E+00 1.71680E+00
 -1      5055 1.99130E+01 3.32605E+00 4.26422E+00
 -1      5056 1.14322E+01 1.34078E+00 7.97320E+00
 -1      5057 1.19867E+01 5.99913E-01 5.89319E+00
 -1      5058 1.20378E+01-6.23483E-01 7.92419E+00
 -1      5059 9.69697E+00-3.08942E-02 8.64660E+00
 -1      5060 1.02619E+01-7.72471E-01 6.57556E+00
 -1      5061 9.64861E+00 1.19440E+00 6.62855E+00
 -1      5062-6.90743E+00 1.04186E+01 7.21515E+00
 -1      5063-7.40382E+00 8.19566E+00 5.89713E+00
 -1      5064 1.86546E+00 6.77213E+00 7.50017E+00
 -1      5065-3.33026E+01 2.30250E+00 2.48968E+00
 -1      5066-3.32995E+01 3.79511E+00 2.48968E+00
 -1      5067-3.51216E+01 3.80097E+00 1.81470E+00
 -1      5068-3.46924E+01 3.05379E+00 4.30452E+00
 -1      5069-3.51247E+01 2.30836E+00 1.81470E+00
 -1      5070-3.27140E+01-1.27421E+01 7.29125E+00
 -1      5071-7.12292E+00 4.56860E+00 7.37466E+00
 -1      5072-7.93712E+00 1.41484E+01 5.47370E+00
 -1      5073-9.94320E+00 1.31533E+01 6.28844E+00
 -1      5074 7.26692E+00-2.91839E+00 5.95646E+00
 -1      5075 7.91348E+00-2.85605E+00 8.42891E+00
 -1      5076 8.77456E+00-4.33127E+00 7.08172E+00
 -1      5077 1.35239E+01 6.62048E+00 8.43546E+00
 -1      5078 1.48682E+01 5.45316E+00 6.89129E+00
 -1      5079 2.22028E+01-7.74230E+00 5.05564E+00
 -1      5080 2.34014E+01-7.04434E+00 3.27283E+00
 -1      5081 2.45479E+01-7.59346E+00 5.01479E+00
 -1      5082 2.33797E+01-9.71071E+00 4.96875E+00
 -1      5083 2.45787E+01-9.01275E+00 3.18604E+00
 -1      5084 2.22332E+01-9.16160E+00 3.22672E+00
 -1      5085-1.22024E+01-7.96689E+00 7.76573E+00
 -1      5086-1.13002E+01-6.21971E+00 8.07713E+00
 -1      5087 3.63326E+01-1.34885E+01 7.18002E+00
 -1      5088 3.36258E+01-1.34602E+01 7.25276E+00
 -1      5089 1.14357E+01 2.82581E+00 7.97265E+00
 -1      5090 9.98671E+00 3.01024E+00 8.59541E+00
 -1      5091 1.32788E+01 5.06094E+00 2.19292E+00
 -1      5092 1.31179E+01 3.26673E+00 3.82219E+00
 -1      5093 1.27165E+01 2.71590E+00 1.62214E+00
 -1      5094 1.45455E+01 4.31792E+00 1.56308E+00
 -1      5095 1.43921E+01 2.52369E+00 3.19581E+00
 -1      5096 1.49381E+01 4.86688E+00 3.75564E+00
 -1      5097 3.55020E+01 8.56899E+00 5.92205E+00
 -1      5098 3.79639E+01 7.98483E+00 5.88558E+00
 -1      5099 3.75380E+01 9.50048E+00 5.03430E+00
 -1      5100 3.84759E+01 1.04547E+01 5.97850E+00
 -1      5101 3.64398E+01 9.52321E+00 6.86625E+00
 -1      5102-9.70118E+00 8.38423E+00 8.31657E+00
 -1      5103-8.89821E+00 9.00715E+00 5.52590E+00
 -1      5104-8.23939E+00 9.70471E+00 7.20793E+00
 -1      5105-8.85069E+00 6.88230E+00 6.98451E+00
 -1      5106 8.52911E+00 5.32621E+00 8.64577E+00
 -1      5107 8.70695E+00 3.75343E+00 8.59719E+00
 -1      5108-2.12238E+01 8.08801E+00 4.54353E+00
 -1      5109-2.12318E+01 7.50745E+00 2.03449E+00
 -1      5110-2.08146E+01 9.48387E+00 2.50787E+00
 -1      5111-1.93252E+01 9.60834E+00 4.18211E+00
 -1      5112-1.93315E+01 9.02781E+00 1.67301E+00
 -1      5113-1.90708E+00 9.55461E+00 6.25417E+00
 -1      5114 3.19927E+01 6.61728E+00 8.19228E+00
 -1      5115 3.14490E+01 4.96890E+00 7.48052E+00
 -1      5116 3.25754E+01 3.99262E+00 8.38967E+00
 -1      5117 1.40555E+01-1.08130E+01 8.48169E+00
 -1      5118-2.43808E+01 4.51453E+00 2.50815E+00
 -1      5119-1.29352E+01-2.89625E+00 8.45795E+00
 -1      5120 1.52722E+01 1.10740E+01 8.24065E+00
 -1      5121-1.57626E+01-4.37835E+00 7.49563E+00
 -1      5122 2.49938E+01 1.31000E+00 7.49952E+00
 -1      5123 2.62825E+01 5.69345E-01 7.49945E+00
 -1      5124 2.37335E+01 1.76843E-01 8.54605E+00
 -1      5125 2.50223E+01-5.63776E-01 8.54597E+00
 -1      5126 2.44082E+01-1.44994E-01 6.04497E+00
 -1      5127-2.25428E+01 8.35982E+00 1.56453E+00
 -1      5128-2.25348E+01 8.94037E+00 4.07328E+00
 -1      5129-2.29523E+01 6.96391E+00 3.59988E+00
 -1      5130 3.52024E+01 5.16515E+00 8.38672E+00
 -1      5131 1.05580E+01-9.80124E+00 6.60572E+00
 -1      5132 1.25912E+01-1.02751E+01 5.53170E+00
 -1      5133 1.25999E+01-1.15057E+01 6.56352E+00
 -1      5134-6.66125E-01 8.21293E+00 7.50009E+00
 -1      5135-6.77510E-01 1.02440E+01 6.25403E+00
 -1      5136-1.34136E+00 9.53989E+00 8.75453E+00
 -1      5137-2.58812E+01 1.98789E+00 8.30207E+00
 -1      5138-2.40565E+01 3.77400E+00 8.75644E+00
 -1      5139 2.61366E+01 7.91835E+00 5.66274E+00
 -1      5140 2.37865E+01 7.32023E+00 5.86689E+00
 -1      5141 2.46319E+01 9.66349E+00 6.09559E+00
 -1      5142-1.71097E+01-5.08293E+00 8.40558E+00
 -1      5143-1.75151E+01-3.60015E+00 6.40140E+00
 -1      5144-1.71661E+01-2.89811E+00 7.99799E+00
 -1      5145-1.55124E+01-2.89452E+00 8.45514E+00
 -1      5146-1.58640E+01-3.59655E+00 6.85936E+00
 -1      5147-3.04113E+01 1.04353E+01 2.11127E+00
 -1      5148-3.12235E+01 1.16217E+01 3.79958E+00
 -1      5149 1.16461E+01-9.76968E+00 3.85978E+00
 -1      5150 1.12225E+01-1.03440E+01 1.64007E+00
 -1      5151 1.07987E+01-1.10079E+01 2.84328E+00
 -1      5152 1.32741E+01-1.04537E+01 3.87030E+00
 -1      5153 6.24428E-01 7.49086E+00 7.50010E+00
 -1      5154 2.64281E+01-5.86584E+00 8.59387E+00
 -1      5155-1.31489E+00-1.08791E+01 8.73865E+00
 -1      5156 1.53492E+01 8.32846E-01 2.54548E+00
 -1      5157 1.53409E+01 2.33224E+00 2.54486E+00
 -1      5158 1.62997E+01 1.60085E+00 2.54456E+00
 -1      5159-2.55035E+01-6.62074E+00 7.94329E+00
 -1      5160-2.56785E+01-7.39057E+00 6.31763E+00
 -1      5161-2.72395E+01-8.09110E+00 8.37472E+00
 -1      5162-2.63316E+01-5.52424E+00 8.62940E+00
 -1      5163-2.65068E+01-6.29411E+00 7.00388E+00
 -1      5164-2.47710E+01-4.82375E+00 6.57235E+00
 -1      5165-2.10454E+01-4.39139E+00 7.50985E+00
 -1      5166-1.97602E+01-5.13042E+00 7.51009E+00
 -1      5167-1.97634E+01-3.64603E+00 7.51002E+00
 -1      5168-1.53163E+01 7.85448E-01 2.50155E+00
 -1      5169-1.53171E+01 2.28309E+00 2.50197E+00
 -1      5170-1.40254E+01 1.53036E+00 2.50316E+00
 -1      5171 1.66628E+01 1.07546E+01 8.23967E+00
 -1      5172 1.61858E+01 9.61347E+00 6.67134E+00
 -1      5173-3.53242E+01 7.70087E-02 7.93781E+00
 -1      5174-3.35094E+01 2.16942E-02 8.38119E+00
 -1      5175 3.42128E+01-5.52293E+00 2.50833E+00
 -1      5176 3.51589E+01-5.51957E+00 4.15075E+00
 -1      5177 3.57643E+01-5.98866E+00 1.64231E+00
 -1      5178 3.40385E+01-4.02303E+00 1.42669E+00
 -1      5179 3.49848E+01-4.01968E+00 3.06907E+00
 -1      5180 3.34333E+01-3.55393E+00 3.93513E+00
 -1      5181-2.35536E+01 1.28446E+01 7.22004E+00
 -1      5182-2.43097E+01 1.28446E+01 5.99698E+00
 -1      5183-2.50362E+01 1.28448E+01 7.22586E+00
 -1      5184 2.99108E+01 4.65883E+00 3.11318E+00
 -1      5185 2.93013E+01 6.57965E+00 1.53645E+00
 -1      5186 3.02553E+01 4.09049E+00 1.57657E+00
 -1      5187 2.92550E+01 2.40857E+00 3.08257E+00
 -1      5188 2.86454E+01 4.32940E+00 1.50582E+00
 -1      5189 2.83011E+01 4.89774E+00 3.04244E+00
 -1      5190 8.70632E+00-1.51473E+00 7.07090E+00
 -1      5191 1.37443E+01 4.88809E-01 1.63162E+00
 -1      5192 1.37352E+01 1.98829E+00 1.63147E+00
 -1      5193 1.41719E+01 1.26757E+00 4.18060E+00
 -1      5194-9.24491E+00 6.48922E-02 6.69345E+00
 -1      5195-8.20141E+00-1.41523E+00 8.64546E+00
 -1      5196-7.12853E+00-1.46195E+00 7.36758E+00
 -1      5197 2.91408E+01 2.91847E+00 8.09924E+00
 -1      5198 3.00235E+01 3.55695E+00 5.57950E+00
 -1      5199 2.99936E+01 4.51782E+00 7.48055E+00
 -1      5200 3.11199E+01 3.54155E+00 8.38969E+00
 -1      5201 3.11499E+01 2.58067E+00 6.48871E+00
 -1      5202 2.00308E+01 4.59172E+00 7.54783E+00
 -1      5203 2.13168E+01 3.85229E+00 7.54756E+00
 -1      5204 2.03543E+01 2.26927E+00 8.39033E+00
 -1      5205 1.99291E+01 3.01037E+00 5.93694E+00
 -1      5206 1.90681E+01 3.00867E+00 8.39059E+00
 -1      5207 1.84564E+01 8.18434E+00 2.01861E+00
 -1      5208 1.84936E+01 8.63656E+00 4.70691E+00
 -1      5209 1.93615E+01 9.93338E+00 2.68653E+00
 -1      5210 1.82383E+01 1.06317E+01 1.62347E+00
 -1      5211 1.82765E+01 1.10839E+01 4.31160E+00
 -1      5212 1.73732E+01 9.33497E+00 3.64377E+00
 -1      5213-2.51276E+01 6.92174E+00 1.56472E+00
 -1      5214-2.38370E+01 6.16524E+00 1.56466E+00
 -1      5215-2.48069E+01 6.16565E+00 4.07345E+00
 -1      5216 3.31881E+01 4.74731E+00 4.72040E+00
 -1      5217-2.72463E+01 1.34279E+01 7.23510E+00
 -1      5218-2.65191E+01 1.34279E+01 6.00625E+00
 -1      5219-2.56058E+01 1.12725E+01 7.00531E+00
 -1      5220-5.61197E+00 7.46846E-02 8.64463E+00
 -1      5221-6.17176E+00 2.49542E-02 6.18555E+00
 -1      5222-3.20084E+01 3.04656E+00 2.48965E+00
 -1      5223-2.21081E+01 1.08371E+01 4.15521E+00
 -1      5224-2.21162E+01 1.02567E+01 1.64641E+00
 -1      5225-2.38371E+01 9.71320E+00 3.21173E+00
 -1      5226-1.21986E+01-3.23397E+00 4.87835E+00
 -1      5227-1.13563E+01-2.92842E+00 3.06672E+00
 -1      5228-1.02257E+01-4.81020E+00 4.34329E+00
 -1      5229-1.17375E+01-5.62278E+00 4.64453E+00
 -1      5230-1.08948E+01-5.31006E+00 2.83285E+00
 -1      5231-1.28949E+01-3.74215E+00 3.37001E+00
 -1      5232 2.44604E+01-6.07823E+00 4.12154E+00
 -1      5233 2.51028E+01-6.39094E+00 1.61583E+00
 -1      5234 2.62300E+01-5.03664E+00 3.15170E+00
 -1      5235-7.12944E+00 1.55717E+00 7.35683E+00
 -1      5236-1.34856E+01-7.71327E+00 8.60661E+00
 -1      5237-2.00900E+01-9.85987E+00 8.02637E+00
 -1      5238-1.91440E+01-9.94807E+00 5.51175E+00
 -1      5239-1.84105E+01-8.74077E+00 7.48720E+00
 -1      5240-1.80421E+01-1.01045E+01 8.44618E+00
 -1      5241-1.70995E+01-1.01930E+01 5.93229E+00
 -1      5242-1.87781E+01-1.13118E+01 6.47129E+00
 -1      5243 3.20397E+01 1.34555E+01 7.25883E+00
 -1      5244 5.58054E+00 1.20846E+01 7.50755E+00
 -1      5245 6.88914E+00 1.06290E+01 8.60337E+00
 -1      5246 2.01610E+01 9.01906E+00 4.40245E+00
 -1      5247 2.01245E+01 8.56683E+00 1.71470E+00
 -1      5248 1.92574E+01 7.27001E+00 3.73448E+00
 -1      5249-3.22148E+01-7.22746E-01 8.38121E+00
 -1      5250-3.26467E+01-2.22875E+00 7.52334E+00
 -1      5251-3.20182E+01-4.10826E+00 5.91221E+00
 -1      5252-3.15904E+01-3.35254E+00 8.38905E+00
 -1      5253-3.15864E+01-2.60224E+00 6.77013E+00
 -1      5254-2.80021E+01-1.09849E+01 1.88183E+00
 -1      5255-2.85002E+01-9.43538E+00 1.54666E+00
 -1      5256-1.61113E+01-5.08032E+00 5.89885E+00
 -1      5257 3.15623E+01-7.78184E+00 8.22337E+00
 -1      5258 3.40558E+01-7.58711E+00 8.33913E+00
 -1      5259 3.79639E+01 8.85551E+00 7.09614E+00
 -1      5260 3.84759E+01 1.13254E+01 7.18905E+00
 -1      5261-2.00623E+01 9.74753E+00 7.50947E+00
 -1      5262-1.81950E+01 1.02984E+01 8.06852E+00
 -1      5263-2.31187E+01 3.72703E+00 1.57892E+00
 -1      5264-2.44101E+01 2.98875E+00 1.57900E+00
 -1      5265-2.40889E+01 3.72746E+00 4.08774E+00
 -1      5266 2.69889E+01 2.23263E-02 6.04646E+00
 -1      5267 2.76040E+01-3.96463E-01 8.54738E+00
 -1      5268 2.57294E+01-1.11082E+00 7.09309E+00
 -1      5269-2.87599E+01 1.08483E+01 2.11123E+00
 -1      5270-2.91100E+01 9.45800E+00 2.11123E+00
 -1      5271-2.76425E+01 8.65638E+00 1.70151E+00
 -1      5272-2.79925E+01 7.26611E+00 1.70152E+00
 -1      5273-2.85368E+01 9.20801E+00 3.81302E+00
 -1      5274 1.65707E+01 7.03690E+00 5.45223E+00
 -1      5275 1.92142E+01 7.23771E+00 5.47557E+00
 -1      5276-1.86262E+01 6.79978E+00 5.96918E+00
 -1      5277-1.82217E+01 6.05948E+00 8.51815E+00
 -1      5278-1.71834E+01 5.26130E+00 7.45334E+00
 -1      5279-1.64684E+01 6.65090E+00 5.94948E+00
 -1      5280-1.75072E+01 7.44901E+00 7.01446E+00
 -1      5281-1.95983E+01-1.05133E+01 1.95050E+00
 -1      5282-2.10970E+01-8.50947E+00 1.86493E+00
 -1      5283-2.16668E+01-1.04535E+01 1.54227E+00
 -1      5284-2.19040E+01-9.87248E+00 3.40807E+00
 -1      5285-2.04057E+01-1.18763E+01 3.49357E+00
 -1      5286-3.12280E+01-5.25181E+00 3.71606E+00
 -1      5287-2.89879E+01-4.74151E+00 4.16530E+00
 -1      5288-3.02329E+01-6.47877E+00 4.55494E+00
 -1      5289-3.04689E+01-7.81791E+00 3.59962E+00
 -1      5290-2.82289E+01-7.30759E+00 4.04886E+00
 -1      5291-2.92237E+01-6.08063E+00 3.20997E+00
 -1      5292-2.40828E+01 7.54330E-01 4.08690E+00
 -1      5293 1.55574E+01 3.58775E+00 1.56215E+00
 -1      5294-1.58253E+01-5.82152E+00 8.40633E+00
 -1      5295 1.02662E+01 5.25431E-01 4.43481E+00
 -1      5296 1.08472E+01-1.43144E+00 4.37089E+00
 -1      5297 8.53165E+00-8.31853E-01 5.13800E+00
 -1      5298-3.37339E+01 4.38928E+00 8.46253E+00
 -1      5299-2.78500E+01 2.78142E+00 4.71424E+00
 -1      5300-2.98039E+01 4.20936E+00 4.58859E+00
 -1      5301-1.39590E+01 9.14212E+00 7.46827E+00
 -1      5302-1.20387E+01 8.50024E+00 5.78105E+00
 -1      5303-1.22918E+01 8.33286E+00 8.31017E+00
 -1      5304-1.47827E+01 8.13716E+00 8.49900E+00
 -1      5305-1.28610E+01 7.49601E+00 6.80787E+00
 -1      5306-1.45238E+01 8.30465E+00 5.96388E+00
 -1      5307-3.35108E+01 6.86293E+00 1.65691E+00
 -1      5308 5.85896E-01 1.26653E+01 7.49996E+00
 -1      5309-6.76435E-01 1.20025E+01 8.75444E+00
 -1      5310 3.57591E+01-4.48330E+00 1.64230E+00
 -1      5311 3.40333E+01-2.51768E+00 1.42669E+00
 -1      5312 2.01218E+01 5.32435E+00 2.54611E+00
 -1      5313 1.91428E+01 4.05699E+00 1.71679E+00
 -1      5314-1.75803E+01 4.51886E+00 5.88996E+00
 -1      5315-1.86201E+01 5.31707E+00 6.95528E+00
 -1      5316-2.91019E+01 7.26931E-01 2.14866E+00
 -1      5317-2.95077E+01 2.96928E+00 1.51500E+00
 -1      5318-1.88813E+01-2.90227E+00 5.50579E+00
 -1      5319-1.84506E+01-2.15909E+00 7.99749E+00
 -1      5320-1.83944E+01-4.34389E+00 8.40509E+00
 -1      5321-1.88262E+01-5.08702E+00 5.91368E+00
 -1      5322 3.02523E+01 2.60105E+00 1.57656E+00
 -1      5323 2.86424E+01 2.83996E+00 1.50582E+00
 -1      5324 2.19753E+01 3.57321E+00 4.14433E+00
 -1      5325 2.24876E+01 3.55400E+00 1.59723E+00
 -1      5326-3.60507E+01 3.04860E+00 1.81470E+00
 -1      5327-2.75202E+01-5.18400E+00 7.50237E+00
 -1      5328-2.88114E+01-5.94401E+00 7.50232E+00
 -1      5329-2.75293E+01-6.64485E+00 7.50237E+00
 -1      5330-1.39255E+01-4.43446E+00 2.49209E+00
 -1      5331-1.52158E+01-5.18380E+00 2.49158E+00
 -1      5332 1.65173E+01 2.85679E+00 1.56250E+00
 -1      5333 1.59953E+01 2.86889E+00 4.10929E+00
 -1      5334-1.32160E+01 7.37238E-02 1.79775E+00
 -1      5335-1.45096E+01-6.70129E-01 1.80000E+00
 -1      5336-1.41530E+01 9.95674E-02 4.30503E+00
 -1      5337-8.77236E+00-6.27879E+00 5.73414E+00
 -1      5338-9.27972E+00-4.80633E+00 5.26597E+00
 -1      5339-7.24978E+00-3.73646E+00 5.91331E+00
 -1      5340-2.77939E+01 1.06568E+01 4.61099E+00
 -1      5341 3.77502E+01 3.67309E+00 4.74209E+00
 -1      5342 3.83135E+01 2.07879E+00 5.47821E+00
 -1      5343 3.16775E+01-8.96185E+00 8.22337E+00
 -1      5344-2.05212E+01 2.28469E+00 2.50825E+00
 -1      5345-2.05229E+01 7.94072E-01 2.50826E+00
 -1      5346-1.95337E+01 3.17906E+00 1.53871E+00
 -1      5347-1.95355E+01 1.68842E+00 1.53864E+00
 -1      5348-1.92193E+01 2.44254E+00 4.04818E+00
 -1      5349-2.77038E+01-7.41472E+00 5.87670E+00
 -1      5350-2.67963E+01-4.84786E+00 6.13142E+00
 -1      5351-8.53926E+00 1.09081E+01 8.19220E+00
 -1      5352-1.22543E+01-6.37646E-01 4.84460E+00
 -1      5353-1.38127E+01-1.38232E+00 5.25781E+00
 -1      5354 3.06437E+01 1.05905E+01 8.52655E+00
 -1      5355 2.98098E+01 1.20403E+01 7.09770E+00
 -1      5356 3.01385E+01 1.09101E+01 6.00762E+00
 -1      5357 3.61095E+01 1.21405E+01 8.47961E+00
 -1      5358 3.51717E+01 1.11863E+01 7.53544E+00
 -1      5359 3.33660E+01 1.20994E+01 8.52648E+00
 -1      5360 3.36288E+01 6.22107E-01 7.46713E+00
 -1      5361 3.49143E+01 6.94403E-01 5.44319E+00
 -1      5362 3.53416E+01 1.07740E+00 7.97620E+00
 -1      5363 3.39690E+01-6.70166E-01 8.29541E+00
 -1      5364 3.52546E+01-5.97876E-01 6.27150E+00
 -1      5365 3.35419E+01-1.05317E+00 5.76240E+00
 -1      5366-3.15426E+01 8.87925E+00 8.61366E+00
 -1      5367-3.20009E+01 8.19540E+00 6.17461E+00
 -1      5368-3.28718E+01 1.01541E+01 6.91766E+00
 -1      5369-1.45818E+01 8.15776E-01 7.50635E+00
 -1      5370-1.42342E+01-6.66276E-01 8.45623E+00
 -1      5371 3.96281E+00 1.21935E+01 7.50148E+00
 -1      5372-3.60213E+01-1.10184E+01 4.04691E+00
 -1      5373-3.84833E+01-1.04287E+01 4.07217E+00
 -1      5374-3.75380E+01-9.50621E+00 5.05403E+00
 -1      5375-3.54934E+01-8.61919E+00 4.14126E+00
 -1      5376-3.79553E+01-8.02945E+00 4.16652E+00
 -1      5377-3.64386E+01-9.54164E+00 3.15940E+00
 -1      5378-1.87628E+01 8.60912E-01 4.00137E+00
 -1      5379-1.90785E+01 1.06899E-01 1.49170E+00
 -1      5380-1.77772E+01 1.75527E+00 3.03162E+00
 -1      5381-1.32151E+01-2.92110E+00 1.79008E+00
 -1      5382-3.48294E+01 4.41785E+00 6.96353E+00
 -1      5383-1.15175E+01-3.74215E+00 2.38468E-01
 -1      5384-1.16817E+01-2.17777E+00 2.03213E+00
 -1      5385-1.27507E+01-5.31185E+00 1.55502E+00
 -1      5386-1.12374E+01-4.56969E+00 1.78441E+00
 -1      5387 2.13130E+01 5.33669E+00 7.54758E+00
 -1      5388 3.51056E+01-1.11723E+01 7.51996E+00
 -1      5389 3.31779E+01-1.05573E+01 8.54154E+00
 -1      5390 3.33444E+01-1.20900E+01 8.54152E+00
 -1      5391-3.31758E+01 1.53863E+00 4.11293E+00
 -1      5392-3.12518E+01 1.47945E+00 4.63860E+00
 -1      5393-3.16578E+01 3.72183E+00 4.00487E+00
 -1      5394-1.50879E+01 5.90084E+00 5.03592E+00
 -1      5395-2.55788E+01 1.24569E+01 4.99860E+00
 -1      5396-2.46655E+01 1.03015E+01 5.99756E+00
 -1      5397-1.64959E+01 9.44292E-02 1.49160E+00
 -1      5398-1.64956E+01 1.59215E+00 1.49166E+00
 -1      5399-1.61382E+01 8.64880E-01 3.99547E+00
 -1      5400 3.84836E+01-1.04427E+01 5.97262E+00
 -1      5401 3.65393E+01-9.51101E+00 6.80783E+00
 -1      5402 3.80556E+01-7.97676E+00 5.84293E+00
 -1      5403 3.86988E+01-8.93083E+00 4.21342E+00
 -1      5404 3.67545E+01-7.99917E+00 5.04861E+00
 -1      5405 3.71825E+01-1.04651E+01 5.17831E+00
 -1      5406-2.89851E+01 7.32876E+00 4.26264E+00
 -1      5407-2.95584E+01 7.57876E+00 2.56082E+00
 -1      5408-2.95054E+01 5.95591E+00 1.51500E+00
 -1      5409-3.04979E+01 6.01855E+00 4.07608E+00
 -1      5410-2.12159E+01-5.77531E+00 8.45990E+00
 -1      5411-1.99301E+01-6.51431E+00 8.46012E+00
 -1      5412-2.03642E+01-5.77302E+00 5.96881E+00
 -1      5413-2.93119E+01-5.47986E+00 1.66310E+00
 -1      5414-2.83172E+01-6.70681E+00 2.50190E+00
 -1      5415-2.85528E+01-8.04592E+00 1.54666E+00
 -1      5416 3.87858E+01 1.05454E+01 8.70949E+00
 -1      5417 3.67496E+01 8.74327E+00 8.38669E+00
 -1      5418 3.72616E+01 1.12131E+01 8.47961E+00
 -1      5419-2.53999E+01-1.70756E+00 1.38743E+00
 -1      5420-2.66840E+01-9.67117E-01 1.38748E+00
 -1      5421-2.63544E+01-1.70810E+00 3.89530E+00
 -1      5422-1.38140E+01 1.28139E+00 8.85370E+00
 -1      5423-1.50981E+01 2.02082E+00 8.85293E+00
 -1      5424-1.41965E+01 2.02213E+00 6.35837E+00
 -1      5425-3.20866E+01 4.46898E+00 1.51506E+00
 -1      5426-1.90001E+01-7.99302E+00 5.94587E+00
 -1      5427-1.99449E+01-7.90472E+00 8.46012E+00
 -1      5428-2.06798E+01-9.11202E+00 6.48525E+00
 -1      5429-3.84833E+01-1.12997E+01 2.82884E+00
 -1      5430-3.79553E+01-8.90045E+00 2.92319E+00
 -1      5431-3.18826E+01-1.35503E+01 4.53198E+00
 -1      5432-3.27235E+01-1.12923E+01 5.59740E+00
 -1      5433-1.77881E+01 8.49086E-01 1.49163E+00
 -1      5434-1.82450E+01 2.43065E+00 1.53849E+00
 -1      5435 2.63600E+01-1.27199E+00 8.13019E+00
 -1      5436 2.44859E+01-1.98636E+00 6.67584E+00
 -1      5437 3.29048E+01-4.76719E+00 2.50831E+00
 -1      5438 3.27305E+01-3.26731E+00 1.42668E+00
 -1      5439 2.19032E+01 1.19392E+01 8.40995E+00
 -1      5440 2.17015E+01 1.33523E+01 7.14127E+00
 -1      5441 2.10114E+01 1.10452E+01 6.09686E+00
 -1      5442-1.00309E+01 1.09100E+01 4.47715E+00
 -1      5443-1.22093E+01 1.03098E+01 5.65258E+00
 -1      5444-1.15126E+01 9.90963E+00 3.75123E+00
 -1      5445-9.89052E+00 9.09863E+00 4.62192E+00
 -1      5446-1.05405E+01 9.50280E+00 6.50653E+00
 -1      5447-1.54599E+01-1.38581E+00 4.79828E+00
 -1      5448-1.61667E+01-2.89543E+00 5.49073E+00
 -1      5449-1.80321E+01-2.09348E+00 4.43926E+00
 -1      5450 3.62368E+01-9.51912E+00 4.22944E+00
 -1      5451-2.07612E+01-1.38786E+01 8.74027E+00
 -1      5452-1.92746E+01-1.38786E+01 8.73994E+00
 -1      5453-1.93130E+01-1.30334E+01 6.76532E+00
 -1      5454-2.07876E+01-1.19123E+01 8.02631E+00
 -1      5455-2.07985E+01-1.30333E+01 6.76558E+00
 -1      5456-2.77252E+01-3.54218E+00 8.28152E+00
 -1      5457-2.90166E+01-4.30217E+00 8.28147E+00
 -1      5458-2.81985E+01-4.32663E+00 5.78349E+00
 -1      5459-1.26791E+01 9.88553E+00 7.47147E+00
 -1      5460-1.10109E+01 9.07703E+00 8.31312E+00
 -1      5461 2.29457E+01 1.02790E+01 4.18182E+00
 -1      5462 2.21276E+01 1.09189E+01 1.66345E+00
 -1      5463 2.29412E+01 9.52129E+00 2.51747E+00
 -1      5464 2.23419E+01 8.26694E+00 4.23320E+00
 -1      5465 2.15235E+01 8.90691E+00 1.71477E+00
 -1      5466 2.15292E+01 9.66454E+00 3.37900E+00
 -1      5467-1.53338E+01-5.91414E-01 3.29323E+00
 -1      5468-1.64968E+01-1.40490E+00 1.49167E+00
 -1      5469-1.79057E+01-1.29894E+00 2.93502E+00
 -1      5470-3.05310E+01-4.71451E+00 1.66313E+00
 -1      5471-3.17764E+01-6.45177E+00 2.05275E+00
 -1      5472-2.97719E+01-7.28058E+00 1.54670E+00
 -1      5473 2.57451E+01-8.53211E-01 5.62913E+00
 -1      5474 2.96958E+01 6.05577E+00 5.62506E+00
 -1      5475 2.88131E+01 5.41728E+00 8.14481E+00
 -1      5476 2.88433E+01 4.45641E+00 6.24380E+00
 -1      5477-1.11822E+01 1.08848E+01 8.18463E+00
 -1      5478-2.41320E+01-1.02773E+01 2.47766E+00
 -1      5479-2.60762E+01-1.08196E+01 4.36001E+00
 -1      5480-2.55237E+01-1.12033E+01 1.88169E+00
 -1      5481-2.30259E+01-1.12389E+01 1.54236E+00
 -1      5482-2.49708E+01-1.17811E+01 3.42459E+00
 -1      5483-2.35793E+01-1.08551E+01 4.02070E+00
 -1      5484 3.56436E+01 1.37577E+01 1.28762E+00
 -1      5485 3.38070E+01 1.32859E+01 3.17748E+00
 -1      5486 3.37573E+01 1.20435E+01 1.88981E+00
 -1      5487 3.62740E+01 1.22220E+01 1.53619E+00
 -1      5488 3.44375E+01 1.17502E+01 3.42606E+00
 -1      5489 3.63238E+01 1.34644E+01 2.82385E+00
 -1      5490-2.63225E+01-4.06340E+00 8.62940E+00
 -1      5491-3.51462E+01 7.62972E+00 1.56286E+00
 -1      5492-2.01309E+01-1.10421E+01 8.02646E+00
 -1      5493-1.80829E+01-1.12867E+01 8.44617E+00
 -1      5494-1.52444E+01 3.75634E+00 1.53638E+00
 -1      5495-1.39545E+01 3.00306E+00 1.53703E+00
 -1      5496-1.48886E+01 3.02856E+00 4.04197E+00
 -1      5497-2.18323E+01 2.98059E+00 1.57882E+00
 -1      5498-2.15158E+01 2.24405E+00 4.08803E+00
 -1      5499-2.18340E+01 1.49001E+00 1.57880E+00
 -1      5500-3.36078E+01 7.93207E-01 1.62311E+00
 -1      5501-9.29315E+00-3.31054E+00 5.27489E+00
 -1      5502-9.34115E+00-7.10188E-01 5.23572E+00
 -1      5503-7.24042E+00-2.23716E+00 5.89886E+00
 -1      5504-3.72291E+01-1.12129E+01 1.53250E+00
 -1      5505-3.87458E+01-1.05717E+01 1.29630E+00
 -1      5506-3.67011E+01-8.81365E+00 1.62685E+00
 -1      5507-1.74470E+01-6.20858E-01 4.48914E+00
 -1      5508-2.82878E+01-5.18898E+00 2.50189E+00
 -1      5509-2.92825E+01-3.96204E+00 1.66309E+00
 -1      5510-3.02959E+01-5.57580E+00 8.38908E+00
 -1      5511-2.94775E+01-5.60026E+00 5.89113E+00
 -1      5512-2.96829E+01-3.95842E+00 6.67035E+00
 -1      5513-1.83911E+01-5.82834E+00 8.40510E+00
 -1      5514 1.69896E+01 8.54708E+00 2.01862E+00
 -1      5515 1.67711E+01 1.09944E+01 1.62365E+00
 -1      5516 1.57052E+01 8.96998E+00 1.43210E+00
 -1      5517 1.60914E+01 9.75831E+00 3.05730E+00
 -1      5518 1.63093E+01 7.31062E+00 3.45285E+00
 -1      5519 1.12561E+01-1.00232E+01 8.08635E+00
 -1      5520 3.80556E+01-8.84875E+00 7.04848E+00
 -1      5521 3.84836E+01-1.13147E+01 7.17816E+00
 -1      5522-1.39339E+01 7.05993E+00 5.07967E+00
 -1      5523-2.35457E+01 5.37818E+00 3.14404E+00
 -1      5524-2.22982E+01-3.59486E+00 8.43718E+00
 -1      5525-2.14454E+01-3.59260E+00 5.94606E+00
 -1      5526-2.10153E+01-2.84950E+00 8.43736E+00
 -1      5527 3.77502E+01 5.19150E+00 4.72607E+00
 -1      5528 3.79640E+01 6.54900E+00 5.87272E+00
 -1      5529 2.88849E+01-6.22158E+00 7.51118E+00
 -1      5530 3.02586E+01-7.25765E+00 8.22341E+00
 -1      5531 3.03045E+01-5.87132E+00 8.22342E+00
 -1      5532 2.97506E+01-6.39848E+00 5.73431E+00
 -1      5533 3.38138E+01-7.00814E+00 1.69309E+00
 -1      5534 3.25058E+01-6.25241E+00 1.69307E+00
 -1      5535 3.32086E+01-6.53905E+00 4.20154E+00
 -1      5536-3.59462E+01-1.18835E+00 8.54177E+00
 -1      5537 3.87361E+01-1.05162E+01 8.70942E+00
 -1      5538 3.67917E+01-8.71252E+00 8.33910E+00
 -1      5539 3.72197E+01-1.11785E+01 8.46878E+00
 -1      5540-3.15285E+01-3.24951E+00 4.18644E+00
 -1      5541-3.05464E+01-3.17570E+00 1.66313E+00
 -1      5542-3.20924E+01-2.91067E+00 2.52310E+00
 -1      5543-3.32776E+01-1.47756E+00 4.14638E+00
 -1      5544-3.22957E+01-1.40377E+00 1.62309E+00
 -1      5545-3.17319E+01-1.74261E+00 3.28636E+00
 -1      5546-3.49978E+01 1.54450E+00 3.43791E+00
 -1      5547 2.25526E+01-7.04256E+00 8.39911E+00
 -1      5548 2.13171E+01-7.28667E+00 6.39127E+00
 -1      5549 2.05220E+01-6.03782E+00 7.99302E+00
 -1      5550 2.13642E+01-4.65796E+00 8.41408E+00
 -1      5551 2.01298E+01-4.90210E+00 6.40632E+00
 -1      5552 2.21596E+01-5.90683E+00 6.81253E+00
 -1      5553 1.78789E+01 1.82358E+00 1.71674E+00
 -1      5554 1.73541E+01 1.83587E+00 4.26299E+00
 -1      5555 1.59247E+01 1.25278E-01 1.63154E+00
 -1      5556 1.54031E+01 1.37700E-01 4.17892E+00
 -1      5557 1.69825E+01 3.60420E-01 3.34954E+00
 -1      5558 6.64081E-01 9.19858E+00 7.50006E+00
 -1      5559 2.37678E+01 1.31089E+00 1.59738E+00
 -1      5560 2.43642E+01 1.77055E+00 4.09672E+00
 -1      5561 2.60605E+01 1.35814E+00 1.50571E+00
 -1      5562 2.53529E+01 2.60022E+00 3.10350E+00
 -1      5563-1.09080E-02 1.05255E+01 8.75444E+00
 -1      5564-2.36910E+01-1.38772E+01 8.72228E+00
 -1      5565-2.22210E+01-1.38771E+01 8.74003E+00
 -1      5566-2.22473E+01-1.19107E+01 8.02596E+00
 -1      5567-2.22673E+01-1.30333E+01 6.74760E+00
 -1      5568-1.40431E+01-6.05914E+00 1.56361E+00
 -1      5569-1.35980E+01-5.25078E+00 4.06166E+00
 -1      5570-3.17177E+01-6.11057E+00 5.44182E+00
 -1      5571-3.13575E+01-8.61903E+00 4.75290E+00
 -1      5572-3.32317E+01-7.30065E+00 5.59800E+00
 -1      5573 1.21409E+01 1.32430E+01 5.24073E+00
 -1      5574 1.38763E+01 1.25051E+01 4.79223E+00
 -1      5575 1.39327E+01 1.10229E+01 4.02214E+00
 -1      5576 1.29966E+01 1.35167E+01 3.88234E+00
 -1      5577 1.21966E+01 1.17613E+01 4.47034E+00
 -1      5578-1.37990E+01-6.49215E+00 5.25648E+00
 -1      5579-3.32969E+01-2.17544E+00 2.52312E+00
 -1      5580-3.35002E+01-6.68543E-01 1.62310E+00
 -1      5581-1.65770E+01-4.37225E+00 1.60060E+00
 -1      5582-1.61219E+01-5.06806E+00 4.09485E+00
 -1      5583-1.65731E+01-5.87642E+00 1.60097E+00
 -1      5584-2.82912E+01 5.51956E+00 4.77516E+00
 -1      5585 2.42492E+01 9.15887E+00 2.51753E+00
 -1      5586 2.28314E+01 8.54447E+00 1.71487E+00
 -1      5587-1.80930E+01 8.83899E+00 8.51812E+00
 -1      5588-1.83711E+01 9.38201E+00 6.58512E+00
 -1      5589-1.67982E+01 1.06232E+01 8.06916E+00
 -1      5590-1.59324E+01 8.69020E+00 8.49801E+00
 -1      5591-1.62127E+01 9.23337E+00 6.56539E+00
 -1      5592 2.96282E+01-4.31963E+00 5.81213E+00
 -1      5593 3.10020E+01-5.35570E+00 6.52441E+00
 -1      5594 3.01819E+01-3.79248E+00 8.30121E+00
 -1      5595-3.27340E+01-3.70735E+00 1.40524E+00
 -1      5596-3.39385E+01-2.97213E+00 1.40525E+00
 -1      5597-3.37159E+01-3.78116E+00 3.92850E+00
 -1      5598-1.98552E+01-1.81273E+00 8.58019E+00
 -1      5599-2.02863E+01-2.55587E+00 6.08899E+00
 -1      5600-1.89747E+01-1.06895E+00 6.57651E+00
 -1      5601-1.77905E+01 1.37168E+01 8.74027E+00
 -1      5602-1.74288E+01 1.17999E+01 8.06887E+00
 -1      5603-3.15919E+01-4.86475E+00 8.38905E+00
 -1      5604-2.14529E+01 1.00889E+01 7.50926E+00
 -1      5605-2.27474E+01 1.04014E+01 8.49831E+00
 -1      5606 1.92790E+01 1.37169E+01 8.73252E+00
 -1      5607 1.73020E+01 1.22370E+01 8.23940E+00
 -1      5608-3.07389E+01-2.83464E+00 5.80456E+00
 -1      5609-3.03072E+01-1.32862E+00 6.66250E+00
 -1      5610-3.30854E+01 4.62498E+00 4.14672E+00
 -1      5611-3.49075E+01 4.63084E+00 3.47171E+00
 -1      5612-3.35144E+01 5.37214E+00 1.65691E+00
 -1      5613 3.29132E+01-6.97970E+00 8.22336E+00
 -1      5614 3.23659E+01-6.24418E+00 5.73172E+00
 -1      5615 3.41549E+01-5.78935E+00 7.50850E+00
 -1      5616 3.54068E+01-6.78497E+00 8.33912E+00
 -1      5617 3.48593E+01-6.04945E+00 5.84750E+00
 -1      5618-2.98167E+01-9.00929E+00 1.54671E+00
 -1      5619-3.19009E+01-1.07362E+01 2.03829E+00
 -1      5620 2.58519E+01-8.40022E+00 4.15048E+00
 -1      5621 2.46521E+01-9.09817E+00 5.93323E+00
 -1      5622 2.46834E+01-1.05175E+01 4.10441E+00
 -1      5623 1.75149E+01 4.43215E-02 1.47501E+00
 -1      5624 1.66197E+01-1.41891E+00 3.10799E+00
 -1      5625 1.85727E+01 2.79471E-01 3.19305E+00
 -1      5626-1.78800E+01-6.62759E+00 1.60103E+00
 -1      5627-1.74735E+01-7.29490E+00 4.08770E+00
 -1      5628-1.94072E+01-6.84457E+00 3.46696E+00
 -1      5629 3.37533E+01 1.02910E+01 7.53545E+00
 -1      5630 3.19476E+01 1.12041E+01 8.52651E+00
 -1      5631-3.54233E+01-1.35046E+01 5.95166E+00
 -1      5632-3.63064E+01-1.35046E+01 7.17753E+00
 -1      5633-3.33731E+01-1.27421E+01 6.04441E+00
 -1      5634-3.42562E+01-1.27421E+01 7.27028E+00
 -1      5635-3.48647E+01-1.12466E+01 7.02527E+00
 -1      5636-2.91174E+01-8.10872E+00 5.20217E+00
 -1      5637-2.59678E+01-5.94433E+00 5.44513E+00
 -1      5638 2.17188E+01 3.18612E+00 5.89940E+00
 -1      5639 2.21454E+01 2.44495E+00 8.35284E+00
 -1      5640 2.07576E+01 1.60304E+00 6.74242E+00
 -1      5641-3.55229E+01-5.60279E+00 8.10339E+00
 -1      5642-3.44015E+01-6.80558E+00 8.54518E+00
 -1      5643-3.31060E+01-6.05483E+00 8.54519E+00
 -1      5644-3.51114E+01-6.40940E+00 6.64848E+00
 -1      5645-9.87243E+00 1.01919E+01 8.18771E+00
 -1      5646-2.69596E+01-1.20420E+01 1.88177E+00
 -1      5647-2.56164E+01-1.33727E+01 3.16010E+00
 -1      5648-2.51077E+01-1.36691E+01 1.27796E+00
 -1      5649-2.44615E+01-1.20775E+01 1.54245E+00
 -1      5650-2.31196E+01-1.34082E+01 2.82046E+00
 -1      5651 2.50781E+01-3.49783E+00 8.13027E+00
 -1      5652 2.44982E+01-3.97778E+00 5.63560E+00
 -1      5653 2.37537E+01-4.78105E+00 7.50604E+00
 -1      5654 2.37403E+01-2.78964E+00 8.54606E+00
 -1      5655 2.31616E+01-3.26955E+00 6.05146E+00
 -1      5656-2.44519E+01-1.35938E+01 7.28302E+00
 -1      5657-2.30085E+01-1.16272E+01 6.58656E+00
 -1      5658-2.44330E+01-1.24709E+01 8.56121E+00
 -1      5659 3.32641E+01 1.05242E+01 1.88980E+00
 -1      5660 3.34985E+01 1.08282E+01 4.42522E+00
 -1      5661 3.48418E+01 9.78064E+00 2.53531E+00
 -1      5662 3.57808E+01 1.07027E+01 1.53618E+00
 -1      5663 3.60151E+01 1.10067E+01 4.07158E+00
 -1      5664 2.20731E+01-4.39160E+00 5.91931E+00
 -1      5665 2.26514E+01-3.91168E+00 8.41394E+00
 -1      5666 2.20602E+01-2.40018E+00 6.95958E+00
 -1      5667 2.24667E+01-5.52734E+00 7.50617E+00
 -1      5668 2.38534E+01-5.86426E+00 8.59404E+00
 -1      5669 2.51409E+01-5.11799E+00 8.59397E+00
 -1      5670 2.45614E+01-5.59791E+00 6.09939E+00
 -1      5671-3.05643E+01-1.72029E+00 1.66313E+00
 -1      5672-2.98080E+01-1.80180E+00 3.81203E+00
 -1      5673-2.51471E+01-7.93285E+00 8.64114E+00
 -1      5674-2.35871E+01-7.23232E+00 6.58411E+00
 -1      5675-2.53225E+01-8.70271E+00 7.01560E+00
 -1      5676 3.60512E+01-1.21182E+01 8.46878E+00
 -1      5677-1.10071E+01 7.59249E+00 8.31463E+00
 -1      5678-1.34993E+01 7.39716E+00 8.49988E+00
 -1      5679 3.54830E+01 1.36440E+01 8.71129E+00
 -1      5680 1.41085E+01 5.63268E+00 8.46001E+00
 -1      5681 2.35039E+01 8.09286E+00 3.15131E+00
 -1      5682 2.49208E+01 8.70733E+00 3.95414E+00
 -1      5683 2.21661E+01 6.66964E+00 3.47278E+00
 -1      5684 2.35827E+01 7.28405E+00 4.27563E+00
 -1      5685 2.47452E+01 7.10999E+00 3.19380E+00
 -1      5686-2.05725E+01 1.35828E+01 4.29521E+00
 -1      5687 1.49739E+01-6.42720E-01 1.63150E+00
 -1      5688 1.38017E+01-2.07548E-01 3.26734E+00
 -1      5689-3.32818E+01-1.35502E+01 4.52379E+00
 -1      5690-3.47735E+01-1.20548E+01 5.50466E+00
 -1      5691 1.04800E+01-6.61878E+00 4.32936E+00
 -1      5692 9.61685E+00-7.87874E+00 4.98417E+00
 -1      5693-2.93003E+01-1.33730E+01 4.37562E+00
 -1      5694-2.85674E+01-1.33729E+01 3.16035E+00
 -1      5695-3.11497E+01-1.35503E+01 3.31672E+00
 -1      5696 3.20836E+01-1.34602E+01 7.27373E+00
 -1      5697-5.85405E+00 1.34992E+01 5.92043E+00
 -1      5698-5.28517E+00 1.34984E+01 6.75788E+00
 -1      5699-5.82298E+00 1.39859E+01 9.24253E+00
 -1      5700-4.54276E+00 1.35611E+01 9.23869E+00
 -1      5701 2.99165E+01 6.15216E+00 4.01691E+00
 -1      5702 3.08704E+01 3.66298E+00 4.05702E+00
 -1      5703 2.92607E+01 3.90189E+00 3.98630E+00
 -1      5704 3.77502E+01 4.41917E+00 3.53902E+00
 -1      5705 3.64526E+01 4.42160E+00 2.23995E+00
 -1      5706 3.87025E+01 4.50244E+00 1.29900E+00
 -1      5707 3.78422E+01 3.00009E+00 2.70518E+00
 -1      5708 3.65446E+01 3.00251E+00 1.40614E+00
 -1      5709 3.55925E+01 2.91924E+00 3.64617E+00
 -1      5710-1.66280E+01 6.00112E+00 2.45081E+00
 -1      5711 1.01203E+01-1.08329E+01 4.49141E+00
 -1      5712 9.64613E+00-9.29365E+00 4.94067E+00
 -1      5713-2.85218E+01-7.39026E+00 8.37467E+00
 -1      5714-6.86576E+00-1.11826E+01 8.68435E+00
 -1      5715 7.12230E+00-3.70591E-02 8.64630E+00
 -1      5716 3.75380E+01 1.06379E+01 5.03508E+00
 -1      5717 3.84759E+01 1.15921E+01 5.97928E+00
 -1      5718-2.32911E+01 1.08234E+01 1.64649E+00
 -1      5719-2.37178E+01 8.92649E+00 1.56457E+00
 -1      5720 1.28415E+01 3.40319E+00 8.46148E+00
 -1      5721 1.83838E+01 4.47282E+00 8.34914E+00
 -1      5722 1.92452E+01 4.47450E+00 5.89546E+00
 -1      5723 1.82842E+01 2.89148E+00 6.73864E+00
 -1      5724 3.15363E+01 3.51109E-01 1.57659E+00
 -1      5725 3.00534E+01 4.63760E-01 3.62353E+00
 -1      5726 3.07249E+01-1.35478E+00 2.04678E+00
 -1      5727 3.27336E+01-1.76073E+00 1.42668E+00
 -1      5728 3.12505E+01-1.64809E+00 3.47360E+00
 -1      5729 3.20619E+01 5.78037E-02 3.00338E+00
 -1      5730-2.42037E+01-5.90248E+00 7.94342E+00
 -1      5731-2.38471E+01-7.21458E+00 8.64122E+00
 -1      5732-2.52114E+01 9.44317E+00 7.49995E+00
 -1      5733-2.48937E+01 8.66385E+00 5.84055E+00
 -1      5734-2.41696E+01 8.19330E+00 8.34118E+00
 -1      5735-2.58566E+01 7.83665E+00 8.37064E+00
 -1      5736-2.55391E+01 7.05734E+00 6.71137E+00
 -1      5737-2.10572E+01 6.20532E-02 4.23316E+00
 -1      5738-2.13752E+01-6.91977E-01 1.72387E+00
 -1      5739-1.96148E+01-6.25126E-01 3.21645E+00
 -1      5740 1.87674E+01-7.00489E-01 1.47509E+00
 -1      5741 1.93857E+01-1.12646E+00 3.97579E+00
 -1      5742 2.00496E+01-1.45570E+00 1.47517E+00
 -1      5743 1.16603E+01-4.28492E+00 7.88594E+00
 -1      5744 1.06718E+01-4.28777E+00 6.30600E+00
 -1      5745 1.04921E+01-2.84760E+00 8.41674E+00
 -1      5746 1.30804E+01-2.83946E+00 8.72071E+00
 -1      5747 1.20920E+01-2.84226E+00 7.13449E+00
 -1      5748 1.32538E+01-4.28059E+00 6.59946E+00
 -1      5749-2.80853E+01 7.25408E-01 3.78954E+00
 -1      5750-2.75535E+01 1.54137E+00 1.64059E+00
 -1      5751 2.27751E+01 5.91952E+00 8.34921E+00
 -1      5752 2.23518E+01 5.17620E+00 5.89574E+00
 -1      5753 2.27790E+01 4.43511E+00 8.34921E+00
 -1      5754-3.39193E+01-2.27425E+00 3.02844E+00
 -1      5755-2.27703E+01 6.06855E-02 5.03636E+00
 -1      5756-2.44834E+01 5.70263E-02 5.81980E+00
 -1      5757-2.32291E+01 2.24266E+00 4.89123E+00
 -1      5758 2.64774E+01 1.82474E+00 8.46731E+00
 -1      5759 2.51885E+01 2.56535E+00 8.46738E+00
 -1      5760 2.58627E+01 2.24352E+00 5.96633E+00
 -1      5761 6.24494E-01 1.37170E+01 8.58242E+00
 -1      5762-5.16676E-02 1.32854E+01 7.33647E+00
 -1      5763 2.94374E+01-5.95360E-01 2.04673E+00
 -1      5764 3.02487E+01 1.11053E+00 1.57656E+00
 -1      5765-2.50316E+01-4.80598E+00 8.62951E+00
 -1      5766-3.75384E+01 1.06374E+01 4.97342E+00
 -1      5767-3.75384E+01 9.49711E+00 4.97044E+00
 -1      5768-3.84899E+01 1.15721E+01 4.01876E+00
 -1      5769-3.84899E+01 1.04318E+01 4.01578E+00
 -1      5770-3.60283E+01 1.10205E+01 3.99394E+00
 -1      5771 3.84771E+01 1.04225E+01 4.03514E+00
 -1      5772 3.84771E+01 1.15599E+01 4.03592E+00
 -1      5773 1.10482E+01-2.10776E+00 6.33940E+00
 -1      5774 1.04940E+01-1.36774E+00 8.41691E+00
 -1      5775 1.84702E+01 6.47141E+00 2.01859E+00
 -1      5776 1.92398E+01 5.74046E+00 4.56628E+00
 -1      5777 2.01382E+01 6.85393E+00 1.71469E+00
 -1      5778 2.09077E+01 6.12303E+00 4.26202E+00
 -1      5779 3.83135E+01-1.75160E-01 6.67712E+00
 -1      5780 3.64164E+01-5.30627E-01 4.87247E+00
 -1      5781 3.81028E+01-1.85548E+00 5.59733E+00
 -1      5782 3.83596E+01-2.58782E+00 7.12562E+00
 -1      5783 3.64624E+01-2.94331E+00 5.32098E+00
 -1      5784 3.66731E+01-1.26298E+00 6.40079E+00
 -1      5785 1.48823E+01 1.35202E+01 5.56360E+00
 -1      5786 1.49373E+01 1.20373E+01 4.79369E+00
 -1      5787-1.56485E+01 1.00703E+01 8.06979E+00
 -1      5788-1.40095E+01 1.05812E+01 8.18464E+00
 -1      5789-1.54393E+01 1.16772E+01 6.25087E+00
 -1      5790-1.45757E+01 9.74461E+00 6.68094E+00
 -1      5791 2.32608E+01-6.77619E+00 5.90443E+00
 -1      5792 2.12304E+01-5.77146E+00 5.49796E+00
 -1      5793 6.01856E-01-1.37658E+01 8.58248E+00
 -1      5794 5.62349E-01-1.27473E+01 7.49994E+00
 -1      5795-4.33529E-02-1.32628E+01 7.32072E+00
 -1      5796-6.90829E-01-1.20286E+01 8.73857E+00
 -1      5797-1.38509E+01 5.39979E-01 7.30845E+00
 -1      5798 2.78397E+01 9.48525E+00 7.48136E+00
 -1      5799 2.76911E+01 8.00823E+00 8.14487E+00
 -1      5800-2.63448E+01-1.33729E+01 4.38048E+00
 -1      5801-2.38481E+01-1.34082E+01 4.04076E+00
 -1      5802 1.08889E+01-3.86139E+00 2.86351E+00
 -1      5803 1.21384E+01-4.47222E+00 4.49118E+00
 -1      5804 1.06055E+01-5.11801E+00 4.13363E+00
 -1      5805 1.15494E+01-5.59356E+00 2.56197E+00
 -1      5806 1.27641E+01-6.21026E+00 4.18455E+00
 -1      5807 1.30644E+01-4.95288E+00 2.90562E+00
 -1      5808 2.07646E+01 1.10310E+01 4.35099E+00
 -1      5809 2.07285E+01 1.05788E+01 1.66337E+00
 -1      5810 1.96435E+01 1.17293E+01 3.28771E+00
 -1      5811-2.71441E+01 5.60846E+00 8.37057E+00
 -1      5812-2.81941E+01 5.36184E+00 6.44393E+00
 -1      5813-2.62879E+01 5.60780E+00 5.87903E+00
 -1      5814 2.54115E+01 8.98483E+00 1.43602E+00
 -1      5815-2.44562E+01-2.90869E+00 1.56769E+00
 -1      5816-2.54108E+01-2.90925E+00 4.07562E+00
 -1      5817-2.64274E+01-3.18605E+00 2.95554E+00
 -1      5818 2.50245E+01-7.96957E+00 1.61585E+00
 -1      5819 2.26782E+01-8.11843E+00 1.65648E+00
 -1      5820 2.38558E+01-1.00868E+01 1.56976E+00
 -1      5821-6.89264E+00 5.32552E+00 8.66836E+00
 -1      5822-6.68542E+00 3.81876E+00 8.70171E+00
 -1      5823 2.40170E+01 8.22399E+00 7.51849E+00
 -1      5824 2.27192E+01 8.95269E+00 7.51858E+00
 -1      5825 2.35920E+01 9.73475E+00 8.57782E+00
 -1      5826 3.71383E+01 6.09103E+00 1.82436E+00
 -1      5827 3.84358E+01 6.08860E+00 3.12342E+00
 -1      5828 3.61860E+01 6.00776E+00 4.06441E+00
 -1      5829-3.66584E+01-3.79956E+00 6.64507E+00
 -1      5830 2.12856E+01 6.83401E+00 8.45631E+00
 -1      5831 2.00031E+01 6.08903E+00 8.45649E+00
 -1      5832 2.08635E+01 6.09073E+00 6.00291E+00
 -1      5833-3.87458E+01-9.01589E+00 1.28548E+00
 -1      5834-3.79553E+01-7.34466E+00 2.91236E+00
 -1      5835 3.81028E+01-1.10485E+00 4.39670E+00
 -1      5836 3.83135E+01 5.75467E-01 5.47650E+00
 -1      5837 3.35924E+01 2.10442E+00 8.38965E+00
 -1      5838 3.31653E+01 1.72143E+00 5.85665E+00
 -1      5839 1.17142E+01 1.35791E+01 8.70926E+00
 -1      5840 1.33154E+01 1.36896E+01 8.70773E+00
 -1      5841 1.15077E+01 1.18227E+01 7.91443E+00
 -1      5842 1.15452E+01 1.32432E+01 6.62204E+00
 -1      5843 3.15621E+01-4.27273E+00 1.57184E+00
 -1      5844 3.22650E+01-4.55936E+00 4.08031E+00
 -1      5845 3.18661E+01-6.04459E+00 3.26504E+00
 -1      5846 2.51279E+01 5.55779E+00 5.53051E+00
 -1      5847 2.50993E+01 7.11898E+00 4.69972E+00
 -1      5848 2.74782E+01 6.15587E+00 5.32640E+00
 -1      5849 3.35198E+01 9.26888E+00 5.72758E+00
 -1      5850 3.21968E+01 9.47516E+00 8.19228E+00
 -1      5851 3.17142E+01 1.01820E+01 6.71867E+00
 -1      5852-3.12165E+01-1.12239E+01 8.55907E+00
 -1      5853-2.96257E+01-1.34819E+01 8.72221E+00
 -1      5854-2.89512E+01-1.21232E+01 8.36278E+00
 -1      5855-3.21701E+01-4.04620E+00 3.06850E+00
 -1      5856 2.75839E+01 3.68912E+00 8.46728E+00
 -1      5857 2.76144E+01 2.72825E+00 6.56628E+00
 -1      5858 2.72868E+01 5.22706E+00 6.61184E+00
 -1      5859 3.08930E+01 8.86161E+00 8.19230E+00
 -1      5860-1.79859E+01-4.26609E+00 3.04416E+00
 -1      5861-2.36967E+01-2.90560E+00 3.29216E+00
 -1      5862 3.78423E+01 2.25402E+00 3.90824E+00
 -1      5863-1.52778E+01 5.61137E+00 5.44514E+00
 -1      5864-1.38975E+01 4.86116E+00 4.53291E+00
 -1      5865-1.61985E+01 3.76875E+00 4.97580E+00
 -1      5866-2.90175E+01-1.31962E+00 8.28147E+00
 -1      5867-2.78407E+01-8.70072E-01 6.58321E+00
 -1      5868-3.18213E+01-8.18049E+00 2.05275E+00
 -1      5869 3.56485E+01 1.25424E+01 5.03254E+00
 -1      5870 3.65876E+01 1.34644E+01 4.03338E+00
 -1      5871 3.54431E+01 1.34644E+01 4.02176E+00
 -1      5872-1.51592E+01 1.11340E+01 8.18348E+00
 -1      5873 2.37712E+01 2.80441E+00 1.59738E+00
 -1      5874 2.60639E+01 2.85169E+00 1.50571E+00
 -1      5875-3.45043E+01 1.25429E+01 4.95970E+00
 -1      5876-3.56487E+01 1.25429E+01 4.97144E+00
 -1      5877-3.66002E+01 1.34776E+01 4.01679E+00
 -1      5878-3.54557E+01 1.34776E+01 4.00504E+00
 -1      5879 2.73511E+01 2.09918E+00 1.50575E+00
 -1      5880 2.46483E+01-7.11314E+00 6.99255E+00
 -1      5881 3.56483E+01-1.25425E+01 5.01704E+00
 -1      5882 3.54344E+01-1.34723E+01 4.00844E+00
 -1      5883 3.65789E+01-1.34723E+01 4.02018E+00
 -1      5884 3.60065E+01-1.10148E+01 4.04292E+00
 -1      5885 1.69920E+01 5.66940E-02 4.02145E+00
 -1      5886-3.13850E+01 7.56980E+00 7.56112E+00
 -1      5887-3.00953E+01 6.82299E+00 7.56114E+00
 -1      5888-3.24393E+01 6.63208E+00 8.46255E+00
 -1      5889-3.11494E+01 5.88528E+00 8.46257E+00
 -1      5890-3.16047E+01 6.70369E+00 6.02350E+00
 -1      5891-1.27289E+01 1.13248E+01 8.18622E+00
 -1      5892-1.37504E+01 1.07495E+01 5.64969E+00
 -1      5893-1.22576E+01 1.17486E+01 6.36767E+00
 -1      5894-1.34870E+01 2.12643E+00 4.56178E+00
 -1      5895-1.25580E+01 2.10051E+00 2.05683E+00
 -1      5896-1.26871E+01 6.72756E-01 3.85881E+00
 -1      5897 3.65939E+01-1.34885E+01 5.96589E+00
 -1      5898-3.65936E+01-1.34704E+01 4.02967E+00
 -1      5899-3.56483E+01-1.25480E+01 5.01153E+00
 -1      5900-3.44263E+01-1.35502E+01 4.53553E+00
 -1      5901-3.47993E+01-1.20206E+01 3.57090E+00
 -1      5902-2.54283E+01-9.47209E+00 2.47775E+00
 -1      5903-2.68203E+01-1.03981E+01 1.88175E+00
 -1      5904 3.65864E+01 1.34966E+01 5.97674E+00
 -1      5905-3.63740E+01 1.34671E+01 5.99364E+00
 -1      5906-3.52295E+01 1.34671E+01 5.98190E+00
 -1      5907-3.58021E+01 1.10100E+01 5.97082E+00
 -1      5908-3.85396E+01 8.83778E+00 6.03604E+00
 -1      5909-3.85396E+01 9.97804E+00 6.03902E+00
 -1      5910-3.60780E+01 9.42646E+00 6.01422E+00
 -1      5911 3.29264E+01 1.32859E+01 4.37539E+00
 -1      5912-2.46725E+01 1.07619E+01 4.14648E+00
 -1      5913-2.43167E+01 1.33049E+01 4.14561E+00
 -1      5914-2.34040E+01 1.11496E+01 5.14481E+00
 -1      5915-2.49535E+01-1.24467E+01 4.97642E+00
 -1      5916-1.02208E+01-3.30977E+00 4.34269E+00
 -1      5917-1.02788E+01-7.10532E-01 4.31604E+00
 -1      5918-1.13450E+01-1.42817E+00 3.06298E+00
 -1      5919 3.12990E+01 1.34555E+01 6.02055E+00
 -1      5920 2.96438E+01 1.35848E+01 6.06529E+00
 -1      5921 2.99188E+01 1.35656E+01 3.93593E+00
 -1      5922 2.84300E+01 1.21503E+01 5.01304E+00
 -1      5923 3.00849E+01 1.20210E+01 4.96830E+00
 -1      5924 7.69805E+00-1.13404E+01 5.80037E+00
 -1      5925-2.69543E+01-2.22540E-01 3.02833E+00
 -1      5926 2.25549E+01 7.57732E+00 8.45614E+00
 -1      5927 2.22977E+01 8.23469E+00 5.97394E+00
 -1      5928 2.12570E+01 8.30599E+00 8.45632E+00
 -1      5929 2.16961E+01-4.61492E+00 4.17503E+00
 -1      5930 2.10507E+01-4.17846E+00 1.66906E+00
 -1      5931 2.19743E+01-2.83525E+00 3.37020E+00
 -1      5932 3.81028E+01-1.85548E+00 3.19534E+00
 -1      5933 3.78422E+01 7.01027E-05 2.70518E+00
 -1      5934 3.78423E+01 7.50698E-01 3.90653E+00
 -1      5935 3.59451E+01-3.55399E-01 3.30249E+00
 -1      5936 2.61857E+01 9.75341E+00 8.57763E+00
 -1      5937-3.87022E+01 4.50199E+00 8.70100E+00
 -1      5938-3.87068E+01 5.99108E+00 8.70100E+00
 -1      5939-3.66198E+01 6.73596E+00 7.93006E+00
 -1      5940-3.79130E+01 5.24489E+00 6.63100E+00
 -1      5941-3.66152E+01 5.24686E+00 7.93006E+00
 -1      5942 2.00774E+01-2.43462E+00 8.41427E+00
 -1      5943 2.07667E+01-2.13768E+00 5.91402E+00
 -1      5944 1.98735E+01-1.05005E+00 7.50110E+00
 -1      5945 2.11658E+01-1.31258E+00 8.54633E+00
 -1      5946 2.18549E+01-1.01565E+00 6.04610E+00
 -1      5947-2.71674E+01 1.24198E+00 8.30202E+00
 -1      5948 1.78015E+01 1.37168E+01 8.69171E+00
 -1      5949 1.73237E+01 1.35199E+01 6.92997E+00
 -1      5950 5.30094E+00 1.34987E+01 6.75974E+00
 -1      5951 5.88392E+00 1.35819E+01 9.24780E+00
 -1      5952 7.26402E+00 1.21064E+01 8.52042E+00
 -1      5953 6.98637E+00 1.35243E+01 7.77063E+00
 -1      5954 6.69223E+00 1.20269E+01 6.04260E+00
 -1      5955-3.59954E+01-1.10525E+01 5.98067E+00
 -1      5956-3.39453E+01-1.02900E+01 6.07340E+00
 -1      5957 1.22109E+01-3.54437E+00 5.80284E+00
 -1      5958 1.36315E+01-2.09917E+00 6.63743E+00
 -1      5959 3.87858E+01 8.95502E+00 8.74030E+00
 -1      5960 3.79639E+01 7.26508E+00 7.12696E+00
 -1      5961-1.98458E+01 1.05347E+01 1.79414E+00
 -1      5962-1.83577E+01 1.06592E+01 3.46824E+00
 -1      5963 1.80421E+01 1.11120E+01 8.23906E+00
 -1      5964-2.96696E+01-1.38626E+01 1.27832E+00
 -1      5965 3.69884E+01-2.85583E+00 8.42467E+00
 -1      5966 3.69424E+01-4.43164E-01 7.97619E+00
 -1      5967 3.55698E+01-2.19072E+00 8.29540E+00
 -1      5968 3.53006E+01-3.01055E+00 6.72000E+00
 -1      5969 3.16930E+01 1.17414E+01 5.41631E+00
 -1      5970 2.14195E+01 6.10386E+00 1.71478E+00
 -1      5971-2.12989E+01 2.96212E+00 8.41781E+00
 -1      5972-2.00156E+01 3.70599E+00 8.41800E+00
 -1      5973-2.11436E+01 4.11552E-01 8.58000E+00
 -1      5974-1.98603E+01 1.15541E+00 8.58017E+00
 -1      5975-2.05347E+01 1.82803E+00 6.99725E+00
 -1      5976 1.71042E+01 1.01973E+01 5.15354E+00
 -1      5977 1.93736E+01 1.26926E+01 5.17503E+00
 -1      5978 1.80878E+01 1.35199E+01 5.72627E+00
 -1      5979 3.08144E+01-8.94174E+00 5.39678E+00
 -1      5980 3.27900E+01-1.02670E+01 4.69337E+00
 -1      5981 3.10291E+01-1.11847E+01 5.71499E+00
 -1      5982 3.13392E+01-9.67751E+00 6.76481E+00
 -1      5983 2.09455E+01 1.09444E+01 8.41005E+00
 -1      5984 2.17321E+01 9.64648E+00 6.86544E+00
 -1      5985-3.09220E+01-3.07352E-02 5.52999E+00
 -1      5986-2.93979E+01 1.96699E+00 5.22234E+00
 -1      5987-2.84556E+01 4.27800E-01 5.45066E+00
 -1      5988-3.85283E+01-8.57231E+00 5.85721E+00
 -1      5989-3.64837E+01-7.68530E+00 4.94446E+00
 -1      5990-3.60663E+01-9.16205E+00 5.83198E+00
 -1      5991 3.39410E+01 1.36440E+01 8.73240E+00
 -1      5992-3.36845E+01 1.08223E+01 5.77837E+00
 -1      5993-3.25429E+01 1.17012E+01 4.99227E+00
 -1      5994-1.55030E+01 2.76193E+00 7.29127E+00
 -1      5995-2.04472E+01 2.96338E+00 5.92658E+00
 -1      5996-1.97744E+01 2.29076E+00 7.50992E+00
 -1      5997-2.02923E+01 4.12778E-01 6.08882E+00
 -1      5998 1.20376E+01-2.10376E+00 7.92264E+00
 -1      5999-1.34211E+01 3.59800E+00 3.59743E+00
 -1      6000 2.73000E+01 7.74428E+00 4.58092E+00
 -1      6001 2.57954E+01 9.48943E+00 5.01372E+00
 -1      6002-2.37643E+01-1.40486E+01 1.27778E+00
 -1      6003-2.31183E+01-1.24569E+01 1.54230E+00
 -1      6004 3.28389E+01-5.31699E+00 7.50852E+00
 -1      6005 3.15972E+01-6.50734E+00 8.22338E+00
 -1      6006-3.11159E+01-1.34819E+01 8.73228E+00
 -1      6007 1.79980E+01-4.14430E+00 4.18866E+00
 -1      6008 1.87700E+01-2.65983E+00 5.00938E+00
 -1      6009 1.65492E+01-2.83525E+00 5.86003E+00
 -1      6010 1.66322E+01-4.31834E+00 6.27976E+00
 -1      6011 1.74018E+01-2.83382E+00 7.09997E+00
 -1      6012 1.88537E+01-4.14290E+00 5.42929E+00
 -1      6013-1.67561E+01-1.07939E+01 8.44668E+00
 -1      6014-1.71251E+01-9.43032E+00 7.48790E+00
 -1      6015-1.60887E+01-9.06720E+00 8.60456E+00
 -1      6016-1.64338E+01-8.46619E+00 6.09067E+00
 -1      6017-1.60662E+01-9.82995E+00 7.05017E+00
 -1      6018-2.40183E+01-2.11371E+00 5.94456E+00
 -1      6019-2.35886E+01-1.36971E+00 8.43709E+00
 -1      6020-2.49091E+01-6.87329E-01 7.50808E+00
 -1      6021-2.54685E+01-2.57929E+00 6.13706E+00
 -1      6022-2.50391E+01-1.83529E+00 8.62947E+00
 -1      6023-2.41488E+01-3.26168E+00 7.06616E+00
 -1      6024-2.12395E+01 4.56638E+00 2.03452E+00
 -1      6025 3.54166E+01-1.36298E+01 8.71129E+00
 -1      6026-1.66055E+01-1.17225E+01 3.96807E+00
 -1      6027-1.64815E+01-1.10109E+01 2.01536E+00
 -1      6028-1.65021E+01-9.35510E+00 1.53432E+00
 -1      6029-1.48955E+01-9.85359E+00 3.55336E+00
 -1      6030-1.66270E+01-1.00669E+01 3.48660E+00
 -1      6031 3.84358E+01 8.29675E+00 4.32333E+00
 -1      6032 3.59739E+01 8.88092E+00 4.35977E+00
 -1      6033 3.63998E+01 7.36527E+00 5.21106E+00
 -1      6034-1.39638E+01 3.38851E+00 5.49890E+00
 -1      6035 3.64581E+01-4.09813E+00 3.53868E+00
 -1      6036 3.55067E+01-2.59613E+00 1.89627E+00
 -1      6037 3.47324E+01-2.13250E+00 3.32305E+00
 -1      6038 3.78422E+01 1.50008E+00 2.70518E+00
 -1      6039-2.50836E+01 1.54261E+00 4.95270E+00
 -1      6040 2.14701E+01-5.79066E+00 1.65638E+00
 -1      6041 2.21153E+01-6.22712E+00 4.16232E+00
 -1      6042 2.27564E+01-6.53979E+00 1.65649E+00
 -1      6043 3.87361E+01-8.95295E+00 8.73518E+00
 -1      6044 3.80556E+01-7.28549E+00 7.07424E+00
 -1      6045 5.91403E+00 1.35021E+01 5.94061E+00
 -1      6046 7.60413E+00 1.35237E+01 6.93719E+00
 -1      6047-2.65832E+01-1.36691E+01 1.27816E+00
 -1      6048-2.70917E+01-1.33729E+01 3.16034E+00
 -1      6049-1.84534E+01-6.74842E-01 7.99753E+00
 -1      6050-1.84541E+01 1.55080E+00 8.43829E+00
 -1      6051 1.16598E+01-5.76182E+00 7.88567E+00
 -1      6052 1.07680E+01-7.02990E+00 8.51528E+00
 -1      6053 1.65741E+01 5.77098E+00 6.78102E+00
 -1      6054 1.75968E+01 5.62157E+00 5.36843E+00
 -1      6055 1.92184E+01 5.97186E+00 6.80454E+00
 -1      6056-2.40540E+01 8.01013E-01 8.31232E+00
 -1      6057-2.31639E+01-6.25378E-01 6.74893E+00
 -1      6058 2.54620E+01 4.20619E+00 2.18141E+00
 -1      6059 2.47508E+01 3.95472E+00 3.77931E+00
 -1      6060 2.70431E+01 4.00201E+00 3.68759E+00
 -1      6061-2.64475E+01 1.01916E+01 7.49992E+00
 -1      6062-2.70930E+01 8.58500E+00 8.37058E+00
 -1      6063 3.86651E+01 2.97481E+00 8.70100E+00
 -1      6064 3.83135E+01 1.32485E+00 6.67713E+00
 -1      6065 2.82623E+01-7.01246E+00 5.92022E+00
 -1      6066 2.87699E+01-7.87161E+00 8.40932E+00
 -1      6067 2.96359E+01-8.04853E+00 6.63252E+00
 -1      6068 2.21481E+01 5.14008E+00 4.30437E+00
 -1      6069 2.26608E+01 5.12094E+00 1.75724E+00
 -1      6070 2.14745E+01 1.33382E+01 2.94156E+00
 -1      6071 2.07416E+01 1.33382E+01 4.15107E+00
 -1      6072 1.89854E+01 1.33909E+01 2.90186E+00
 -1      6073 1.82538E+01 1.33909E+01 4.11184E+00
 -1      6074 2.31929E+01 1.02932E+01 5.92753E+00
 -1      6075 2.21527E+01 1.03645E+01 8.40989E+00
 -1      6076 2.40663E+01 1.10753E+01 6.98703E+00
 -1      6077 2.87586E+01 1.10201E+01 3.92292E+00
 -1      6078-1.88893E+01 2.29212E+00 5.94693E+00
 -1      6079-1.84565E+01 3.03475E+00 8.43835E+00
 -1      6080-1.89762E+01 1.15671E+00 7.01759E+00
 -1      6081 1.56591E+01 9.73906E+00 7.46845E+00
 -1      6082-3.26228E+01-1.35503E+01 5.77064E+00
 -1      6083 3.35516E+01-1.33997E+01 3.97436E+00
 -1      6084 3.41238E+01-1.09422E+01 4.00885E+00
 -1      6085 3.23628E+01-1.18599E+01 5.03045E+00
 -1      6086 1.15047E+01 5.05060E+00 3.45078E+00
 -1      6087 1.11397E+01 4.50394E+00 1.24867E+00
 -1      6088 1.09687E+01 2.71394E+00 2.90402E+00
 -1      6089 2.12021E+01 2.81305E+00 1.59714E+00
 -1      6090 1.08436E+01-2.90650E-01 3.10074E+00
 -1      6091 1.25837E+01-2.21893E-01 4.55516E+00
 -1      6092 1.19787E+01 1.74313E+00 4.60322E+00
 -1      6093 1.41172E+01 4.14609E+00 8.45984E+00
 -1      6094-1.61915E+01-8.51328E+00 4.02199E+00
 -1      6095 1.12430E+01-4.61236E+00 1.82294E+00
 -1      6096 1.18370E+01-6.34801E+00 1.50620E+00
 -1      6097-6.88700E+00-6.94353E-01 8.64628E+00
 -1      6098-6.67149E+00-2.20623E+00 8.71443E+00
 -1      6099 1.29404E+01-5.01950E+00 7.88226E+00
 -1      6100 1.43605E+01-3.57415E+00 8.71921E+00
 -1      6101-2.73948E+01 1.11363E+01 1.48409E+00
 -1      6102-2.71721E+01 9.49598E+00 3.18582E+00
 -1      6103-2.82890E+01 1.16879E+01 3.59561E+00
 -1      6104 2.34330E+01 1.70529E+00 8.35267E+00
 -1      6105 2.41076E+01 1.38343E+00 5.85153E+00
 -1      6106 2.28483E+01 2.50302E-01 6.89829E+00
 -1      6107 2.96497E+01-4.71366E+00 4.08285E+00
 -1      6108 3.02587E+01-5.03538E+00 1.57182E+00
 -1      6109 2.89861E+01-5.68415E+00 2.51079E+00
 -1      6110 2.75450E+01-4.27008E+00 4.04660E+00
 -1      6111 2.81536E+01-4.59182E+00 1.53554E+00
 -1      6112 2.88176E+01-3.62133E+00 3.10753E+00
 -1      6113-2.22345E+01 4.52572E+00 3.61420E+00
 -1      6114-2.05299E+01 3.13844E+00 3.11819E+00
 -1      6115 3.87096E+01 7.47508E+00 8.74031E+00
 -1      6116 3.66735E+01 7.26333E+00 8.38669E+00
 -1      6117-1.71688E+01-1.41409E+00 7.99795E+00
 -1      6118-1.55150E+01-1.41048E+00 8.45511E+00
 -1      6119 2.34356E+01 1.05565E+01 1.66358E+00
 -1      6120-1.01044E+01 8.23405E-02 8.04792E+00
 -1      6121-8.20356E+00 6.78000E-02 8.64524E+00
 -1      6122-1.82073E+01 7.51323E+00 8.51816E+00
 -1      6123-1.60467E+01 7.36432E+00 8.49805E+00
 -1      6124-1.73748E+01-8.37767E+00 8.60392E+00
 -1      6125 3.53658E+01 6.51999E+00 8.38672E+00
 -1      6126 3.39662E+01 4.59521E+00 8.38965E+00
 -1      6127 2.40003E+01 8.03555E+00 1.43593E+00
 -1      6128 2.14206E+01 7.59526E+00 1.71478E+00
 -1      6129 2.26620E+01 6.61234E+00 1.75726E+00
 -1      6130 1.77665E+01-1.42524E+00 4.81580E+00
 -1      6131 1.69947E+01-2.90978E+00 3.99524E+00
 -1      6132 1.92136E+01-2.73437E+00 3.14508E+00
 -1      6133 1.83897E+01 5.93103E+00 8.34910E+00
 -1      6134-2.54532E+01 1.24501E+00 6.61390E+00
 -1      6135-2.40565E+01 2.28824E+00 8.31232E+00
 -1      6136-2.36293E+01 3.03112E+00 7.06838E+00
 -1      6137-1.74629E+01-7.30709E+00 5.89102E+00
 -1      6138-1.84058E+01-7.21877E+00 8.40510E+00
 -1      6139-1.64299E+01-6.94400E+00 7.00887E+00
 -1      6140 2.39444E+01 4.37131E+00 1.75735E+00
 -1      6141 2.49238E+01 5.52161E+00 3.93933E+00
 -1      6142 2.32340E+01 4.11985E+00 3.35523E+00
 -1      6143-3.42642E+01 9.41760E+00 6.08790E+00
 -1      6144 1.01518E+01 2.08136E+00 7.97650E+00
 -1      6145 8.41619E+00 7.08579E-01 8.64946E+00
 -1      6146 2.63237E+01-8.77833E+00 1.61592E+00
 -1      6147 2.64288E+01-1.02831E+01 2.53412E+00
 -1      6148 2.78877E+01-9.28956E+00 1.49654E+00
 -1      6149 2.74155E+01-8.91150E+00 4.03107E+00
 -1      6150 2.73108E+01-7.40673E+00 3.11274E+00
 -1      6151-2.15391E+01-1.75932E+00 7.01656E+00
 -1      6152 2.70621E+01-6.12896E+00 4.12708E+00
 -1      6153 2.86259E+01-6.64019E+00 4.00763E+00
 -1      6154 2.77938E+01-5.54786E+00 3.03229E+00
 -1      6155 8.30944E+00-2.17413E+00 5.70403E+00
 -1      6156 7.51142E+00-8.39018E-01 5.92377E+00
 -1      6157-2.70014E+01-3.20604E+00 6.91066E+00
 -1      6158-1.61692E+01-1.01691E+01 4.50336E+00
 -1      6159 2.67685E+01-1.34648E+01 5.78415E+00
 -1      6160 2.71359E+01-1.09172E+01 5.82029E+00
 -1      6161 2.55894E+01-1.24525E+01 5.03283E+00
 -1      6162 2.43215E+01-1.33550E+01 5.75481E+00
 -1      6163 2.46890E+01-1.08076E+01 5.79085E+00
 -1      6164 2.58681E+01-1.18199E+01 6.54223E+00
 -1      6165-1.89971E+01-6.47094E+00 6.86417E+00
 -1      6166 2.67487E+01 4.94964E+00 2.18144E+00
 -1      6167 2.52311E+01 5.11474E+00 1.75743E+00
 -1      6168 3.42730E+01 1.36639E+01 1.28762E+00
 -1      6169 3.23867E+01 1.19498E+01 1.88979E+00
 -1      6170 3.58847E+01-1.05855E+01 8.46879E+00
 -1      6171 3.19671E+01-7.72943E+00 4.91643E+00
 -1      6172 3.39428E+01-9.05465E+00 4.21304E+00
 -1      6173 3.44605E+01-7.53469E+00 5.03222E+00
 -1      6174-2.98564E+01 5.83219E+00 5.63451E+00
 -1      6175-2.94010E+01 5.01380E+00 8.07364E+00
 -1      6176 5.29981E+00-1.34984E+01 6.75957E+00
 -1      6177 5.84306E+00-1.35755E+01 9.24825E+00
 -1      6178 6.91274E+00-1.35945E+01 7.79487E+00
 -1      6179-2.84325E+01 6.35262E+00 8.37052E+00
 -1      6180 3.68042E+01-1.85231E+00 1.89628E+00
 -1      6181 3.87015E+01-1.49683E+00 1.29900E+00
 -1      6182 3.65436E+01 3.23659E-03 1.40614E+00
 -1      6183 1.72038E+01 7.20421E+00 2.01857E+00
 -1      6184 1.59193E+01 7.62739E+00 1.43198E+00
 -1      6185-1.77847E+01-1.37470E+01 8.74034E+00
 -1      6186-1.92978E+01-1.17806E+01 8.02659E+00
 -1      6187 2.74480E+01 9.22127E+00 3.91734E+00
 -1      6188 2.71591E+01 1.01774E+01 6.05865E+00
 -1      6189-1.49528E+01-5.94428E+00 3.16569E+00
 -1      6190 1.54210E+01-3.63081E+00 2.51940E+00
 -1      6191 1.47352E+01-5.50864E+00 3.81952E+00
 -1      6192 1.43690E+01-4.81816E+00 1.29752E+00
 -1      6193 1.63278E+01-4.25430E+00 1.42955E+00
 -1      6194 1.56450E+01-6.13109E+00 2.72888E+00
 -1      6195 1.66909E+01-4.94330E+00 3.94953E+00
 -1      6196-2.16495E+01-1.14418E+01 4.56806E+00
 -1      6197-2.23735E+01-1.34081E+01 4.04295E+00
 -1      6198-2.15483E+01-1.30333E+01 5.52607E+00
 -1      6199-2.37325E+01-1.35935E+01 6.06155E+00
 -1      6200-2.38347E+01-1.20019E+01 5.10361E+00
 -1      6201 3.87015E+01 3.16795E-03 1.29900E+00
 -1      6202-2.58787E+01 5.00657E-01 8.30206E+00
 -1      6203-2.63076E+01-2.43328E-01 5.80960E+00
 -1      6204-1.98580E+01-3.28466E-01 8.58024E+00
 -1      6205 1.48446E+01-5.68945E+00 8.51206E+00
 -1      6206-3.08476E+01 6.83550E+00 2.56084E+00
 -1      6207-3.07947E+01 5.21265E+00 1.51503E+00
 -1      6208-3.75380E+01-1.06233E+01 5.03479E+00
 -1      6209-3.84833E+01-1.15458E+01 4.05293E+00
 -1      6210 2.10550E+01-2.69019E+00 1.66909E+00
 -1      6211 2.03899E+01-2.36101E+00 4.16961E+00
 -1      6212-3.61032E+01 8.06444E+00 1.56286E+00
 -1      6213-3.22225E+01 6.11581E+00 1.65688E+00
 -1      6214 2.05802E+01-7.42111E+00 7.99301E+00
 -1      6215 2.26109E+01-8.42585E+00 8.39916E+00
 -1      6216 1.77769E+01 3.59897E+00 1.56258E+00
 -1      6217 1.77810E+01 5.09006E+00 1.56257E+00
 -1      6218 1.75755E+01 3.09160E+00 3.28080E+00
 -1      6219 3.87024E+01 1.50375E+00 1.29900E+00
 -1      6220 3.65445E+01 1.50383E+00 1.40614E+00
 -1      6221 2.31812E+01 3.76889E+00 6.70123E+00
 -1      6222 3.27189E+01 1.36639E+01 1.24990E+00
 -1      6223 3.22531E+01 1.32859E+01 3.13977E+00
 -1      6224-1.91313E+01 3.70740E+00 6.85534E+00
 -1      6225 3.39515E+01 1.51602E+00 1.40612E+00
 -1      6226 3.44430E+01 8.69634E-01 3.87318E+00
 -1      6227 3.27102E+01 8.85507E-01 2.46693E+00
 -1      6228 3.27388E+01-2.61070E-01 1.42668E+00
 -1      6229 3.32304E+01-9.07470E-01 3.89376E+00
 -1      6230 3.44718E+01-2.76945E-01 2.83289E+00
 -1      6231 2.14727E+01 1.20598E+01 1.66334E+00
 -1      6232 2.08137E+01 1.37215E+01 1.27758E+00
 -1      6233 1.89819E+01 1.21127E+01 1.62339E+00
 -1      6234 1.41071E+01-3.76748E+00 4.12528E+00
 -1      6235 1.37409E+01-3.08219E+00 1.60201E+00
 -1      6236 1.87742E+01-7.50332E+00 6.73729E+00
 -1      6237 2.00654E+01-8.64241E+00 8.74469E+00
 -1      6238 2.08033E+01-8.50797E+00 7.14325E+00
 -1      6239 1.62026E+01 8.44837E+00 4.48635E+00
 -1      6240 2.21125E+01-1.05732E+01 4.10318E+00
 -1      6241 2.28444E+01-1.30648E+01 4.06605E+00
 -1      6242 2.15468E+01-1.25081E+01 5.02959E+00
 -1      6243 2.00796E+01-1.10552E+01 4.02645E+00
 -1      6244 2.08113E+01-1.35468E+01 3.98909E+00
 -1      6245 2.13764E+01-1.16119E+01 3.06291E+00
 -1      6246-3.87068E+01 7.48556E+00 8.71612E+00
 -1      6247-3.79130E+01 6.73937E+00 6.64613E+00
 -1      6248 3.81028E+01-2.60568E+00 4.39646E+00
 -1      6249-2.28415E+01 1.33048E+01 4.14732E+00
 -1      6250-3.55377E+01 1.10730E+01 1.51961E+00
 -1      6251-3.63076E+01 1.01742E+01 1.51961E+00
 -1      6252-3.67754E+01 9.84538E+00 3.08254E+00
 -1      6253 3.83596E+01-3.33803E+00 5.92476E+00
 -1      6254 3.22283E+01-5.29601E-02 6.04133E+00
 -1      6255 3.26552E+01 3.30041E-01 8.57433E+00
 -1      6256 3.25685E+01-1.34524E+00 6.86964E+00
 -1      6257-2.08053E+01 1.10243E+01 2.50778E+00
 -1      6258-2.21069E+01 1.17971E+01 1.64640E+00
 -1      6259-1.72500E+01-1.20253E+01 8.44651E+00
 -1      6260-1.72674E+01-1.32780E+01 7.18585E+00
 -1      6261-2.38876E+01 1.35691E+01 8.72218E+00
 -1      6262-2.53708E+01 1.35691E+01 8.72795E+00
 -1      6263-2.37301E+01 1.14136E+01 8.49823E+00
 -1      6264 2.43164E+01-1.30648E+01 4.06822E+00
 -1      6265 2.65076E+01-1.34985E+01 4.16377E+00
 -1      6266 2.68750E+01-1.09509E+01 4.19971E+00
 -1      6267 2.56017E+01-1.15634E+01 3.23528E+00
 -1      6268 2.81662E+01 1.35849E+01 6.06981E+00
 -1      6269 2.84412E+01 1.35656E+01 3.94043E+00
 -1      6270 7.99668E+00 1.05700E+01 7.12180E+00
 -1      6271 3.87024E+01 3.00375E+00 1.29900E+00
 -1      6272 2.75202E+01 7.84065E+00 2.97275E+00
 -1      6273 2.73942E+01 1.03321E+01 2.87801E+00
 -1      6274 2.88309E+01 9.63950E+00 2.97834E+00
 -1      6275 2.23256E+01 6.67351E+00 6.80475E+00
 -1      6276-1.94905E+01 8.51427E+00 8.51782E+00
 -1      6277-2.02369E+01 8.83116E+00 6.02594E+00
 -1      6278-2.59404E+01 1.19968E+01 8.50748E+00
 -1      6279-2.73881E+01 1.11625E+01 8.50743E+00
 -1      6280 3.03818E+01 2.15842E+00 8.09921E+00
 -1      6281 3.23610E+01 2.78149E+00 8.38968E+00
 -1      6282 3.49905E+01 9.54768E+00 7.53545E+00
 -1      6283 3.59283E+01 1.05019E+01 8.47962E+00
 -1      6284-3.79198E+01 8.19102E-01 6.63874E+00
 -1      6285-3.66219E+01 8.22147E-01 7.93780E+00
 -1      6286-3.87021E+01 1.50305E+00 8.70100E+00
 -1      6287-3.85420E+01-4.46261E-01 7.24271E+00
 -1      6288-3.72440E+01-4.43217E-01 8.54176E+00
 -1      6289 1.04011E+01 2.02959E+00 4.24341E+00
 -1      6290 1.09601E+01 1.21096E+00 2.90024E+00
 -1      6291 3.34341E+01 8.73190E+00 8.19226E+00
 -1      6292 2.13452E+01-9.28838E+00 7.53411E+00
 -1      6293 2.04030E+01-1.10548E+01 6.09184E+00
 -1      6294 2.09313E+01-1.03267E+01 8.55865E+00
 -1      6295 1.91249E+01-1.04089E+01 7.30303E+00
 -1      6296 1.95382E+01-9.37060E+00 6.27811E+00
 -1      6297-2.78763E+01-1.20143E+01 5.24473E+00
 -1      6298-1.53859E+01 1.02379E+01 5.53318E+00
 -1      6299-1.84585E+01 4.51808E+00 8.43836E+00
 -1      6300-1.95059E+01 6.79890E+00 8.51786E+00
 -1      6301 3.41883E+01-4.45921E+00 7.50850E+00
 -1      6302 3.43256E+01-3.10503E+00 8.29541E+00
 -1      6303 3.29761E+01-3.96281E+00 8.29542E+00
 -1      6304 3.37448E+01-3.69963E+00 5.80378E+00
 -1      6305-1.98366E+01 1.20751E+01 1.79413E+00
 -1      6306 2.05964E+01-3.74556E+00 5.08333E+00
 -1      6307 1.91450E+01-2.43653E+00 6.75358E+00
 -1      6308 1.92280E+01-3.91954E+00 7.17334E+00
 -1      6309-3.53043E+01-8.21898E+00 1.62683E+00
 -1      6310-3.41918E+01-7.06575E+00 3.67971E+00
 -1      6311 2.75597E+01-1.19407E+01 8.28591E+00
 -1      6312 2.63801E+01-1.09285E+01 7.53474E+00
 -1      6313 2.74755E+01-1.03072E+01 8.40937E+00
 -1      6314 2.70519E+01-9.28377E+00 5.94370E+00
 -1      6315 2.82316E+01-1.02959E+01 6.69502E+00
 -1      6316 3.43337E+01 8.65784E+00 4.21846E+00
 -1      6317 3.40993E+01 8.35382E+00 1.68304E+00
 -1      6318-3.82637E+01 1.15616E+01 5.99562E+00
 -1      6319-3.68033E+01 1.03506E+01 7.03642E+00
 -1      6320-1.87572E+01 8.37521E+00 5.19112E+00
 -1      6321-1.74613E+01 1.01593E+01 4.74143E+00
 -1      6322-1.65990E+01 8.22652E+00 5.17103E+00
 -1      6323-1.65959E+01-7.84588E+00 1.53428E+00
 -1      6324 1.54059E+01-2.82876E+00 4.15270E+00
 -1      6325 1.50430E+01-2.14054E+00 1.63204E+00
 -1      6326 1.37322E+01-2.27837E+00 3.23873E+00
 -1      6327-2.39259E+01-8.58510E+00 8.64121E+00
 -1      6328 9.04622E+00 9.00878E+00 5.51655E+00
 -1      6329 9.26805E+00 1.10031E+01 5.19641E+00
 -1      6330 7.39979E+00 9.79475E+00 5.86367E+00
 -1      6331 9.48136E+00 1.02927E+01 6.52952E+00
 -1      6332 9.25111E+00 8.30611E+00 6.82726E+00
 -1      6333-3.36579E+00 1.26238E+01 7.50102E+00
 -1      6334-2.28539E+00 1.23479E+01 6.25411E+00
 -1      6335 1.46049E+01 6.39797E+00 5.62503E+00
 -1      6336 1.22774E+01 6.56572E+00 5.40569E+00
 -1      6337 1.39259E+01 4.66450E+00 5.65215E+00
 -1      6338 3.20908E+01-3.05947E+00 2.99863E+00
 -1      6339-3.18728E+01 5.29887E+00 3.17206E+00
 -1      6340-1.95759E+01-1.21444E+01 1.95046E+00
 -1      6341-2.16446E+01-1.20846E+01 1.54218E+00
 -1      6342 1.51577E+01-4.95093E+00 7.22914E+00
 -1      6343-3.42425E+01 5.87789E+00 6.39250E+00
 -1      6344-3.53175E+01 4.50118E+00 7.93007E+00
 -1      6345-3.64129E+01 4.52974E+00 6.43105E+00
 -1      6346-2.08816E+01 8.85561E+00 8.51756E+00
 -1      6347-2.15312E+01 9.14348E+00 7.01526E+00
 -1      6348-2.58416E+01 7.41621E+00 3.26652E+00
 -1      6349 1.73700E+01 1.52027E+00 5.93586E+00
 -1      6350 1.77889E+01 2.26193E+00 8.39098E+00
 -1      6351 1.61924E+01 2.35478E+00 7.54741E+00
 -1      6352 1.51860E+01 8.86424E-01 6.26466E+00
 -1      6353 1.56000E+01 1.62828E+00 8.71802E+00
 -1      6354 1.67817E+01 7.93667E-01 7.10770E+00
 -1      6355 2.73508E+01 3.59512E+00 1.50576E+00
 -1      6356-3.85283E+01-9.68941E+00 5.83797E+00
 -1      6357 2.37362E+01-1.30867E+00 8.54604E+00
 -1      6358 2.74942E+01-1.34648E+01 7.01059E+00
 -1      6359 2.50466E+01-1.33552E+01 6.98129E+00
 -1      6360-2.50235E+01 8.25592E+00 1.56472E+00
 -1      6361-2.47985E+01 9.37126E+00 1.56470E+00
 -1      6362-2.63542E+01 1.03356E+01 1.48404E+00
 -1      6363-2.61291E+01 1.14510E+01 1.48401E+00
 -1      6364-2.55940E+01 9.89607E+00 3.04906E+00
 -1      6365 4.95316E+00 1.35817E+01 8.57665E+00
 -1      6366 4.37349E+00 1.34998E+01 6.07225E+00
 -1      6367 8.14570E+00-8.55882E+00 8.52340E+00
 -1      6368 9.45793E+00-9.26005E+00 8.51648E+00
 -1      6369 8.54427E+00-1.12213E+01 8.54187E+00
 -1      6370 9.14228E+00-1.02291E+01 7.05891E+00
 -1      6371-2.43717E+01 1.12681E+01 1.64661E+00
 -1      6372-2.51672E+01 1.17929E+01 3.13099E+00
 -1      6373 1.27063E+01-1.10900E+01 1.41932E+00
 -1      6374 1.35663E+01-9.85106E+00 2.44349E+00
 -1      6375 1.51127E+01-1.03966E+01 3.94916E+00
 -1      6376 1.45499E+01-1.10341E+01 1.50301E+00
 -1      6377 1.42615E+01-1.16358E+01 2.92489E+00
 -1      6378-8.60210E+00-9.28088E+00 5.83109E+00
 -1      6379-7.26498E+00-1.11748E+01 5.95286E+00
 -1      6380 3.22435E+01-4.16534E+00 5.80952E+00
 -1      6381 3.14747E+01-4.42851E+00 8.30119E+00
 -1      6382 3.23808E+01-2.81115E+00 6.59647E+00
 -1      6383 2.50739E+01-2.01688E+00 8.13029E+00
 -1      6384-2.90186E+01-1.38692E+00 5.43018E+00
 -1      6385-6.91412E+00 8.11259E-01 8.64594E+00
 -1      6386-6.69985E+00 2.31786E+00 8.70174E+00
 -1      6387 9.33384E+00-2.17490E+00 4.88860E+00
 -1      6388 3.89908E+01-1.39482E+01 4.99805E+00
 -1      6389 3.89583E+01-1.39482E+01 3.82475E+00
 -1      6390 3.74419E+01-1.34885E+01 5.37994E+00
 -1      6391 3.84836E+01-1.24367E+01 5.38230E+00
 -1      6392 3.74743E+01-1.34885E+01 6.55325E+00
 -1      6393 2.62622E+01 6.94490E+00 3.61789E+00
 -1      6394 9.22338E+00 6.00466E+00 5.40193E+00
 -1      6395 9.46812E+00 3.53334E+00 5.17807E+00
 -1      6396 7.82382E+00 5.29077E+00 5.81025E+00
 -1      6397-3.82573E+01 4.53103E+00 4.31402E+00
 -1      6398-3.82573E+01 3.77983E+00 3.11377E+00
 -1      6399-3.82855E+01 6.86899E+00 4.06216E+00
 -1      6400-3.82855E+01 6.11780E+00 2.86192E+00
 -1      6401-3.65428E+01 5.39763E+00 3.37766E+00
 -1      6402 2.51831E+01-9.92531E+00 7.53482E+00
 -1      6403 2.39149E+01-1.08279E+01 8.25672E+00
 -1      6404 2.51119E+01-1.18311E+01 8.25661E+00
 -1      6405 1.25241E+01 4.08788E+00 5.16395E+00
 -1      6406-3.70365E+01 3.78136E+00 1.81472E+00
 -1      6407-3.87792E+01 4.50153E+00 1.29900E+00
 -1      6408-3.70647E+01 6.11932E+00 1.56287E+00
 -1      6409-1.81847E+01 9.57948E+00 1.67292E+00
 -1      6410-1.86990E+01 1.10863E+01 1.79405E+00
 -1      6411-1.33312E+01 9.89419E+00 2.46544E+00
 -1      6412-1.33834E+01 8.40317E+00 2.46466E+00
 -1      6413-1.27340E+01 8.64936E+00 1.57796E+00
 -1      6414-1.27848E+01 7.15773E+00 1.57941E+00
 -1      6415 2.50628E+01-1.30649E+01 2.84814E+00
 -1      6416 2.72545E+01-1.34985E+01 2.94370E+00
 -1      6417-1.28909E+01 1.05790E+01 3.95542E+00
 -1      6418-1.06990E+01 1.11744E+01 2.77566E+00
 -1      6419-1.09208E+01 8.65986E+00 2.87304E+00
 -1      6420-1.22997E+01 9.33402E+00 3.07430E+00
 -1      6421-2.16170E+01-4.97653E+00 6.89649E+00
 -1      6422 2.68626E+01-3.82333E+00 1.53548E+00
 -1      6423 2.63797E+01-5.68220E+00 1.61592E+00
 -1      6424 2.79437E+01-6.19341E+00 1.49654E+00
 -1      6425 8.70191E+00 2.26590E+00 8.59755E+00
 -1      6426 3.49065E+01-3.63238E+00 4.40473E+00
 -1      6427-3.70610E+01-3.57599E+00 1.76240E+00
 -1      6428-3.82920E+01-3.59237E+00 3.03048E+00
 -1      6429-3.87690E+01-4.51856E+00 1.26803E+00
 -1      6430-3.67242E+01-5.82229E+00 1.62684E+00
 -1      6431-3.79553E+01-5.83868E+00 2.89492E+00
 -1      6432-3.62474E+01-4.89611E+00 3.38931E+00
 -1      6433 2.51298E+01-9.47429E+00 2.53404E+00
 -1      6434 1.47152E+01 1.11202E+01 1.55247E+00
 -1      6435 1.56023E+01 1.01080E+01 2.46517E+00
 -1      6436 1.49231E+01 8.87197E+00 3.90101E+00
 -1      6437 1.40393E+01 9.88463E+00 2.98809E+00
 -1      6438 2.71843E+01 1.27770E+00 7.01445E+00
 -1      6439-3.79130E+01 5.99608E+00 5.42927E+00
 -1      6440-3.61703E+01 4.52471E+00 4.74477E+00
 -1      6441-3.61986E+01 6.86269E+00 4.49290E+00
 -1      6442-2.57447E+01-5.14598E+00 1.56775E+00
 -1      6443-2.69741E+01-6.51694E+00 3.11469E+00
 -1      6444-2.72354E+01-7.27571E+00 1.54661E+00
 -1      6445-2.51910E+01-6.62800E+00 1.54824E+00
 -1      6446-2.64205E+01-7.99896E+00 3.09518E+00
 -1      6447-2.49302E+01-5.86920E+00 3.11631E+00
 -1      6448-1.60699E+01 2.33736E+00 3.02936E+00
 -1      6449-3.58323E+01-1.06182E+01 1.53250E+00
 -1      6450-1.10764E+01 1.04239E+01 1.71856E+00
 -1      6451-1.12596E+01 7.91059E+00 1.79855E+00
 -1      6452-2.90145E+01-2.81369E+00 8.28147E+00
 -1      6453-3.09182E+01-1.45752E+00 8.38123E+00
 -1      6454-3.53187E+01 5.99584E+00 7.93007E+00
 -1      6455-3.37351E+01 5.88394E+00 8.46253E+00
 -1      6456 3.86289E+01-1.76801E+00 8.70100E+00
 -1      6457 3.02395E+01 7.70418E+00 6.33689E+00
 -1      6458 3.87118E+01-7.52988E+00 8.73519E+00
 -1      6459 3.67673E+01-7.28945E+00 8.33910E+00
 -1      6460-2.70325E+01-4.39836E+00 1.56782E+00
 -1      6461-2.67385E+01-5.17781E+00 4.07003E+00
 -1      6462-2.77331E+01-3.95087E+00 3.23115E+00
 -1      6463 2.09885E+01 1.33523E+01 5.89706E+00
 -1      6464-3.31118E+01 1.32795E+01 5.78946E+00
 -1      6465-3.44097E+01 1.17465E+01 6.80057E+00
 -1      6466 3.00844E+01-1.14009E+01 2.17335E+00
 -1      6467 3.00858E+01-1.27245E+01 3.45178E+00
 -1      6468 2.96659E+01-1.36765E+01 1.27829E+00
 -1      6469 3.14180E+01-1.20761E+01 1.48889E+00
 -1      6470 3.14194E+01-1.33997E+01 2.76730E+00
 -1      6471 3.18378E+01-1.11241E+01 3.66241E+00
 -1      6472-4.59548E+00-1.35552E+01 9.23994E+00
 -1      6473-5.84669E+00-1.39662E+01 9.24141E+00
 -1      6474-6.72594E+00-1.23911E+01 8.68458E+00
 -1      6475-6.45391E+00-1.34246E+01 7.92753E+00
 -1      6476-5.47318E+00-1.19804E+01 8.68266E+00
 -1      6477 3.02529E+01 1.10820E+01 1.44175E+00
 -1      6478 3.03128E+01 1.18514E+01 3.33165E+00
 -1      6479 2.91803E+01 1.05248E+01 1.44173E+00
 -1      6480-3.44367E+01 6.10762E+00 1.65692E+00
 -1      6481-3.60439E+01 4.53644E+00 1.81471E+00
 -1      6482-3.60721E+01 6.87440E+00 1.56286E+00
 -1      6483 1.63162E+01-3.45247E+00 3.06255E+00
 -1      6484 2.11346E+01-1.35464E+01 6.05453E+00
 -1      6485 1.96687E+01-1.20935E+01 5.05156E+00
 -1      6486 1.92401E+01-6.78105E+00 7.99338E+00
 -1      6487 2.23809E+01 1.16907E+01 5.07327E+00
 -1      6488 3.12908E+01 5.17237E+00 1.45725E+00
 -1      6489 3.09462E+01 5.74072E+00 2.99387E+00
 -1      6490 3.25832E+01 5.91660E+00 1.45728E+00
 -1      6491 1.66869E+01 2.98429E+00 5.89471E+00
 -1      6492 1.71047E+01 3.72612E+00 8.34953E+00
 -1      6493 3.61558E+01 1.32493E+00 4.38230E+00
 -1      6494 3.89909E+01 1.39821E+01 4.99882E+00
 -1      6495 3.89909E+01 1.39483E+01 6.17094E+00
 -1      6496 3.74667E+01 1.34965E+01 6.56407E+00
 -1      6497 3.84758E+01 1.24448E+01 6.56603E+00
 -1      6498 3.84759E+01 1.24786E+01 5.39389E+00
 -1      6499-3.28355E+01 8.12377E+00 8.61365E+00
 -1      6500 2.34165E+01-1.14200E+01 4.82636E+00
 -1      6501-1.14042E+01 1.15784E+01 4.67863E+00
 -1      6502 2.73473E+01-1.13290E+01 1.66516E+00
 -1      6503 2.83343E+01-9.95743E+00 3.16200E+00
 -1      6504 2.80548E+01-1.19631E+01 4.95113E+00
 -1      6505 3.47600E+01-7.00480E+00 3.33548E+00
 -1      6506 3.69530E+01 1.19609E+01 5.01579E+00
 -1      6507 2.35877E+01-1.30648E+01 2.84791E+00
 -1      6508-2.54277E+01 5.60875E+00 7.12671E+00
 -1      6509-2.11404E+01 1.18879E+01 3.44131E+00
 -1      6510-3.87215E+01-7.52279E+00 1.28547E+00
 -1      6511-3.66768E+01-7.32055E+00 1.62684E+00
 -1      6512 3.69522E+01-1.19607E+01 4.99179E+00
 -1      6513-3.89908E+01-1.39767E+01 5.00650E+00
 -1      6514-3.89583E+01-1.39767E+01 3.83320E+00
 -1      6515-3.84574E+01-1.24813E+01 5.38826E+00
 -1      6516-3.74157E+01-1.35046E+01 5.37745E+00
 -1      6517-3.74482E+01-1.35045E+01 6.55076E+00
 -1      6518 1.59848E+01 1.08960E+01 4.09057E+00
 -1      6519 1.51014E+01 1.19084E+01 3.17799E+00
 -1      6520-2.60183E+01-8.74336E+00 8.37479E+00
 -1      6521-2.00813E+01-1.30334E+01 5.51957E+00
 -1      6522-1.80366E+01-1.32780E+01 5.94000E+00
 -1      6523-3.67536E+01 1.19447E+01 5.01615E+00
 -1      6524-2.73183E+01-8.84865E+00 1.54662E+00
 -1      6525-2.65743E+01-9.27018E+00 4.02479E+00
 -1      6526-1.96853E+01-4.38981E+00 1.44220E+00
 -1      6527-1.91800E+01-5.88432E+00 1.60100E+00
 -1      6528-1.99502E+01-5.34442E+00 3.05440E+00
 -1      6529-2.16516E+01-5.46815E+00 1.45273E+00
 -1      6530-2.04555E+01-3.84989E+00 2.89559E+00
 -1      6531-1.52904E+01-7.09455E+00 1.53450E+00
 -1      6532-1.61985E+01-6.97872E+00 3.13672E+00
 -1      6533-1.36735E+01-7.16208E+00 3.10324E+00
 -1      6534-3.87014E+01 2.08913E-03 8.70100E+00
 -1      6535-3.72434E+01-1.94418E+00 8.54176E+00
 -1      6536 3.56348E+01-8.48243E-02 7.97621E+00
 -1      6537 3.42622E+01-1.83238E+00 8.29541E+00
 -1      6538 3.12878E+01 3.68293E+00 1.45724E+00
 -1      6539 3.19002E+01 3.25154E+00 3.03398E+00
 -1      6540 2.21182E+01-1.08632E+01 5.78987E+00
 -1      6541 2.28497E+01-1.33548E+01 5.75257E+00
 -1      6542 2.09360E+01-8.60492E+00 4.19011E+00
 -1      6543 2.20812E+01-9.15392E+00 5.93226E+00
 -1      6544-2.52077E+01-1.35937E+01 6.05946E+00
 -1      6545-2.49395E+01-1.10405E+01 6.03908E+00
 -1      6546-3.33761E+01 7.47573E+00 5.27056E+00
 -1      6547-3.65678E+01-1.35046E+01 5.96340E+00
 -1      6548-3.69407E+01-1.19750E+01 4.99879E+00
 -1      6549-3.62426E+01-1.22634E+01 8.46629E+00
 -1      6550-3.56341E+01-1.37589E+01 8.71129E+00
 -1      6551-3.41923E+01-1.15009E+01 8.55903E+00
 -1      6552 1.03866E+01 3.53115E+00 4.23321E+00
 -1      6553 1.01440E+01 6.01514E+00 4.47760E+00
 -1      6554-1.57724E+01 1.06349E+01 1.58420E+00
 -1      6555-1.46835E+01 1.05524E+01 4.05037E+00
 -1      6556-1.67572E+01 1.04737E+01 3.25847E+00
 -1      6557 2.82356E+01 8.58879E+00 1.53642E+00
 -1      6558 2.81096E+01 1.10803E+01 1.44169E+00
 -1      6559 2.14973E+01-8.70571E+00 1.65638E+00
 -1      6560 2.13776E+01-1.01174E+01 2.53263E+00
 -1      6561 2.26746E+01-1.06741E+01 1.56964E+00
 -1      6562-2.44895E+01 3.03016E+00 5.82064E+00
 -1      6563-1.32016E+01 3.85492E+00 6.84888E+00
 -1      6564 3.32635E+01 5.78223E+00 3.14041E+00
 -1      6565 4.37379E+00-1.34999E+01 6.07163E+00
 -1      6566 3.35289E+00-1.39224E+01 8.57035E+00
 -1      6567 3.48322E+00-1.40615E+01 6.07008E+00
 -1      6568 3.89907E+01-1.39815E+01 6.16987E+00
 -1      6569 3.84836E+01-1.24699E+01 6.55413E+00
 -1      6570 1.47978E+01 5.87931E+00 8.43405E+00
 -1      6571-3.87014E+01-1.49888E+00 8.71075E+00
 -1      6572-3.85420E+01-1.94723E+00 7.25246E+00
 -1      6573 2.51549E+01-1.08956E+01 1.56982E+00
 -1      6574 3.52469E+01 7.59374E-01 1.40612E+00
 -1      6575 3.40342E+01-1.01772E+00 1.42669E+00
 -1      6576 2.46085E+01 1.27229E+01 7.29962E+00
 -1      6577 2.60913E+01 1.27230E+01 7.30542E+00
 -1      6578 2.53646E+01 1.27229E+01 6.07661E+00
 -1      6579-1.75271E+01-3.58803E+00 4.59821E+00
 -1      6580-1.74725E+01-5.77271E+00 5.00640E+00
 -1      6581-2.39414E+01 9.83098E+00 8.49820E+00
 -1      6582-2.36245E+01 9.05165E+00 6.83893E+00
 -1      6583-2.61850E+01-6.65985E+00 4.05054E+00
 -1      6584 1.42387E+01 7.81030E+00 4.66044E+00
 -1      6585 2.64023E+01-9.31642E+00 7.53474E+00
 -1      6586 2.50969E+01-8.50964E+00 8.39895E+00
 -1      6587 2.74976E+01-8.69515E+00 8.40937E+00
 -1      6588 2.57472E+01-8.47696E+00 6.80800E+00
 -1      6589 1.82497E+01-1.34885E+00 8.34051E+00
 -1      6590 1.89402E+01-1.05191E+00 5.84008E+00
 -1      6591 1.87248E+01-8.00237E+00 8.74494E+00
 -1      6592-1.16720E+01 6.45752E+00 6.30984E+00
 -1      6593-1.23096E+01 6.35768E+00 7.99817E+00
 -1      6594-2.66771E+01 8.46491E+00 4.20122E+00
 -1      6595-1.43146E+01 1.11362E+01 1.58485E+00
 -1      6596 3.38743E+01-1.36298E+01 8.73225E+00
 -1      6597 3.15414E+01 1.85077E+00 1.57659E+00
 -1      6598 3.20332E+01 1.20439E+00 4.04369E+00
 -1      6599 3.32745E+01 1.83491E+00 2.98282E+00
 -1      6600-3.41665E+00-1.26108E+01 7.50083E+00
 -1      6601-2.27607E+00-1.23182E+01 6.23820E+00
 -1      6602-1.79775E+01-4.27824E+00 4.84721E+00
 -1      6603 1.97649E+01 3.37116E-01 5.89027E+00
 -1      6604 1.90749E+01 4.02033E-02 8.39058E+00
 -1      6605 1.81433E+01 3.83635E-02 6.73002E+00
 -1      6606-1.25199E+01 1.11621E+01 1.48726E+00
 -1      6607 2.66885E+01 1.35849E+01 6.07022E+00
 -1      6608 2.74157E+01 1.35849E+01 7.29904E+00
 -1      6609 2.68302E+01 1.13076E+01 7.14878E+00
 -1      6610-1.38761E+01 1.18203E+01 3.07377E+00
 -1      6611 4.91173E+00-1.35753E+01 8.57679E+00
 -1      6612 5.91372E+00-1.35009E+01 5.94088E+00
 -1      6613 7.53044E+00-1.35932E+01 6.96012E+00
 -1      6614-2.64295E+01 1.09448E+01 3.98374E+00
 -1      6615-2.57467E+01-3.64972E+00 1.56773E+00
 -1      6616-2.66905E+01-2.44858E+00 1.38747E+00
 -1      6617-2.25256E+01 5.31281E+00 2.03462E+00
 -1      6618 3.16569E+01-9.23660E+00 3.86660E+00
 -1      6619 2.67987E+01 9.28143E+00 1.43611E+00
 -1      6620 2.22060E+01 1.33381E+01 4.15998E+00
 -1      6621 2.24528E+01 1.33522E+01 5.90573E+00
 -1      6622 2.06372E+01-5.58109E+00 3.32624E+00
 -1      6623-3.43482E+01 4.51886E+00 5.41979E+00
 -1      6624-2.78224E+01-1.33730E+01 4.37999E+00
 -1      6625-2.82305E+01-1.36415E+01 5.86065E+00
 -1      6626-3.59056E+01 4.53581E+00 8.50107E+00
 -1      6627 3.08187E+01-1.27245E+01 4.66706E+00
 -1      6628 3.21523E+01-1.33997E+01 3.98255E+00
 -1      6629 3.21919E+01 1.42936E+00 6.96389E+00
 -1      6630 2.06400E+01-1.11561E+01 1.49269E+00
 -1      6631-3.84575E+01-1.15799E+01 5.98666E+00
 -1      6632-3.69858E+01-1.01186E+01 6.78385E+00
 -1      6633-2.60733E+01 1.34879E+01 3.98325E+00
 -1      6634-2.73705E+01 1.19157E+01 4.99152E+00
 -1      6635-2.11085E+01-6.96827E+00 1.86498E+00
 -1      6636-2.18776E+01-6.42834E+00 3.31847E+00
 -1      6637-1.14293E+01-8.33776E+00 6.30437E+00
 -1      6638-1.07933E+01-7.69450E+00 8.54000E+00
 -1      6639-3.82855E+01 8.32201E+00 4.05904E+00
 -1      6640-3.13536E+01-1.53675E+00 4.67206E+00
 -1      6641 2.38488E+01-7.75946E+00 8.39905E+00
 -1      6642 2.51498E+01-6.58116E+00 8.59397E+00
 -1      6643 1.47168E+01 3.61184E+00 4.73783E+00
 -1      6644 1.49815E+01 2.66665E+00 6.00445E+00
 -1      6645 1.33824E+01 2.32145E+00 5.09301E+00
 -1      6646 2.31688E+01 1.33522E+01 7.13150E+00
 -1      6647 2.39249E+01 1.33523E+01 5.90836E+00
 -1      6648 2.43027E+01 2.63882E+00 6.81958E+00
 -1      6649 3.54164E+01 8.03201E+00 8.38671E+00
 -1      6650 3.25814E+01 4.42409E+00 1.45727E+00
 -1      6651-2.63314E+01-1.19666E+01 5.44296E+00
 -1      6652-1.96642E+01-1.36574E+00 1.44221E+00
 -1      6653-2.02003E+01-2.09775E+00 3.16684E+00
 -1      6654 2.67384E+01-1.34760E+01 8.72495E+00
 -1      6655-2.91055E+01-7.61032E-01 2.14866E+00
 -1      6656-2.92802E+01-2.47378E+00 1.66309E+00
 -1      6657 3.84836E+01-1.15829E+01 5.96964E+00
 -1      6658 3.86988E+01-1.00711E+01 4.21044E+00
 -1      6659 3.12024E+01-7.01507E+00 1.69304E+00
 -1      6660 3.08421E+01-7.97114E+00 3.18982E+00
 -1      6661 2.92347E+01-6.96191E+00 1.49659E+00
 -1      6662 2.98986E+01-5.99144E+00 3.06857E+00
 -1      6663 1.35920E+01-6.01557E-01 6.63738E+00
 -1      6664 1.30408E+01 1.38630E-01 8.72061E+00
 -1      6665 1.29878E+01 1.36251E+00 6.68674E+00
 -1      6666-3.71151E+01 1.11569E+01 1.51962E+00
 -1      6667-3.69107E+01 9.04712E+00 1.56288E+00
 -1      6668-3.27154E+01-1.36620E+01 8.73227E+00
 -1      6669-3.28159E+01-1.14040E+01 8.55904E+00
 -1      6670-2.45307E+01-8.62239E+00 4.02646E+00
 -1      6671-2.52739E+01-8.20094E+00 1.54825E+00
 -1      6672 3.18923E+01-1.12048E+01 8.54156E+00
 -1      6673 2.37073E+01 1.39882E+01 8.72216E+00
 -1      6674 2.51906E+01 1.39883E+01 8.72794E+00
 -1      6675 2.46052E+01 1.17110E+01 8.57774E+00
 -1      6676 2.38778E+01-9.11853E+00 8.39905E+00
 -1      6677 1.53967E+01 3.40820E+00 8.45880E+00
 -1      6678 1.43919E+01 1.94005E+00 7.17646E+00
 -1      6679 3.25762E+01 1.40027E+01 8.73241E+00
 -1      6680 3.20012E+01 1.24581E+01 8.52649E+00
 -1      6681 1.27979E+01 7.11356E+00 3.54373E+00
 -1      6682 1.33707E+01 9.31319E+00 3.81791E+00
 -1      6683 1.14089E+01 8.06973E+00 4.56316E+00
 -1      6684 2.17056E+01-1.19016E+01 6.81477E+00
 -1      6685 3.57442E+01-3.77013E+00 8.42469E+00
 -1      6686 3.51632E+01-4.36474E+00 5.93307E+00
 -1      6687-2.71435E+01 7.09557E+00 8.37059E+00
 -1      6688-1.97404E+01-1.41966E+00 4.72072E+00
 -1      6689-1.88872E+01 6.64017E-02 5.50572E+00
 -1      6690-1.93481E+01-6.11713E-01 3.95164E+00
 -1      6691 2.33846E+01-1.00008E+01 6.65524E+00
 -1      6692 2.16686E+01-1.01922E+01 6.95715E+00
 -1      6693-2.66886E+01 1.39809E+01 8.72793E+00
 -1      6694-2.72582E+01 1.24086E+01 8.50743E+00
 -1      6695 3.02343E+01 5.67116E+00 7.48055E+00
 -1      6696 3.07779E+01 7.31954E+00 8.19231E+00
 -1      6697 2.69847E+01 1.18921E+01 5.41197E+00
 -1      6698 2.55184E+01 1.33073E+01 4.33971E+00
 -1      6699 2.56604E+01 1.10301E+01 5.41820E+00
 -1      6700 1.48913E+01-9.37095E+00 6.99178E+00
 -1      6701 7.00691E+00 9.07184E+00 8.60029E+00
 -1      6702-2.14835E+01-1.06734E+01 8.02610E+00
 -1      6703-2.36688E+01-1.12335E+01 8.56125E+00
 -1      6704 3.69129E+01 9.80296E+00 3.36061E+00
 -1      6705 1.77247E+01-2.95413E+00 1.47505E+00
 -1      6706 1.61341E+01-2.87347E+00 1.63148E+00
 -1      6707 1.74203E+01-4.98749E+00 1.42931E+00
 -1      6708 1.79057E+01-3.53340E+00 2.90572E+00
 -1      6709 1.58942E+01 4.03790E+00 6.80677E+00
 -1      6710 3.15271E+01 1.32859E+01 4.38395E+00
 -1      6711-1.95816E+01-1.15016E+01 4.97682E+00
 -1      6712-2.10795E+01-9.49774E+00 4.89107E+00
 -1      6713 2.86582E+01 5.25641E+00 4.66210E+00
 -1      6714 2.78059E+01 3.65706E+00 5.28084E+00
 -1      6715-3.42576E+01-1.36620E+01 8.71129E+00
 -1      6716-1.48416E+01-6.28619E+00 4.03021E+00
 -1      6717 2.87302E+01-1.34985E+01 2.94369E+00
 -1      6718 2.87289E+01-1.21749E+01 1.66526E+00
 -1      6719 2.91489E+01-1.12229E+01 3.83881E+00
 -1      6720-1.93421E+01-3.58037E+00 3.95173E+00
 -1      6721-1.88370E+01-5.07489E+00 4.11068E+00
 -1      6722-2.13067E+01-4.65870E+00 3.96199E+00
 -1      6723-3.22900E+01-1.02475E+01 8.55907E+00
 -1      6724 2.00515E+01-8.14930E+00 5.52597E+00
 -1      6725-2.51776E+01 1.05794E+01 8.49812E+00
 -1      6726 3.10237E+01-5.74972E+00 4.79520E+00
 -1      6727 2.99998E+01-7.67628E+00 4.71998E+00
 -1      6728 1.04929E+01-4.32307E+00 8.41818E+00
 -1      6729 2.41080E+01 1.01049E+01 3.09998E+00
 -1      6730-3.09560E+01 1.19102E+01 8.30414E+00
 -1      6731-2.87177E+01 1.20585E+01 8.50735E+00
 -1      6732 2.62496E+01 4.42771E+00 5.64889E+00
 -1      6733 1.69916E+01 1.19112E+01 4.86309E+00
 -1      6734-2.18312E+01 4.47006E+00 1.57880E+00
 -1      6735-1.61907E+01-6.99102E+00 4.94059E+00
 -1      6736-1.51629E+01-8.15023E+00 5.14107E+00
 -1      6737-1.58903E+01 3.03783E+00 8.43941E+00
 -1      6738-1.38162E+01 2.76368E+00 8.85388E+00
 -1      6739-3.30552E+01 7.25769E+00 7.07609E+00
 -1      6740-1.52238E+01-1.02594E+01 2.01568E+00
 -1      6741-1.52436E+01-8.60338E+00 1.53451E+00
 -1      6742-1.78778E+01-5.12206E+00 1.60083E+00
 -1      6743-1.83829E+01-3.62747E+00 1.44203E+00
 -1      6744-1.88390E+01-1.34679E+01 4.44523E+00
 -1      6745-1.75372E+01-1.17464E+01 5.39724E+00
 -1      6746-1.69494E+01 4.66861E+00 1.53852E+00
 -1      6747-1.65255E+01 3.91921E+00 3.07623E+00
 -1      6748-3.33625E+01 1.34218E+01 4.17360E+00
 -1      6749-3.48866E+01 1.18994E+01 3.20785E+00
 -1      6750-1.27451E+01 6.01968E+00 4.57735E+00
 -1      6751 1.27115E+01 2.08519E+00 7.96963E+00
 -1      6752 1.43197E+01 8.83005E-01 8.71903E+00
 -1      6753 3.50543E+01-1.18720E+01 3.01199E+00
 -1      6754-3.26588E+01-1.01725E+01 5.21445E+00
 -1      6755 2.39470E+01 5.86437E+00 1.75735E+00
 -1      6756-3.02938E+01-4.08731E+00 8.38908E+00
 -1      6757 2.03578E+01 7.84438E-01 8.39033E+00
 -1      6758 2.21489E+01 9.60122E-01 8.35285E+00
 -1      6759 2.24492E+01-5.68319E-01 8.54620E+00
 -1      6760 2.10579E+01 7.45994E-02 6.93583E+00
 -1      6761-3.43529E+01-6.09784E+00 5.15619E+00
 -1      6762-3.27737E+01-4.98677E+00 4.57607E+00
 -1      6763-3.35322E+01-5.29834E+00 6.06839E+00
 -1      6764-3.61126E+01 1.34671E+01 7.20777E+00
 -1      6765-3.39949E+01 1.32794E+01 7.01533E+00
 -1      6766 2.42211E+01 1.16597E+01 5.25004E+00
 -1      6767 3.33667E+00 1.36927E+01 8.56981E+00
 -1      6768 3.48340E+00 1.40555E+01 6.07008E+00
 -1      6769 2.49362E+01 4.62897E+00 6.81600E+00
 -1      6770 2.64175E+01 4.74568E+00 8.46731E+00
 -1      6771 1.93516E+01 1.37215E+01 1.23716E+00
 -1      6772 1.75252E+01 1.33910E+01 2.86176E+00
 -1      6773 3.87040E+01-2.99692E+00 1.29900E+00
 -1      6774 3.87040E+01-4.49693E+00 1.29900E+00
 -1      6775 3.81028E+01-3.35549E+00 3.19534E+00
 -1      6776 3.68068E+01-3.35240E+00 1.89628E+00
 -1      6777 2.54645E+01 5.69926E+00 2.18139E+00
 -1      6778 1.49566E+01-9.25449E+00 2.44302E+00
 -1      6779 1.33416E+01-8.59079E+00 1.29773E+00
 -1      6780 1.47342E+01-7.99616E+00 1.29743E+00
 -1      6781 2.00615E+01-9.69315E+00 2.53263E+00
 -1      6782 2.01807E+01-8.28150E+00 1.65624E+00
 -1      6783 2.28345E+01-1.12822E+01 8.25684E+00
 -1      6784 2.27974E+01-9.57284E+00 8.39913E+00
 -1      6785 2.11177E+01-1.14737E+01 8.55863E+00
 -1      6786 1.31446E+01 1.12040E+01 1.55200E+00
 -1      6787 1.41318E+01 9.05331E+00 1.43243E+00
 -1      6788 3.74341E+01 1.34965E+01 5.39077E+00
 -1      6789 2.80067E+01 5.84536E+00 1.53639E+00
 -1      6790 2.80343E+01 1.05408E+00 8.09929E+00
 -1      6791 2.87408E+01 5.07043E-01 6.64638E+00
 -1      6792-2.73232E+01 6.85839E+00 5.07205E+00
 -1      6793-3.89908E+01-1.39175E+01 6.20950E+00
 -1      6794-3.84574E+01-1.24220E+01 6.59127E+00
 -1      6795 1.93236E+01-1.07319E+01 1.49264E+00
 -1      6796 2.37762E+01-7.17482E+00 1.61576E+00
 -1      6797 2.14301E+01-7.32371E+00 1.65638E+00
 -1      6798 2.53722E+01-1.36691E+01 1.27802E+00
 -1      6799 2.38966E+01-1.36691E+01 1.27783E+00
 -1      6800 2.37189E+01-1.17341E+01 1.56971E+00
 -1      6801-2.33209E+01-4.35816E+00 6.37991E+00
 -1      6802-2.29209E+01-5.15693E+00 7.94348E+00
 -1      6803-2.22392E+01-6.53857E+00 6.40262E+00
 -1      6804 1.77908E+01 7.79323E-01 8.39102E+00
 -1      6805 1.56020E+01 1.45525E-01 8.71813E+00
 -1      6806 8.65332E+00 1.12747E+01 8.51911E+00
 -1      6807 9.85675E+00 1.17708E+01 6.43571E+00
 -1      6808 1.01376E+01 1.09956E+01 7.91898E+00
 -1      6809 8.27581E+00 9.79539E+00 8.60272E+00
 -1      6810 3.25050E+01-7.75940E+00 1.69306E+00
 -1      6811 3.15613E+01-5.77972E+00 1.57184E+00
 -1      6812 1.66323E+01-2.22100E+00 1.47509E+00
 -1      6813-2.35849E+01-2.85556E+00 8.43709E+00
 -1      6814-2.50355E+01-3.32115E+00 8.62950E+00
 -1      6815-3.84899E+01 1.24590E+01 3.43427E+00
 -1      6816-3.84899E+01 1.24258E+01 4.60610E+00
 -1      6817-2.25141E+01 6.78704E+00 2.03460E+00
 -1      6818-2.38256E+01 7.63945E+00 1.56461E+00
 -1      6819-2.41603E+01-6.63571E+00 4.49141E+00
 -1      6820-2.58961E+01-8.10609E+00 4.92304E+00
 -1      6821 2.34385E+01 4.15602E+00 4.94646E+00
 -1      6822 2.28053E+01 2.16584E+00 4.95000E+00
 -1      6823 2.45601E+01 3.02593E+00 5.06483E+00
 -1      6824-1.70951E+01-6.52747E+00 8.40567E+00
 -1      6825-1.60640E+01-7.68642E+00 8.60456E+00
 -1      6826-4.37486E+00 1.35007E+01 6.07289E+00
 -1      6827-3.62920E+00 1.35606E+01 8.57193E+00
 -1      6828 2.36780E+01 1.33381E+01 4.16256E+00
 -1      6829 2.39734E+01 1.16455E+01 3.50440E+00
 -1      6830-3.85396E+01 8.12804E+00 7.25601E+00
 -1      6831-3.64526E+01 7.37845E+00 6.46993E+00
 -1      6832-3.72463E+01 8.12463E+00 8.53994E+00
 -1      6833-2.40919E+01-3.59165E+00 5.00469E+00
 -1      6834-2.25611E+01-3.86217E+00 4.88988E+00
 -1      6835-2.38796E+01-3.17978E+00 3.96076E+00
 -1      6836-2.39523E+01-4.65770E+00 3.02094E+00
 -1      6837 3.59239E+01-1.04767E+01 1.52300E+00
 -1      6838 3.49934E+01-9.54696E+00 2.51983E+00
 -1      6839 3.40410E+01-1.04041E+01 1.48892E+00
 -1      6840-2.23054E+01-2.11006E+00 5.16117E+00
 -1      6841-2.21657E+01-3.17611E+00 3.17728E+00
 -1      6842-2.79399E+01-8.75387E+00 4.92131E+00
 -1      6843 9.72683E+00-1.21221E+01 4.93774E+00
 -1      6844 1.09986E+01-1.31665E+01 4.80595E+00
 -1      6845 9.67409E+00-1.39487E+01 3.58519E+00
 -1      6846 1.04184E+01-1.22884E+01 3.28650E+00
 -1      6847 1.16819E+01-1.33470E+01 3.14360E+00
 -1      6848 1.17411E+01-1.15140E+01 4.50971E+00
 -1      6849 2.36114E+01 5.72287E+00 5.10647E+00
 -1      6850 2.47330E+01 4.59283E+00 5.22485E+00
 -1      6851-2.39775E+01-9.00615E+00 1.54819E+00
 -1      6852-3.62967E+01-1.22221E+01 1.53250E+00
 -1      6853-3.41294E+01-1.23019E+01 2.03834E+00
 -1      6854 2.15545E+01 5.12802E-01 5.85266E+00
 -1      6855 2.31403E+01 3.85446E-02 5.05316E+00
 -1      6856-3.27086E+01-7.21436E+00 2.05276E+00
 -1      6857 9.46071E+00 2.03251E+00 5.16983E+00
 -1      6858 7.71542E+00 6.60154E-01 5.81830E+00
 -1      6859 1.60877E+01-7.81898E+00 8.51128E+00
 -1      6860 1.53380E+01-1.01231E+01 8.48070E+00
 -1      6861 1.95928E+01-1.11693E+01 8.55892E+00
 -1      6862 1.87268E+01-9.48501E+00 8.74494E+00
 -1      6863 3.84358E+01 6.86093E+00 4.31046E+00
 -1      6864 1.75327E+01-5.30094E+00 5.51204E+00
 -1      6865 1.97538E+01-5.12543E+00 4.66201E+00
 -1      6866 1.83865E+01-5.29946E+00 6.75235E+00
 -1      6867-2.06549E+01 6.85468E+00 5.55234E+00
 -1      6868-2.91935E+01-3.09968E+00 4.94455E+00
 -1      6869-3.79199E+01 1.56903E+00 5.43805E+00
 -1      6870-3.61772E+01 1.59893E+00 4.75251E+00
 -1      6871-3.82573E+01 3.02975E+00 4.31507E+00
 -1      6872-3.84999E+01 3.03478E+00 6.00133E+00
 -1      6873-3.67572E+01 3.06469E+00 5.31580E+00
 -1      6874-2.60494E+01-9.37729E+00 5.85269E+00
 -1      6875-1.07731E+01 3.97775E+00 8.27485E+00
 -1      6876-1.14451E+01 4.32157E+00 6.27185E+00
 -1      6877-1.23035E+01 4.87773E+00 7.99845E+00
 -1      6878-1.10010E+01 6.11282E+00 8.31355E+00
 -1      6879-1.01450E+01 5.55593E+00 6.59564E+00
 -1      6880-2.21131E+01 1.33049E+01 2.92460E+00
 -1      6881-1.98439E+01 1.35829E+01 3.07242E+00
 -1      6882-3.84999E+01 3.78486E+00 7.20201E+00
 -1      6883-3.72020E+01 3.78684E+00 8.50107E+00
 -1      6884-3.79199E+01 6.74176E-02 5.44033E+00
 -1      6885-3.82573E+01 1.52814E+00 4.31734E+00
 -1      6886-2.81100E+01 2.78115E+00 8.07370E+00
 -1      6887-2.09358E+01-7.54268E+00 5.32511E+00
 -1      6888-1.90097E+01-6.45881E+00 5.06130E+00
 -1      6889 3.05373E+01-7.70625E+00 1.49662E+00
 -1      6890 1.46664E+01 1.35167E+01 3.99171E+00
 -1      6891 1.65536E+01 1.35199E+01 5.67523E+00
 -1      6892 3.61542E+01-8.98108E+00 1.70951E+00
 -1      6893 3.71674E+01-1.04489E+01 3.23258E+00
 -1      6894-2.71638E+01-2.45437E-01 8.30203E+00
 -1      6895-2.77269E+01-2.06016E+00 8.28152E+00
 -1      6896-2.63242E+01-2.58139E+00 8.62941E+00
 -1      6897-2.64384E+01-1.39132E+00 6.93115E+00
 -1      6898 3.51592E+01 5.17131E+00 2.23994E+00
 -1      6899 3.58448E+01 6.84075E+00 1.82435E+00
 -1      6900-2.29243E+01-3.17922E+00 1.45281E+00
 -1      6901 3.84686E+01-1.24205E+01 3.43659E+00
 -1      6902 3.74268E+01-1.34723E+01 3.43424E+00
 -1      6903-3.84999E+01 1.53317E+00 6.00361E+00
 -1      6904-2.66019E+01 7.85579E+00 1.70146E+00
 -1      6905-2.07632E+01-6.15882E+00 4.37456E+00
 -1      6906 2.21130E+01-1.30648E+01 2.84776E+00
 -1      6907 2.00797E+01-1.35469E+01 2.77084E+00
 -1      6908 9.76056E+00-5.80169E+00 8.66702E+00
 -1      6909 9.94759E+00-5.76417E+00 6.56010E+00
 -1      6910-2.11462E+01-1.07327E+00 5.30401E+00
 -1      6911 3.57395E+01 8.57691E+00 1.82435E+00
 -1      6912-1.69523E+01 3.17405E+00 1.53847E+00
 -1      6913-3.59041E+01 1.54276E+00 8.50107E+00
 -1      6914 1.13767E+01 3.75492E+00 2.12617E-01
 -1      6915 1.13044E+01 1.96640E+00 1.86528E+00
 -1      6916-2.29174E+01-6.64149E+00 7.94351E+00
 -1      6917-2.12124E+01-7.25985E+00 8.45994E+00
 -1      6918-2.24558E+01-9.29475E+00 1.86512E+00
 -1      6919-2.28552E+01-7.63980E+00 3.41386E+00
 -1      6920-2.34254E+01-9.58391E+00 3.09104E+00
 -1      6921-2.43137E+01-7.90689E+00 5.42112E+00
 -1      6922 2.90538E+01 6.57062E+00 8.14480E+00
 -1      6923-3.26440E+01-8.73660E+00 5.61187E+00
 -1      6924 2.98506E+01-1.02915E+01 6.95073E+00
 -1      6925 2.93259E+01-9.55573E+00 5.58267E+00
 -1      6926-2.10513E+01-2.90657E+00 4.23331E+00
 -1      6927 1.52051E+01-1.12726E+01 8.48082E+00
 -1      6928-2.27539E+01-1.04803E+01 5.50360E+00
 -1      6929 2.36861E+01-1.37644E+01 8.72223E+00
 -1      6930 2.51676E+01-1.37644E+01 8.72496E+00
 -1      6931 2.35417E+01-1.21194E+01 8.25677E+00
 -1      6932 2.35659E+01-1.33550E+01 6.97851E+00
 -1      6933-2.22269E+01 1.37168E+01 8.72237E+00
 -1      6934 2.98690E+01 1.13136E+01 8.52655E+00
 -1      6935-2.34954E+01 5.31321E+00 4.54362E+00
 -1      6936-9.47895E+00 4.73523E+00 8.27761E+00
 -1      6937-9.70570E+00 6.87056E+00 8.31618E+00
 -1      6938 2.94631E+01-1.34985E+01 4.15897E+00
 -1      6939 1.28051E+01 1.22139E+00 1.62716E+00
 -1      6940 1.85524E+01 4.35909E+00 4.11032E+00
 -1      6941 1.69033E+01 5.50608E+00 3.58317E+00
 -1      6942 1.69102E+01 4.24035E+00 4.91247E+00
 -1      6943 2.48166E+01 1.04923E+01 8.57775E+00
 -1      6944 2.97241E+01-1.34648E+01 5.77935E+00
 -1      6945 2.94100E+01-1.11891E+01 5.45924E+00
 -1      6946-1.49840E+01-1.32540E+01 3.23269E+00
 -1      6947-1.50394E+01-1.18992E+01 2.01590E+00
 -1      6948-1.51461E+01-1.36444E+01 1.21440E+00
 -1      6949-1.67158E+01-1.34680E+01 3.16626E+00
 -1      6950-1.67726E+01-1.21128E+01 1.95057E+00
 -1      6951-8.74931E+00 6.09809E+00 5.61054E+00
 -1      6952-8.51580E+00 3.95833E+00 5.57121E+00
 -1      6953-7.23490E+00 5.28393E+00 5.95827E+00
 -1      6954-8.62348E+00 4.75070E+00 6.94923E+00
 -1      6955 2.47862E+01 1.02480E+01 4.35860E+00
 -1      6956 2.59490E+01 1.00739E+01 3.27685E+00
 -1      6957 1.82699E+01 3.20717E+00 5.06605E+00
 -1      6958-9.53777E+00 3.95880E+00 4.74583E+00
 -1      6959-1.10441E+01 4.85907E+00 4.45226E+00
 -1      6960-9.75811E+00 6.09402E+00 4.77911E+00
 -1      6961-2.26556E+01 9.08428E+00 8.49829E+00
 -1      6962-2.07898E+01 7.53853E+00 8.51757E+00
 -1      6963-1.34907E+01-8.68665E+00 7.76302E+00
 -1      6964-1.30946E+01-1.04336E+01 6.15289E+00
 -1      6965-1.37517E+01-1.05092E+01 8.39131E+00
 -1      6966-1.47739E+01-8.43321E+00 8.60548E+00
 -1      6967-1.43782E+01-1.01795E+01 6.99462E+00
 -1      6968-2.20273E+01-9.80577E+00 6.66673E+00
 -1      6969-2.26868E+01-9.41200E+00 8.64129E+00
 -1      6970-2.42126E+01-1.03659E+01 7.20199E+00
 -1      6971-3.84999E+01 4.53605E+00 6.00029E+00
 -1      6972-2.89448E+01-1.05406E+01 8.36280E+00
 -1      6973-2.78494E+01-1.05719E+01 6.73729E+00
 -1      6974-1.08150E+01 5.65864E+00 3.05125E+00
 -1      6975-1.14506E+01 7.25399E+00 4.89458E+00
 -1      6976 3.00823E+01-2.65351E+00 3.61878E+00
 -1      6977 3.15652E+01-2.76616E+00 1.57184E+00
 -1      6978 3.38600E+01-8.51659E+00 1.69310E+00
 -1      6979 3.58106E+01-7.49711E+00 1.64231E+00
 -1      6980 3.70541E+01-7.46928E+00 3.35190E+00
 -1      6981 3.51036E+01-8.48878E+00 3.40269E+00
 -1      6982-3.74415E+01-1.34704E+01 3.44373E+00
 -1      6983-3.84833E+01-1.24471E+01 3.45453E+00
 -1      6984-1.13905E+01 8.21418E-01 8.04592E+00
 -1      6985-9.48811E+00 1.75270E+00 8.27851E+00
 -1      6986-1.07745E+01 2.49257E+00 8.27555E+00
 -1      6987-1.05347E+01 1.75251E+00 6.32818E+00
 -1      6988 2.07426E+01 1.91868E+00 5.06992E+00
 -1      6989 2.66371E+01 1.36462E+01 8.72797E+00
 -1      6990 2.60512E+01 1.13689E+01 8.57762E+00
 -1      6991 3.84688E+01 1.36072E+00 8.70101E+00
 -1      6992 3.67823E+01 1.18556E+00 7.97619E+00
 -1      6993-3.68252E+01 8.25138E+00 5.10282E+00
 -1      6994 2.94105E+01-2.09337E+00 2.04673E+00
 -1      6995 3.02507E+01-3.50474E+00 1.57181E+00
 -1      6996-8.63139E+00 1.73743E+00 6.92659E+00
 -1      6997-2.27667E+01 6.06999E-02 8.31243E+00
 -1      6998-2.23013E+01-2.11001E+00 8.43723E+00
 -1      6999-2.50203E+01-1.15151E+01 8.56118E+00
 -1      7000-2.63043E+01-1.05242E+01 6.93557E+00
 -1      7001-2.61307E+01-9.85189E+00 8.37477E+00
 -1      7002-2.40383E+01-9.69361E+00 8.64119E+00
 -1      7003 2.63443E+01-7.27967E+00 1.61591E+00
 -1      7004 2.79084E+01-7.79089E+00 1.49653E+00
 -1      7005 1.67193E+01 1.33910E+01 4.06049E+00
 -1      7006-1.74496E+01 1.60489E+00 4.93048E+00
 -1      7007 2.84085E+01 2.30255E+00 4.60502E+00
 -1      7008 3.64109E+01-6.51520E+00 4.98141E+00
 -1      7009 3.58932E+01-8.03516E+00 4.16224E+00
 -1      7010-2.50992E+01 8.86499E+00 4.06447E+00
 -1      7011 3.12217E+01-5.01511E-01 4.51393E+00
 -1      7012-3.54708E+01-3.61382E+00 3.16773E+00
 -1      7013-3.59476E+01-4.54001E+00 1.40527E+00
 -1      7014-3.51341E+01-5.86014E+00 3.03217E+00
 -1      7015 2.79843E+01 2.47593E+00 8.09930E+00
 -1      7016 2.64273E+01 3.24658E+00 8.46733E+00
 -1      7017 3.29906E+01-9.91184E+00 3.18208E+00
 -1      7018-2.38308E+01 9.25281E+00 5.06284E+00
 -1      7019-3.81164E+01-4.11241E+00 5.60907E+00
 -1      7020-3.81164E+01-5.62796E+00 5.62385E+00
 -1      7021-3.82920E+01-2.83402E+00 4.26819E+00
 -1      7022-3.82920E+01-4.34957E+00 4.28296E+00
 -1      7023-3.64084E+01-3.92819E+00 4.86577E+00
 -1      7024-3.54845E+01 8.92678E-01 1.37914E+00
 -1      7025-3.68744E+01 1.64397E+00 3.19393E+00
 -1      7026-3.53577E+01 1.28811E-01 3.00234E+00
 -1      7027-3.09627E+01 1.32795E+01 7.02625E+00
 -1      7028-2.96435E+01 1.32000E+01 5.83360E+00
 -1      7029-2.87244E+01 1.34278E+01 7.22945E+00
 -1      7030 2.33770E+01 1.11220E+01 8.40977E+00
 -1      7031-2.09227E+01 3.82989E+00 4.54401E+00
 -1      7032-2.20042E+01 4.11395E-01 6.89178E+00
 -1      7033 3.19058E+01 4.74487E+00 3.93770E+00
 -1      7034 1.65188E+01 4.34770E+00 1.56249E+00
 -1      7035-1.12394E+01 1.49381E+00 1.24599E+00
 -1      7036-1.13552E+01 7.49016E-02 3.07101E+00
 -1      7037-1.06819E+01 2.09098E+00 3.32099E+00
 -1      7038 9.20638E+00-2.10990E+00 8.41882E+00
 -1      7039 8.41003E+00-7.72536E-01 8.64895E+00
 -1      7040 2.58488E+01-6.41516E+00 5.20986E+00
 -1      7041 2.63317E+01-4.55631E+00 5.12935E+00
 -1      7042 2.82462E+01-1.34648E+01 5.78373E+00
 -1      7043 2.79852E+01-1.34986E+01 4.16334E+00
 -1      7044-8.95269E+00 7.59669E+00 5.51000E+00
 -1      7045-7.45683E+00 6.78552E+00 5.86211E+00
 -1      7046 2.52771E+01 1.05255E+01 1.84037E+00
 -1      7047 3.83135E+01 1.32485E+00 4.27514E+00
 -1      7048-1.91375E+01 5.19002E+00 5.86927E+00
 -1      7049-2.01782E+01 5.98827E+00 6.93482E+00
 -1      7050-2.19164E+01 1.54673E+00 5.82111E+00
 -1      7051-2.23293E+01 8.73919E+00 5.84957E+00
 -1      7052-2.40589E+01 7.61518E+00 4.90582E+00
 -1      7053 1.59442E+01-1.04386E+01 1.50259E+00
 -1      7054 3.51557E+01 3.67676E+00 2.23994E+00
 -1      7055 3.52477E+01 2.25768E+00 1.40612E+00
 -1      7056 3.25770E+01 2.93265E+00 1.45727E+00
 -1      7057 3.43101E+01 2.91679E+00 2.86349E+00
 -1      7058-3.72019E+01 2.28790E+00 8.50107E+00
 -1      7059-3.84999E+01 2.28485E+00 7.20201E+00
 -1      7060 3.03104E+01-8.63655E+00 8.22341E+00
 -1      7061 3.05251E+01-1.08795E+01 8.54158E+00
 -1      7062 2.88217E+01-9.25053E+00 8.40931E+00
 -1      7063-3.88348E+01 5.95912E+00 1.29901E+00
 -1      7064-3.71203E+01 7.57690E+00 1.56287E+00
 -1      7065-2.68706E+01-2.05806E+00 5.78911E+00
 -1      7066-3.68140E+00-1.35552E+01 8.57126E+00
 -1      7067-5.53553E+00-1.34244E+01 7.26479E+00
 -1      7068 3.87096E+01 5.98795E+00 8.72737E+00
 -1      7069-2.28839E+01 7.44665E+00 8.34126E+00
 -1      7070-2.17593E+01 7.50586E+00 6.85819E+00
 -1      7071-3.86172E+01 1.12460E-01 3.88176E+00
 -1      7072-3.65371E+01 1.83238E-01 4.31692E+00
 -1      7073 1.81290E+01 3.54073E-01 5.05738E+00
 -1      7074 1.65464E+01 1.31257E-01 5.88629E+00
 -1      7075 1.84370E+01-8.97993E+00 1.78582E+00
 -1      7076 1.91929E+01-9.30329E+00 4.31997E+00
 -1      7077 1.93130E+01-7.89159E+00 3.44321E+00
 -1      7078 1.84568E+01-1.03421E+01 3.27966E+00
 -1      7079-3.58304E+01 1.20798E+01 8.49653E+00
 -1      7080-3.37127E+01 1.18921E+01 8.30410E+00
 -1      7081-3.42924E+01 1.04874E+01 8.61361E+00
 -1      7082-3.49894E+01 1.03418E+01 7.11010E+00
 -1      7083 9.47285E+00-3.66942E+00 4.69974E+00
 -1      7084 1.09823E+01-3.03264E+00 5.02278E+00
 -1      7085-3.03933E+01 1.32000E+01 4.60499E+00
 -1      7086-3.17126E+01 1.32795E+01 5.79766E+00
 -1      7087 2.86388E+01 1.34945E+00 1.50582E+00
 -1      7088 3.83552E+01-4.49285E+00 4.14248E+00
 -1      7089 3.67149E+01-4.83049E+00 5.06699E+00
 -1      7090-2.09061E+01-1.34082E+01 4.03620E+00
 -1      7091 1.93476E+01-1.35469E+01 3.98033E+00
 -1      7092 1.96708E+01-1.35464E+01 6.04583E+00
 -1      7093 2.62683E+01-2.93618E+00 4.66557E+00
 -1      7094-3.50326E+01-1.31023E+00 3.38559E+00
 -1      7095-3.50518E+01-2.00811E+00 1.76238E+00
 -1      7096-2.11662E+01 5.24512E+00 5.45253E+00
 -1      7097-1.94631E+01 3.85785E+00 4.95677E+00
 -1      7098 8.01450E+00 3.71858E+00 5.77599E+00
 -1      7099 1.89535E+01 1.74300E+00 5.10755E+00
 -1      7100 3.25609E+01-1.40373E+01 8.73226E+00
 -1      7101 3.20311E+01-1.24975E+01 8.54153E+00
 -1      7102-3.64106E+01 1.63292E+00 1.37914E+00
 -1      7103 3.25496E+01-1.40155E+01 1.24986E+00
 -1      7104 3.10907E+01-1.40155E+01 1.27833E+00
 -1      7105 3.28783E+01-1.33997E+01 2.73883E+00
 -1      7106 3.28428E+01-1.24152E+01 1.48891E+00
 -1      7107-2.11410E+01-1.07324E+00 8.57999E+00
 -1      7108 2.99347E+01-1.19249E+01 6.82729E+00
 -1      7109 3.52315E+01 7.45412E+00 3.50749E+00
 -1      7110-3.34154E+01-5.78347E+00 3.45813E+00
 -1      7111-3.27186E+01-5.24615E+00 1.40524E+00
 -1      7112-7.46301E+00-7.25733E-01 5.83944E+00
 -1      7113 3.20406E+01-1.51888E+00 5.76815E+00
 -1      7114 3.00609E+01-2.25950E+00 5.34802E+00
 -1      7115 3.20695E+01-2.66545E+00 4.72781E+00
 -1      7116-3.87215E+01-6.01682E+00 1.26803E+00
 -1      7117-1.22223E+01-9.45411E+00 7.76633E+00
 -1      7118-1.24825E+01-1.12769E+01 8.39303E+00
 -1      7119-2.79704E+01-2.21013E-01 1.38754E+00
 -1      7120-2.85023E+01-1.03698E+00 3.53646E+00
 -1      7121 3.50439E+01-2.27820E+00 5.19168E+00
 -1      7122 2.13625E+01-3.17446E+00 8.41413E+00
 -1      7123 2.24513E+01-2.05240E+00 8.54622E+00
 -1      7124-3.56600E+01-1.37517E+01 1.28760E+00
 -1      7125-3.63299E+01-1.34704E+01 2.82014E+00
 -1      7126-3.41626E+01-1.35502E+01 3.32599E+00
 -1      7127 1.02458E+01-1.41442E+01 2.77898E+00
 -1      7128 1.09879E+01-1.24953E+01 2.48069E+00
 -1      7129 1.16359E+01 1.00540E+01 4.26676E+00
 -1      7130-1.14902E+01 7.53396E-01 1.81990E-01
 -1      7131-1.16869E+01-6.76015E-01 2.03628E+00
 -1      7132 3.21110E+01 7.97384E+00 8.19229E+00
 -1      7133-2.00178E+01 5.18932E+00 8.41804E+00
 -1      7134 2.60539E+01 3.17233E+00 4.68083E+00
 -1      7135-1.77936E+01-6.49655E-01 1.49161E+00
 -1      7136-1.83791E+01-2.12230E+00 1.44207E+00
 -1      7137-1.33343E+01 7.26476E+00 5.46079E+00
 -1      7138 1.18573E+01 5.80558E+00 2.42929E+00
 -1      7139 1.06794E+01 6.54979E+00 2.62958E+00
 -1      7140 1.09828E+01 7.30161E+00 1.57301E+00
 -1      7141-2.47137E+01-5.15370E+00 4.51091E+00
 -1      7142-2.31826E+01-5.42421E+00 4.39606E+00
 -1      7143 2.89803E+01 1.22054E+01 8.57129E+00
 -1      7144 3.06355E+01 1.20761E+01 8.52653E+00
 -1      7145 1.39838E+01 1.22643E+01 1.55285E+00
 -1      7146 1.60393E+01 1.21384E+01 1.62357E+00
 -1      7147-1.96919E+01-2.86127E+00 1.44225E+00
 -1      7148-2.16582E+01-3.93961E+00 1.45271E+00
 -1      7149-1.41674E+01 1.21608E+01 8.18441E+00
 -1      7150-1.26723E+01 7.80843E-02 8.04203E+00
 -1      7151-1.25298E+01 5.42473E-01 8.85523E+00
 -1      7152-1.22905E+01 1.28492E+00 6.89737E+00
 -1      7153 1.64371E+01-9.17040E+00 6.60010E+00
 -1      7154 1.56765E+01-1.02432E+01 5.53472E+00
 -1      7155 1.56883E+01-1.14746E+01 6.56993E+00
 -1      7156 1.33653E+01-7.09777E+00 1.29643E+00
 -1      7157-1.25325E+01 2.02527E+00 8.85542E+00
 -1      7158 3.70592E+01-5.23957E+00 1.64231E+00
 -1      7159 3.83552E+01-5.24265E+00 2.94137E+00
 -1      7160-3.54157E+01 1.36127E+01 8.71129E+00
 -1      7161 9.20146E+00-3.59092E+00 8.41834E+00
 -1      7162 8.47100E+00-5.06855E+00 8.66519E+00
 -1      7163 1.85909E+01-3.61674E-02 4.86587E+00
 -1      7164-2.79741E+01-1.70897E+00 1.38754E+00
 -1      7165 1.78770E+01 1.37216E+01 1.23719E+00
 -1      7166 1.75077E+01 1.21127E+01 1.62332E+00
 -1      7167-1.65947E+01 2.44650E+00 4.04222E+00
 -1      7168 1.41163E+01 2.66307E+00 8.45985E+00
 -1      7169 3.14609E+01-3.04558E+00 8.30119E+00
 -1      7170 3.29624E+01-2.57988E+00 8.29543E+00
 -1      7171 3.83552E+01-5.99385E+00 4.14310E+00
 -1      7172 3.83596E+01-4.83903E+00 5.92538E+00
 -1      7173 1.84463E+01-5.92441E+00 4.42265E+00
 -1      7174 1.89099E+01-4.76791E+00 3.09940E+00
 -1      7175 2.69957E+01 1.33075E+01 4.33932E+00
 -1      7176-1.38775E+01-8.40426E+00 4.29811E+00
 -1      7177-3.60059E+01-2.80018E+00 1.76238E+00
 -1      7178-3.48926E+01-3.76420E+00 1.40526E+00
 -1      7179 3.84686E+01-1.15668E+01 4.02392E+00
 -1      7180-3.22515E+01 1.10185E+01 8.30414E+00
 -1      7181-3.28311E+01 9.61377E+00 8.61364E+00
 -1      7182 2.67513E+01 6.44297E+00 2.18145E+00
 -1      7183 2.80093E+01 7.33871E+00 1.53639E+00
 -1      7184 2.76987E+01 6.25226E+00 3.71821E+00
 -1      7185-3.45633E+01 6.09591E+00 4.58697E+00
 -1      7186-1.95773E+01-1.34679E+01 3.22893E+00
 -1      7187-2.16450E+01-1.34082E+01 2.82033E+00
 -1      7188 2.74189E+01 1.47286E+00 5.59827E+00
 -1      7189 1.57107E+01-5.69309E+00 6.03098E+00
 -1      7190 1.38079E+01-5.02305E+00 5.40110E+00
 -1      7191 1.52285E+01-3.57762E+00 6.23909E+00
 -1      7192-1.63244E+01 1.37168E+01 8.75147E+00
 -1      7193-1.59749E+01 1.30829E+01 6.81966E+00
 -1      7194-3.54515E+01 8.03778E+00 5.40432E+00
 -1      7195-3.46387E+01 7.36958E+00 6.54361E+00
 -1      7196-3.84899E+01 1.13038E+01 2.81024E+00
 -1      7197 2.31656E+01 1.23407E+01 8.40976E+00
 -1      7198 1.49403E+01 8.07002E+00 1.43197E+00
 -1      7199-3.82637E+01 1.24153E+01 6.58295E+00
 -1      7200-2.24346E+01-7.79685E+00 1.86513E+00
 -1      7201-2.39563E+01-7.50825E+00 1.54815E+00
 -1      7202-2.69079E+01 1.24225E+00 4.94258E+00
 -1      7203-3.85396E+01 7.38475E+00 6.03917E+00
 -1      7204-1.32223E+01-1.42568E+00 1.79764E+00
 -1      7205 3.74353E+01 1.34644E+01 3.44741E+00
 -1      7206 3.42181E+01 4.33588E+00 3.69734E+00
 -1      7207-3.41059E+01-1.37517E+01 1.24987E+00
 -1      7208-3.26086E+01-1.35503E+01 3.28826E+00
 -1      7209-3.82855E+01 9.19401E+00 2.85350E+00
 -1      7210 1.62531E+01-1.38302E+01 8.70258E+00
 -1      7211 1.77678E+01-1.38302E+01 8.69165E+00
 -1      7212 1.75285E+01-1.31367E+01 6.78064E+00
 -1      7213 1.74740E+01-1.19672E+01 8.09029E+00
 -1      7214 1.60154E+01-1.31368E+01 6.79215E+00
 -1      7215-1.28048E+01 5.66570E+00 1.58181E+00
 -1      7216-1.11453E+01 4.50028E+00 1.44871E+00
 -1      7217-1.05559E+01 3.59946E+00 3.51879E+00
 -1      7218-1.25667E+01 3.59774E+00 2.05905E+00
 -1      7219-1.22672E+01 4.75572E+00 3.64267E+00
 -1      7220 3.84688E+01-1.39286E-01 8.70100E+00
 -1      7221 4.26459E+00 1.36926E+01 9.24572E+00
 -1      7222-3.63365E+01 1.34776E+01 2.80726E+00
 -1      7223-3.64059E+01 1.33944E-01 1.37914E+00
 -1      7224-3.57384E+01-1.07418E+01 8.46630E+00
 -1      7225-3.48190E+01-9.78521E+00 7.51445E+00
 -1      7226-3.58093E+01-8.85130E+00 8.31762E+00
 -1      7227-3.45292E+01 3.44735E-02 1.62312E+00
 -1      7228 1.13852E+01 5.26103E+00 2.22569E-01
 -1      7229-3.88348E+01 7.47207E+00 1.26482E+00
 -1      7230-3.82855E+01 7.63075E+00 2.82773E+00
 -1      7231 2.34409E+01-1.48987E+00 5.24666E+00
 -1      7232 2.75325E+01-1.96835E+00 5.17683E+00
 -1      7233 2.88095E+01-3.30227E+00 4.55786E+00
 -1      7234 2.87766E+01-1.09282E+00 5.59417E+00
 -1      7235 2.83439E+01-3.15295E+00 6.05827E+00
 -1      7236-2.99301E+01-1.11064E+01 7.70019E+00
 -1      7237 3.72407E+01 1.12034E+01 1.53619E+00
 -1      7238 3.71994E+01 9.07767E+00 1.82437E+00
 -1      7239 1.45096E+01-6.32666E+00 1.29713E+00
 -1      7240 1.64677E+01-5.76157E+00 1.42932E+00
 -1      7241-3.52952E+01-4.89223E+00 4.50863E+00
 -1      7242-3.48368E+00 1.40627E+01 6.07064E+00
 -1      7243-2.55014E+00 1.32854E+01 7.32420E+00
 -1      7244 1.32483E+01 6.51975E+00 2.19095E+00
 -1      7245 1.42928E+01 5.82095E+00 2.19054E+00
 -1      7246-1.79059E+01 3.18648E+00 4.97729E+00
 -1      7247-2.08091E+01 1.34921E+01 1.27762E+00
 -1      7248-9.48395E+00 3.24156E+00 8.27821E+00
 -1      7249-1.38541E+01-1.00602E+01 4.77928E+00
 -1      7250-1.41172E+01-1.18825E+01 5.40883E+00
 -1      7251-1.51395E+01-9.80639E+00 5.62238E+00
 -1      7252-1.39541E+01 4.50281E+00 1.53717E+00
 -1      7253-1.58065E+01 1.16499E+01 8.06977E+00
 -1      7254-1.50444E+01-1.19058E+01 6.83594E+00
 -1      7255-1.58044E+01-1.15327E+01 5.46359E+00
 -1      7256-3.60808E+01-1.30509E+00 1.76239E+00
 -1      7257 3.84771E+01 1.12938E+01 2.82498E+00
 -1      7258-3.36881E+01-9.97925E+00 8.55904E+00
 -1      7259-2.44717E+01-4.43288E+00 1.56766E+00
 -1      7260-2.29399E+01-4.70340E+00 1.45280E+00
 -1      7261 1.35578E+01-3.02487E+00 5.32495E+00
 -1      7262-1.79234E+01-1.40153E+01 1.24779E+00
 -1      7263-1.93913E+01-1.40154E+01 1.27748E+00
 -1      7264-1.81109E+01-1.34679E+01 3.19937E+00
 -1      7265-1.81530E+01-1.24836E+01 1.95034E+00
 -1      7266 1.97883E+01-3.39102E+00 1.66896E+00
 -1      7267 1.87830E+01-2.15650E+00 1.47509E+00
 -1      7268 1.90715E+01 1.52405E+00 8.39059E+00
 -1      7269-3.09895E-06 1.37170E+01 9.31869E+00
 -1      7270-6.76145E-01 1.32854E+01 8.07269E+00
 -1      7271-3.37959E+01-4.49868E+00 1.40525E+00
 -1      7272 1.02552E+01 1.09095E+01 4.31817E+00
 -1      7273 1.00462E+01 8.92183E+00 4.62455E+00
 -1      7274 3.40933E+01 7.27396E+00 8.38673E+00
 -1      7275-1.47014E+01 1.35667E+01 8.75237E+00
 -1      7276-1.43381E+01 1.35936E+01 6.93569E+00
 -1      7277-2.86770E+01-2.74973E+00 3.05085E+00
 -1      7278-2.79764E+01-3.19722E+00 1.38754E+00
 -1      7279 3.87132E+01 5.99852E+00 1.29900E+00
 -1      7280 3.71490E+01 7.58712E+00 1.82436E+00
 -1      7281 1.25133E+01-2.28847E+00 4.52726E+00
 -1      7282 3.12150E+01-8.55738E+00 1.69305E+00
 -1      7283 3.00624E+01-9.76969E+00 2.17334E+00
 -1      7284 2.96895E+01-9.18344E+00 3.67013E+00
 -1      7285 2.92474E+01-8.50421E+00 1.49659E+00
 -1      7286 3.63152E+01-1.34723E+01 2.81065E+00
 -1      7287-2.53425E+01 1.54234E+00 8.31224E+00
 -1      7288-1.15732E+01-9.93920E+00 6.05639E+00
 -1      7289-1.09551E+01-1.07814E+01 8.29068E+00
 -1      7290-1.18312E+01-1.17611E+01 6.67989E+00
 -1      7291 1.07699E+01-2.35716E+00 3.06868E+00
 -1      7292 1.26972E+01-2.35665E+00 1.60960E+00
 -1      7293 1.10793E+01-1.49332E+00 1.44716E+00
 -1      7294 1.27610E+01-2.81031E-01 1.62848E+00
 -1      7295 1.25051E+01-1.14690E+00 3.23935E+00
 -1      7296-3.87016E+01-6.01020E+00 8.73618E+00
 -1      7297-3.87016E+01-7.51457E+00 8.77651E+00
 -1      7298-3.81163E+01-6.36926E+00 6.87984E+00
 -1      7299-3.68179E+01-6.35190E+00 8.10337E+00
 -1      7300-3.81163E+01-4.86488E+00 6.83950E+00
 -1      7301 2.95951E+01-2.11018E+00 6.84838E+00
 -1      7302-6.67890E-01-1.32627E+01 8.05685E+00
 -1      7303-1.29261E+00-1.32627E+01 7.32056E+00
 -1      7304-3.87024E+01-4.51123E+00 8.73618E+00
 -1      7305-3.68187E+01-4.85294E+00 8.10338E+00
 -1      7306 2.92992E+01 1.76399E+00 8.09925E+00
 -1      7307 1.71016E+01 5.20740E+00 8.34962E+00
 -1      7308 1.60740E+01 6.62269E+00 8.43307E+00
 -1      7309 8.50687E+00-3.67282E+00 5.58111E+00
 -1      7310 7.78445E+00-5.15158E+00 5.83406E+00
 -1      7311 2.52855E+01 7.28764E+00 1.43600E+00
 -1      7312 2.34099E+01 3.17914E+00 8.35268E+00
 -1      7313 2.40436E+01 5.16930E+00 8.34909E+00
 -1      7314-8.20057E+00 1.55641E+00 8.64379E+00
 -1      7315-3.59452E+01 7.38451E+00 8.53995E+00
 -1      7316-3.41313E+01 7.37563E+00 8.61362E+00
 -1      7317-3.52653E+01 8.75826E+00 7.15350E+00
 -1      7318 1.66083E+01-7.82850E+00 5.29772E+00
 -1      7319 1.74641E+01-6.67429E+00 6.50289E+00
 -1      7320 1.84301E+01-7.43605E+00 4.77928E+00
 -1      7321 1.75865E+01-7.07845E+00 3.21656E+00
 -1      7322 1.66248E+01-6.31690E+00 4.94087E+00
 -1      7323 3.13435E+01-1.34603E+01 6.03509E+00
 -1      7324-1.30106E+00 1.32853E+01 7.33655E+00
 -1      7325 2.63982E+01-7.33134E+00 8.59387E+00
 -1      7326 2.70483E+01-7.29868E+00 7.00296E+00
 -1      7327-2.79968E+01 1.34279E+01 6.00580E+00
 -1      7328-2.75508E+01 1.34881E+01 3.98276E+00
 -1      7329-2.17597E+01 3.65930E+00 4.99656E+00
 -1      7330-2.26361E+01 5.31419E+00 5.79146E+00
 -1      7331-2.21593E+01 4.44774E+00 7.17377E+00
 -1      7332-2.32299E+01 3.72843E+00 5.33555E+00
 -1      7333-1.08128E+01-9.18050E+00 8.54032E+00
 -1      7334 2.23523E+01-2.61190E+00 5.11439E+00
 -1      7335-3.04727E+01-4.37331E+00 5.05221E+00
 -1      7336-3.79553E+01-6.59588E+00 4.14739E+00
 -1      7337-3.85283E+01-7.13873E+00 5.83809E+00
 -1      7338 1.39239E+01 7.58092E+00 1.43285E+00
 -1      7339 1.49715E+01 6.88219E+00 1.43224E+00
 -1      7340 1.43453E+01 6.67161E+00 3.62623E+00
 -1      7341 2.65724E+01 8.03134E+00 1.43608E+00
 -1      7342-3.82920E+01-1.32657E+00 4.26502E+00
 -1      7343-3.62119E+01-1.25580E+00 4.70018E+00
 -1      7344-3.85420E+01-1.19794E+00 6.04431E+00
 -1      7345-3.68341E+01-2.52117E+00 5.30418E+00
 -1      7346 4.28098E+00-1.39224E+01 9.24601E+00
 -1      7347-2.13387E+01-8.71826E+00 8.45991E+00
 -1      7348-2.18830E+01-7.85066E+00 7.10064E+00
 -1      7349 1.59911E+01-1.34070E+00 1.63135E+00
 -1      7350 1.75818E+01-1.42148E+00 1.47495E+00
 -1      7351-2.96265E+01 1.36308E+01 8.72223E+00
 -1      7352-1.37600E+01-1.21722E+01 2.01683E+00
 -1      7353-1.38803E+01-1.32549E+01 2.99833E+00
 -1      7354-1.27603E+01-1.39176E+01 9.80430E-01
 -1      7355-1.22119E+01-1.23725E+01 1.93419E+00
 -1      7356-1.23328E+01-1.34517E+01 2.91815E+00
 -1      7357-1.33251E+01-1.17075E+01 3.95331E+00
 -1      7358 1.58456E+01-8.90159E+00 4.23160E+00
 -1      7359 1.66794E+01-8.94289E+00 1.78582E+00
 -1      7360 1.56305E+01-7.64293E+00 3.08579E+00
 -1      7361-3.44274E+01-7.29102E+00 1.62682E+00
 -1      7362-1.10424E+01-1.15866E+01 5.22887E+00
 -1      7363-1.23058E+01-1.02594E+01 4.70202E+00
 -1      7364-1.24676E+01-8.88788E+00 4.08835E+00
 -1      7365-1.19456E+01-1.05359E+01 3.26356E+00
 -1      7366-1.12094E+01-1.02166E+01 4.61891E+00
 -1      7367 2.96641E+01 1.34712E+01 1.27829E+00
 -1      7368 3.11231E+01 1.34712E+01 1.24989E+00
 -1      7369 3.07942E+01 1.32859E+01 3.16817E+00
 -1      7370 3.07910E+01 1.17570E+01 1.88976E+00
 -1      7371-7.51013E+00 1.39857E+01 9.15271E+00
 -1      7372-2.27473E+01 6.76275E+00 5.37607E+00
 -1      7373-2.21592E+01 2.96200E+00 6.72952E+00
 -1      7374 1.00090E+01 7.51125E+00 4.66396E+00
 -1      7375 1.14028E+01 6.55170E+00 3.65669E+00
 -1      7376 1.05371E+01 8.05245E+00 2.82916E+00
 -1      7377-2.96606E+01 1.19216E+01 2.11128E+00
 -1      7378-2.96605E+01 1.32000E+01 3.38971E+00
 -1      7379-2.96673E+01 1.37217E+01 1.27831E+00
 -1      7380-3.12304E+01 1.21434E+01 1.68813E+00
 -1      7381-3.12304E+01 1.34218E+01 2.96654E+00
 -1      7382 1.92380E+01-5.29797E+00 7.99333E+00
 -1      7383 2.00798E+01-3.91807E+00 8.41431E+00
 -1      7384 7.57946E+00-6.65495E+00 5.94088E+00
 -1      7385 3.43510E+01 2.28872E+00 4.70705E+00
 -1      7386 3.30325E+01 3.76860E+00 4.84693E+00
 -1      7387 3.30687E+01 2.28627E+00 3.92436E+00
 -1      7388-3.59508E+01 8.86995E+00 8.53994E+00
 -1      7389-3.56749E+01 1.04535E+01 8.49654E+00
 -1      7390-3.41369E+01 8.86107E+00 8.61362E+00
 -1      7391 1.04413E+01 1.35792E+01 8.93030E+00
 -1      7392 1.00651E+01 1.35239E+01 7.22945E+00
 -1      7393 8.78977E+00 1.35233E+01 7.45220E+00
 -1      7394 1.00261E+01 1.21039E+01 8.51744E+00
 -1      7395 1.48063E+01-1.37273E+01 8.70340E+00
 -1      7396 1.60277E+01-1.18643E+01 8.09115E+00
 -1      7397 9.47898E+00-7.77259E+00 8.51739E+00
 -1      7398 9.04842E+00-7.03610E+00 7.18587E+00
 -1      7399 8.47108E+00-6.54381E+00 8.66557E+00
 -1      7400-2.46402E+01-3.67578E+00 5.45075E+00
 -1      7401 1.55667E+01 5.07697E+00 1.56258E+00
 -1      7402-3.38735E+01 1.36127E+01 8.73225E+00
 -1      7403-3.24527E+01 1.32795E+01 7.03630E+00
 -1      7404 3.87636E+01 1.05685E+01 1.28875E+00
 -1      7405 3.84358E+01 9.16805E+00 3.11316E+00
 -1      7406 2.87069E+01-1.05437E+01 1.66523E+00
 -1      7407-9.75779E+00 1.39416E+01 4.51662E+00
 -1      7408-9.97807E+00 1.39520E+01 3.58332E+00
 -1      7409-1.02510E+01 1.23673E+01 3.35283E+00
 -1      7410-1.18118E+01 1.34219E+01 3.20420E+00
 -1      7411-1.16009E+01 1.34252E+01 4.14621E+00
 -1      7412 2.47896E+01 1.33072E+01 3.11866E+00
 -1      7413 2.29490E+01 1.33382E+01 2.94165E+00
 -1      7414 9.08212E+00-1.39443E+01 4.53780E+00
 -1      7415 1.04065E+01-1.31677E+01 5.76325E+00
 -1      7416 3.92938E-02 1.39820E+01 6.08216E+00
 -1      7417-1.26203E+00 1.22675E+01 6.25402E+00
 -1      7418-1.26356E+01-7.36971E+00 4.33263E+00
 -1      7419-3.16083E+01-3.96704E+00 1.66315E+00
 -1      7420-3.87792E+01 3.00153E+00 1.29900E+00
 -1      7421-3.87334E+01 1.50263E+00 1.29900E+00
 -1      7422-3.69906E+01 2.28245E+00 1.81472E+00
 -1      7423-3.82573E+01 2.27982E+00 3.11378E+00
 -1      7424 1.74031E+01-9.93204E+00 4.87619E+00
 -1      7425-3.48227E+00-1.40558E+01 6.07045E+00
 -1      7426-4.37385E+00-1.34994E+01 6.07136E+00
 -1      7427 1.56305E+01 4.98331E+00 5.54034E+00
 -1      7428 1.58844E+01 5.65542E+00 4.99646E+00
 -1      7429-2.26308E-02-1.37658E+01 9.31868E+00
 -1      7430-2.25606E+01-7.95358E+00 8.64132E+00
 -1      7431 1.33183E+01-1.36066E+00 7.92024E+00
 -1      7432 2.89059E+01-1.08840E+01 8.28588E+00
 -1      7433 3.80556E+01-6.52373E+00 5.83981E+00
 -1      7434 3.64152E+01-5.36036E+00 6.76371E+00
 -1      7435-3.42759E+01-8.54332E+00 8.54518E+00
 -1      7436-3.45331E+01-8.85408E+00 6.05954E+00
 -1      7437-3.55233E+01-7.92018E+00 6.86272E+00
 -1      7438 3.87132E+01 7.51742E+00 1.26893E+00
 -1      7439 3.84358E+01 7.60749E+00 3.09334E+00
 -1      7440-2.13017E+01 5.92896E+00 8.41780E+00
 -1      7441-2.22710E+01 5.89632E+00 6.75838E+00
 -1      7442 1.56250E+01 6.24903E+00 4.21127E+00
 -1      7443-2.69441E+01-3.53600E+00 4.84931E+00
 -1      7444-2.76822E+01-3.97667E+00 3.88972E+00
 -1      7445-2.78879E+01-2.33485E+00 4.66897E+00
 -1      7446-3.94886E-02-1.39814E+01 6.08216E+00
 -1      7447-1.21105E+00-1.39482E+01 6.08220E+00
 -1      7448-1.25447E+00-1.22109E+01 6.23813E+00
 -1      7449 2.51654E+01 4.03922E+00 8.46739E+00
 -1      7450-2.54141E+00-1.32626E+01 7.30819E+00
 -1      7451-2.27693E+01 1.54549E+00 8.31243E+00
 -1      7452 3.14461E+01-1.04810E+01 2.17337E+00
 -1      7453 3.25988E+01-9.26863E+00 1.69307E+00
 -1      7454 3.42045E+01 6.61765E+00 1.68304E+00
 -1      7455 2.59112E+01-1.21675E+01 1.66508E+00
 -1      7456 3.09012E+01-3.67089E+00 4.87301E+00
 -1      7457 1.44794E+01-1.20648E+01 8.48141E+00
 -1      7458 1.44696E+01-1.33373E+01 7.18371E+00
 -1      7459 3.10672E+01-1.81094E+00 6.87541E+00
 -1      7460 3.02486E+01-7.93580E-01 5.62120E+00
 -1      7461 1.24913E+01 1.03266E+01 2.90584E+00
 -1      7462 1.25764E+01 9.49210E+00 1.34607E+00
 -1      7463 1.34780E+01 8.17466E+00 2.78146E+00
 -1      7464 1.75558E+01-8.01345E+00 1.78577E+00
 -1      7465 1.92991E+01-7.31501E+00 1.65623E+00
 -1      7466 1.75705E+01-6.50179E+00 1.42932E+00
 -1      7467 1.93288E+01-6.38006E+00 3.08668E+00
 -1      7468-2.20672E+01-5.15466E+00 5.45217E+00
 -1      7469-8.18881E+00 6.06241E+00 8.66873E+00
 -1      7470 1.02469E+01 1.41459E+01 2.78018E+00
 -1      7471 9.67534E+00 1.39493E+01 3.58628E+00
 -1      7472 9.86554E+00 1.21962E+01 4.76877E+00
 -1      7473 1.11426E+01 1.32432E+01 4.63597E+00
 -1      7474 1.04601E+01 1.23859E+01 3.97510E+00
 -1      7475-3.86172E+01 1.61406E+00 3.87949E+00
 -1      7476-1.38952E+01-1.09725E+01 2.01690E+00
 -1      7477-1.23467E+01-1.11724E+01 1.93185E+00
 -1      7478 3.86988E+01-7.47781E+00 4.21030E+00
 -1      7479 2.73132E+01 1.07620E+01 4.32181E+00
 -1      7480-2.30092E+01-8.91093E+00 4.34357E+00
 -1      7481 1.68373E+01-1.00857E+01 3.29026E+00
 -1      7482 1.79176E+01-8.65742E+00 5.53169E+00
 -1      7483 1.77467E+01-9.99928E+00 6.83406E+00
 -1      7484 1.69499E+01-7.89567E+00 7.25517E+00
 -1      7485-1.14924E+01 3.75157E+00 1.81631E-01
 -1      7486-1.10414E+01 2.84281E+00 2.30015E+00
 -1      7487-1.38835E+01-1.21203E+01 8.39099E+00
 -1      7488-1.55734E+01-1.17711E+01 8.44737E+00
 -1      7489-1.49059E+01-1.00444E+01 8.60528E+00
 -1      7490-2.38335E+01 1.38211E+01 1.27780E+00
 -1      7491-2.23581E+01 1.38211E+01 1.27767E+00
 -1      7492-2.36560E+01 1.21262E+01 1.64652E+00
 -1      7493-2.35878E+01 1.33049E+01 2.92470E+00
 -1      7494-2.55422E+01-4.05724E+00 5.19725E+00
 -1      7495 7.77207E+00 1.12721E+01 5.78255E+00
 -1      7496 2.88939E+01 1.35848E+01 7.29343E+00
 -1      7497 3.05491E+01 1.34555E+01 7.24867E+00
 -1      7498-1.01654E+01-9.66623E+00 6.83885E+00
 -1      7499-8.74224E+00-1.08855E+01 5.57274E+00
 -1      7500-8.82325E+00-1.15576E+01 6.98077E+00
 -1      7501-3.85283E+01-7.88003E+00 7.09408E+00
 -1      7502-3.72299E+01-7.86268E+00 8.31761E+00
 -1      7503-3.66447E+01-6.71737E+00 6.42091E+00
 -1      7504-2.08151E+01-1.36763E+01 1.27757E+00
 -1      7505-2.73375E+01-9.39777E+00 8.37473E+00
 -1      7506-2.77726E+01-1.11087E+01 8.36285E+00
 -1      7507 1.19950E+01 1.35180E+01 3.27720E+00
 -1      7508 1.13030E+01 1.26691E+01 2.61789E+00
 -1      7509-3.42432E+01 1.34218E+01 2.97582E+00
 -1      7510 2.82300E+01-1.01770E+01 4.70790E+00
 -1      7511 2.85115E+01-8.29027E+00 4.90587E+00
 -1      7512 2.01727E+01-6.73761E+00 4.64921E+00
 -1      7513-2.39579E+01-9.21900E+00 6.11914E+00
 -1      7514 9.03603E+00-1.39346E+01 8.93153E+00
 -1      7515 1.04097E+01-1.34736E+01 8.93001E+00
 -1      7516 8.71635E+00-1.35928E+01 7.47494E+00
 -1      7517 9.92028E+00-1.20670E+01 8.54191E+00
 -1      7518 8.54557E+00-1.25275E+01 8.54066E+00
 -1      7519 2.72594E+01 1.18728E+01 3.28246E+00
 -1      7520 8.59772E+00-6.64893E+00 5.15762E+00
 -1      7521-2.89157E+01 1.32000E+01 4.60991E+00
 -1      7522-3.69092E+01-1.21076E+00 3.14161E+00
 -1      7523-3.62757E+01 1.21992E+01 1.51962E+00
 -1      7524-3.41825E+01 1.21434E+01 1.68817E+00
 -1      7525 3.87636E+01 9.00796E+00 1.26894E+00
 -1      7526 1.35873E+01 5.40536E-01 5.35428E+00
 -1      7527 3.10601E+01 9.12314E-01 5.15095E+00
 -1      7528-2.37411E+01 5.96545E+00 7.09727E+00
 -1      7529-2.27720E+01 5.99808E+00 8.75654E+00
 -1      7530-1.25314E+01 3.51076E+00 8.85508E+00
 -1      7531-1.38165E+01 4.24304E+00 8.85387E+00
 -1      7532-3.11285E+01-1.38626E+01 1.24985E+00
 -1      7533-1.03883E+01 1.39862E+01 9.15127E+00
 -1      7534-1.18176E+01 1.39863E+01 8.73182E+00
 -1      7535-1.12618E+01 1.31533E+01 6.91618E+00
 -1      7536-1.12681E+01 1.21404E+01 8.18481E+00
 -1      7537-1.05803E+01 1.41797E+01 2.70395E+00
 -1      7538-1.08450E+01 1.26041E+01 2.47293E+00
 -1      7539 3.00180E+01 2.06363E+00 4.67574E+00
 -1      7540 2.92066E+01 3.57725E-01 5.14600E+00
 -1      7541 3.02129E+01 8.06289E-01 6.67340E+00
 -1      7542 9.04728E+00 1.40049E+01 8.93183E+00
 -1      7543 8.63072E+00 1.25289E+01 8.51851E+00
 -1      7544 2.72545E+01-1.25471E+01 1.66515E+00
 -1      7545 3.14238E+01 1.00711E+00 8.57435E+00
 -1      7546 2.91827E+01 1.20366E+01 1.44174E+00
 -1      7547-1.15054E+01 5.25589E+00 2.22097E-01
 -1      7548-1.12834E+01 6.41983E+00 1.80856E+00
 -1      7549 3.35708E+01-2.19975E+00 4.72208E+00
 -1      7550-2.46014E+01 5.96450E+00 5.84952E+00
 -1      7551-2.57453E+01 7.25850E+00 4.93535E+00
 -1      7552-3.56324E+01 1.37217E+01 1.28760E+00
 -1      7553 3.87187E+01-6.17258E+00 8.73518E+00
 -1      7554 3.87188E+01-4.65962E+00 8.70100E+00
 -1      7555 3.80556E+01-5.77253E+00 7.04005E+00
 -1      7556 3.67743E+01-5.93214E+00 8.33910E+00
 -1      7557 2.15766E+01 9.63341E+00 5.20526E+00
 -1      7558-3.10315E+01 1.39965E+01 8.72218E+00
 -1      7559-3.23610E+01 1.22759E+01 8.30412E+00
 -1      7560-3.87756E+01-3.01518E+00 1.26803E+00
 -1      7561-3.70675E+01-2.07260E+00 1.76240E+00
 -1      7562 1.26873E+01-3.85979E+00 1.59430E+00
 -1      7563 1.33213E+01-5.59883E+00 1.29663E+00
 -1      7564 2.20607E+01-1.22020E+01 8.25691E+00
 -1      7565 2.20985E+01-1.33549E+01 6.98809E+00
 -1      7566 2.07372E+01-1.38469E+01 8.73212E+00
 -1      7567 2.03440E+01-1.23935E+01 8.55877E+00
 -1      7568 2.03830E+01-1.35464E+01 7.29020E+00
 -1      7569 1.83320E+01-2.83189E+00 8.76001E+00
 -1      7570 1.14073E+01-7.44408E-01 2.09022E-01
 -1      7571 1.13097E+01 4.63030E-01 1.86633E+00
 -1      7572-3.11262E+01 1.37217E+01 1.24984E+00
 -1      7573-3.26892E+01 1.34218E+01 2.93808E+00
 -1      7574 9.92482E+00 7.54327E+00 8.21607E+00
 -1      7575 9.55743E+00 9.03898E+00 8.60408E+00
 -1      7576 8.29234E+00 8.32845E+00 8.60371E+00
 -1      7577-3.40784E+01 1.37217E+01 1.24987E+00
 -1      7578 1.23689E+01 8.02245E+00 1.34688E+00
 -1      7579 3.38732E+01 3.67431E+00 1.45729E+00
 -1      7580-1.40399E+01-1.36445E+01 9.78130E-01
 -1      7581-1.39145E+01-9.31677E+00 1.53538E+00
 -1      7582 2.22179E+01-1.37642E+01 8.73190E+00
 -1      7583-3.87756E+01-1.49771E+00 1.29900E+00
 -1      7584-3.82920E+01-2.07490E+00 3.06145E+00
 -1      7585-3.60717E+01-6.17451E+00 4.73020E+00
 -1      7586-3.25217E+01 1.39965E+01 8.73226E+00
 -1      7587 2.91859E+01 1.35656E+01 2.72016E+00
 -1      7588 3.83595E+01-4.08783E+00 7.12562E+00
 -1      7589 3.38766E+01 5.16886E+00 1.45729E+00
 -1      7590-3.85420E+01-2.70539E+00 6.04748E+00
 -1      7591-1.85727E+01-1.06774E+00 8.58051E+00
 -1      7592 1.13343E+01-1.16412E+01 8.08491E+00
 -1      7593 1.01318E+01-1.31674E+01 7.01708E+00
 -1      7594 9.64311E+00-1.17625E+01 6.62923E+00
 -1      7595 3.55075E+01-1.09617E+00 1.89627E+00
 -1      7596-3.15523E+01 5.08086E+00 4.97761E+00
 -1      7597 1.56111E+01-7.06651E+00 1.29756E+00
 -1      7598 3.27798E+01-1.11562E+01 1.48890E+00
 -1      7599 1.72083E+01 5.72930E+00 2.01856E+00
 -1      7600 1.39865E+01-1.41492E+00 1.63293E+00
 -1      7601-1.34876E+01-1.03371E+01 3.33855E+00
 -1      7602-1.35097E+01-8.67973E+00 2.85842E+00
 -1      7603-1.25025E+01-9.79870E+00 1.32126E+00
 -1      7604 1.46692E+01-6.88088E+00 4.81148E+00
 -1      7605 1.36447E+01-1.33449E+01 2.59732E+00
 -1      7606 1.26812E+01-1.33448E+01 3.75040E+00
 -1      7607 1.54873E+01-1.32904E+01 2.67797E+00
 -1      7608 1.45225E+01-1.32904E+01 3.82833E+00
 -1      7609-7.98593E+00 3.06298E+00 8.70066E+00
 -1      7610-8.41530E+00 3.24194E+00 6.97801E+00
 -1      7611-2.58570E+01 6.35063E+00 8.37064E+00
 -1      7612-2.40582E+01 5.25874E+00 8.75644E+00
 -1      7613-9.74641E+00-1.07985E+01 4.70632E+00
 -1      7614-1.10087E+01-9.46902E+00 4.18153E+00
 -1      7615-9.62861E+00-9.19046E+00 4.97327E+00
 -1      7616 2.47119E+01 1.20040E+01 1.84030E+00
 -1      7617 2.28705E+01 1.20351E+01 1.66348E+00
 -1      7618-1.56590E+01-1.32542E+01 4.51194E+00
 -1      7619-1.73912E+01-1.34679E+01 4.44545E+00
 -1      7620 3.70783E+01-4.24744E+00 8.42468E+00
 -1      7621-8.79244E+00 1.39444E+01 4.96627E+00
 -1      7622-9.55015E+00 1.21075E+01 5.03972E+00
 -1      7623 1.16827E+01-1.34733E+01 8.70915E+00
 -1      7624 1.14037E+01-1.31674E+01 6.79287E+00
 -1      7625-1.00895E+01-6.30873E+00 4.53650E+00
 -1      7626-1.09747E+01-8.05639E+00 4.22165E+00
 -1      7627-9.59914E+00-7.77662E+00 5.01846E+00
 -1      7628-1.07781E+01-6.81097E+00 3.03684E+00
 -1      7629 2.81455E+01-3.06118E+00 1.53554E+00
 -1      7630-3.48291E+01-2.81713E+00 4.28565E+00
 -1      7631-2.14029E+01-2.18751E+00 1.72384E+00
 -1      7632 2.87365E+01 7.05162E+00 4.68120E+00
 -1      7633-2.27692E+01 3.03124E+00 8.75655E+00
 -1      7634 9.01297E+00 7.50805E+00 5.52669E+00
 -1      7635 7.37395E+00 8.29457E+00 5.88243E+00
 -1      7636 2.88689E+01 3.13453E-01 8.54736E+00
 -1      7637 1.67581E+01-1.31369E+01 5.52578E+00
 -1      7638 1.66704E+01-1.14273E+01 4.59335E+00
 -1      7639 1.61936E+01-1.32902E+01 3.94002E+00
 -1      7640 1.52138E+01-1.33374E+01 5.91751E+00
 -1      7641 1.51273E+01-1.16284E+01 4.98542E+00
 -1      7642 3.29484E+01-8.32178E-01 8.57432E+00
 -1      7643 1.19987E+01-1.31674E+01 5.41090E+00
 -1      7644-1.15082E+01 7.91187E+00 1.58367E+00
 -1      7645-1.17715E+01-1.39597E+01 8.73192E+00
 -1      7646-1.03420E+01-1.39598E+01 9.15127E+00
 -1      7647-1.10575E+01-1.31321E+01 7.02126E+00
 -1      7648-9.62733E+00-1.31322E+01 7.44345E+00
 -1      7649-1.10177E+01-1.20922E+01 8.29040E+00
 -1      7650-1.21043E+00 1.39820E+01 6.08227E+00
 -1      7651 2.69477E+01-7.77900E+00 5.02534E+00
 -1      7652 2.73761E+01 1.22308E+01 8.57135E+00
 -1      7653 1.69658E+01-6.09753E-01 8.34096E+00
 -1      7654 1.59576E+01-5.95389E-01 7.05817E+00
 -1      7655 2.47774E+01-2.19810E+00 4.83078E+00
 -1      7656-3.29799E+01 5.98403E+00 5.11945E+00
 -1      7657 3.44323E+01-1.33997E+01 2.77657E+00
 -1      7658-3.26258E+01-1.22719E+01 2.03831E+00
 -1      7659-3.84574E+01-1.12733E+01 7.28323E+00
 -1      7660-3.85283E+01-9.38287E+00 7.13454E+00
 -1      7661 1.43216E+01-5.99141E-01 8.71908E+00
 -1      7662 1.43609E+01-2.09668E+00 8.71922E+00
 -1      7663 1.52052E+01 3.92232E+00 5.02244E+00
 -1      7664-1.09087E+01 1.31530E+01 5.83775E+00
 -1      7665-3.28460E+01 2.84553E-02 5.00429E+00
 -1      7666 2.08624E+01 1.69973E+00 8.35301E+00
 -1      7667 3.47036E+01-9.85925E-01 4.36336E+00
 -1      7668 2.22863E+01-1.38623E+01 1.27767E+00
 -1      7669 2.08112E+01-1.38623E+01 1.27760E+00
 -1      7670 2.21088E+01-1.19273E+01 1.56955E+00
 -1      7671 3.19970E+01 2.68671E+00 4.96627E+00
 -1      7672 1.48578E+01-2.08632E+00 5.35257E+00
 -1      7673 1.59969E+01-2.09318E+00 7.05838E+00
 -1      7674 1.61770E+01-1.34429E+00 4.97321E+00
 -1      7675 1.48181E+01-5.88922E-01 5.35226E+00
 -1      7676 1.46351E+01-1.33787E+00 7.43653E+00
 -1      7677-1.65889E+01-1.32781E+01 5.94061E+00
 -1      7678-3.86252E+01 1.05055E+01 1.29058E+00
 -1      7679-3.36508E+01-6.00873E+00 1.40525E+00
 -1      7680 3.25920E+01 1.68522E+00 8.38967E+00
 -1      7681 3.16549E+01-8.91604E-02 8.57435E+00
 -1      7682 8.61558E+00-9.38215E+00 5.78888E+00
 -1      7683 9.12761E+00-1.09258E+01 5.36867E+00
 -1      7684-2.37484E+01-4.06045E+00 8.62957E+00
 -1      7685-3.46605E+01 8.37689E-02 4.56091E+00
 -1      7686 1.39603E+01 1.35173E+01 2.72967E+00
 -1      7687 1.60138E+01 1.33911E+01 2.79885E+00
 -1      7688-3.86252E+01 8.94228E+00 1.26482E+00
 -1      7689 2.22100E+01 1.33382E+01 1.66331E+00
 -1      7690-1.24979E+01 3.95874E+00 5.05426E+00
 -1      7691-1.09777E+01 3.06027E+00 5.33765E+00
 -1      7692-2.22833E+01-8.23641E+00 5.50665E+00
 -1      7693 1.78126E+01-1.35469E+01 3.92870E+00
 -1      7694 1.82897E+01-1.16840E+01 4.58224E+00
 -1      7695 1.77230E+01-1.18373E+01 2.99650E+00
 -1      7696 3.70649E+01-6.72829E+00 1.64232E+00
 -1      7697 3.74085E+01-8.21226E+00 1.70951E+00
 -1      7698 2.36871E+01 1.36967E+01 1.27780E+00
 -1      7699-1.02698E+01 7.88755E-01 4.30863E+00
 -1      7700-1.15901E+01 1.38977E+00 5.10789E+00
 -1      7701-3.26023E+01 1.37217E+01 1.24984E+00
 -1      7702-3.27064E+01 1.21434E+01 1.68815E+00
 -1      7703 2.51093E+01 1.36604E+01 1.27797E+00
 -1      7704 2.65848E+01 1.36604E+01 1.27818E+00
 -1      7705 2.62648E+01 1.33073E+01 3.11895E+00
 -1      7706 2.61340E+01 1.19678E+01 1.84044E+00
 -1      7707 3.61082E+01-1.21167E+01 1.52301E+00
 -1      7708 3.42253E+01-1.20441E+01 1.48893E+00
 -1      7709 1.82925E+01-1.31368E+01 5.57667E+00
 -1      7710 2.08824E+01 7.62033E+00 5.17114E+00
 -1      7711 2.68522E+01 3.07320E+00 4.97305E+00
 -1      7712-3.49505E+01-7.37733E+00 5.17201E+00
 -1      7713-2.62271E+01-1.10610E+01 8.56109E+00
 -1      7714-3.26023E+01-1.37217E+01 1.24984E+00
 -1      7715-1.16743E+01 2.95583E+00 7.12688E+00
 -1      7716 2.21228E+01 6.63738E+00 5.21350E+00
 -1      7717-1.67600E+01 1.30828E+01 5.56230E+00
 -1      7718-2.53091E+01 1.38211E+01 1.27797E+00
 -1      7719-2.53445E+01 1.34878E+01 2.76225E+00
 -1      7720-2.54133E+01 1.23091E+01 1.48395E+00
 -1      7721-2.68198E+01 1.34880E+01 2.76259E+00
 -1      7722 1.77021E+01-1.04752E+01 1.50269E+00
 -1      7723 1.48948E+01 1.37471E+01 1.17404E+00
 -1      7724 1.67709E+01 1.33911E+01 1.62349E+00
 -1      7725 1.65623E+01-5.69167E+00 7.27048E+00
 -1      7726 1.57667E+01-4.31470E+00 8.76097E+00
 -1      7727 1.60792E+01-3.57616E+00 7.47797E+00
 -1      7728 1.14226E+01-2.25059E+00 2.24239E-01
 -1      7729 1.12491E+01-3.11815E+00 1.83340E+00
 -1      7730-1.49018E+01-1.36272E+01 5.88536E+00
 -1      7731 1.65146E+01 5.82301E+00 1.56274E+00
 -1      7732 6.70271E+00 1.41716E+01 5.81552E+00
 -1      7733 7.46160E+00 1.27027E+01 5.91044E+00
 -1      7734-3.72036E+01-1.12694E+01 8.46629E+00
 -1      7735-3.72744E+01-9.37890E+00 8.31761E+00
 -1      7736 2.59530E+01-7.91991E+00 6.12821E+00
 -1      7737 1.38129E+01-1.35048E+00 4.55207E+00
 -1      7738 1.83345E+01-4.31540E+00 8.75999E+00
 -1      7739 3.01787E+01-2.30422E+00 8.30122E+00
 -1      7740 2.88940E+01-1.13755E+00 8.54736E+00
 -1      7741-3.19633E+01 1.34218E+01 4.18180E+00
 -1      7742 1.20995E+01-6.34739E+00 1.30386E+00
 -1      7743-2.74852E+01-7.60170E-01 4.65653E+00
 -1      7744 1.61304E+01-6.43376E+00 8.51130E+00
 -1      7745 1.70527E+01-5.05898E+00 8.76044E+00
 -1      7746-1.63753E+01 1.14804E+01 4.65308E+00
 -1      7747 1.41812E+01 1.24890E-01 5.46494E+00
 -1      7748-2.67417E+01 1.38491E+01 1.27821E+00
 -1      7749-2.68459E+01 1.23370E+01 1.48405E+00
 -1      7750 1.56221E+01 5.92921E+00 2.99723E+00
 -1      7751 2.00743E+01-1.24093E+01 1.49261E+00
 -1      7752 1.67531E+01-1.10721E+01 8.09067E+00
 -1      7753-2.74416E+01-1.03034E+01 5.25656E+00
 -1      7754-2.64842E+01-1.10882E+01 5.84084E+00
 -1      7755 1.83366E+01-5.79849E+00 8.75999E+00
 -1      7756 1.74408E+01-7.26290E+00 8.74533E+00
 -1      7757 1.78720E+01-6.52079E+00 7.50438E+00
 -1      7758 9.08263E+00 1.39445E+01 4.53777E+00
 -1      7759 1.05476E+01 1.32436E+01 5.59233E+00
 -1      7760-2.67390E+01-1.22352E+01 6.92370E+00
 -1      7761 2.02242E+01-6.54635E+00 1.65622E+00
 -1      7762 1.84953E+01-5.73310E+00 1.42941E+00
 -1      7763-2.67528E+01-1.36415E+01 5.86109E+00
 -1      7764-1.09336E+01 7.16243E+00 2.85753E+00
 -1      7765 1.05541E+01 9.46936E+00 2.77643E+00
 -1      7766-1.76576E+01 1.35829E+01 4.28857E+00
 -1      7767-3.69985E+01 1.11585E+01 8.49653E+00
 -1      7768-3.72744E+01 9.57499E+00 8.53993E+00
 -1      7769-3.72444E+01-3.44591E+00 8.54176E+00
 -1      7770-1.51242E+01 1.35935E+01 5.67804E+00
 -1      7771-2.13000E+01 4.44597E+00 8.41784E+00
 -1      7772-2.27703E+01 4.51510E+00 8.75657E+00
 -1      7773 2.66642E+01 1.08221E+01 1.84048E+00
 -1      7774-1.14963E+01 6.41578E+00 1.56897E+00
 -1      7775-2.75573E+01 1.34880E+01 1.48416E+00
 -1      7776-2.82955E+01 1.34880E+01 2.76259E+00
 -1      7777 1.86115E+01-1.16835E+01 6.64767E+00
 -1      7778 9.70080E+00-5.11244E+00 5.07385E+00
 -1      7779-1.06426E+01-9.74036E+00 2.75216E+00
 -1      7780-2.26388E+01-6.92431E+00 4.80856E+00
 -1      7781-8.93991E+00-1.36579E+01 9.15240E+00
 -1      7782-9.61556E+00-1.17909E+01 8.29204E+00
 -1      7783-2.81936E+01-1.38626E+01 1.27831E+00
 -1      7784 3.72566E+01-1.11892E+01 1.52301E+00
 -1      7785 3.74869E+01-9.69355E+00 1.70952E+00
 -1      7786-9.61973E+00-1.01168E+01 8.29332E+00
 -1      7787-2.82955E+01 1.22096E+01 1.48415E+00
 -1      7788 1.90240E+01-1.06452E+01 5.62249E+00
 -1      7789 3.83552E+01-5.99265E+00 1.64233E+00
 -1      7790-1.58027E+01-1.32781E+01 7.19769E+00
 -1      7791-1.41148E+01-1.36272E+01 7.14263E+00
 -1      7792 1.52914E+01 7.45995E+00 4.86687E+00
 -1      7793 9.95988E+00-1.07958E+01 8.08759E+00
 -1      7794-2.38049E+01-7.94781E+00 5.18941E+00
 -1      7795 2.22391E+01 1.39880E+01 8.73195E+00
 -1      7796-1.60584E+01 1.33970E+01 4.07975E+00
 -1      7797-1.47394E+01 1.19916E+01 4.76869E+00
 -1      7798-8.19430E+00 4.56910E+00 8.66751E+00
 -1      7799 3.03412E+01 6.12687E-01 8.57437E+00
 -1      7800 1.83873E+01 2.98819E+00 8.34915E+00
 -1      7801-9.90754E+00 7.59304E+00 4.59468E+00
 -1      7802-1.28154E+01 1.25807E+01 8.18621E+00
 -1      7803-1.28087E+01 1.35935E+01 6.91554E+00
 -1      7804-2.41700E+01 6.70732E+00 8.34119E+00
 -1      7805 1.32837E+01-1.16832E+01 4.90577E+00
 -1      7806-1.04647E+01-1.11135E+01 3.35539E+00
 -1      7807-1.30534E+01 8.18532E-01 5.54481E+00
 -1      7808-1.27549E+01-6.80065E+00 1.56485E+00
 -1      7809-1.39941E+01-7.83533E+00 1.53565E+00
 -1      7810 6.70084E+00-1.41739E+01 5.81704E+00
 -1      7811 7.38247E+00-1.27720E+01 5.93755E+00
 -1      7812-1.49887E+01 1.37571E+01 1.21450E+00
 -1      7813-1.38821E+01 1.37578E+01 9.78251E-01
 -1      7814-1.42768E+01 1.33970E+01 2.56541E+00
 -1      7815-1.52797E+01 1.21548E+01 1.58455E+00
 -1      7816-1.53815E+01 1.33968E+01 2.80041E+00
 -1      7817-1.41740E+01-1.32542E+01 4.43732E+00
 -1      7818-1.26262E+01-1.34522E+01 4.35766E+00
 -1      7819 1.84788E+01-4.19000E+00 1.42940E+00
 -1      7820-3.87462E+01-1.05336E+01 8.81698E+00
 -1      7821-3.85282E+01-8.61407E+00 8.31760E+00
 -1      7822-3.86171E+01 8.64143E-01 2.67820E+00
 -1      7823 8.01428E+00 2.21563E+00 5.77500E+00
 -1      7824 1.62439E+01-1.32903E+01 1.50280E+00
 -1      7825 1.69988E+01-1.32902E+01 2.74114E+00
 -1      7826 3.87097E+01-7.48012E+00 1.28387E+00
 -1      7827 3.83552E+01-6.73713E+00 2.92624E+00
 -1      7828-1.34164E+01-1.36272E+01 5.81154E+00
 -1      7829-1.34840E+01 1.21802E+01 1.48722E+00
 -1      7830-1.24846E+01 1.34226E+01 2.47018E+00
 -1      7831-3.85420E+01-3.45786E+00 7.27789E+00
 -1      7832 1.53933E+01 4.88959E+00 8.45882E+00
 -1      7833-1.06260E+01-8.33085E+00 2.80080E+00
 -1      7834-2.29781E+01-6.29674E+00 1.45281E+00
 -1      7835-3.82637E+01 1.12967E+01 7.20252E+00
 -1      7836-3.85395E+01 9.71319E+00 7.24592E+00
 -1      7837 1.35424E+01-1.33377E+01 5.80747E+00
 -1      7838 1.29482E+01-1.33374E+01 7.18982E+00
 -1      7839-1.14657E+01-1.34537E+01 2.57609E+00
 -1      7840-1.16573E+01-1.34516E+01 3.65241E+00
 -1      7841 2.89741E+01-1.34647E+01 7.00795E+00
 -1      7842 3.05935E+01-1.34603E+01 7.26367E+00
 -1      7843 8.39205E+00 1.24697E+01 5.38335E+00
 -1      7844 3.57108E+01-5.10026E+00 8.42469E+00
 -1      7845 7.88803E+00 1.35232E+01 8.51951E+00
 -1      7846 1.86189E+01-1.35469E+01 2.73047E+00
 -1      7847-1.65266E+01-1.40154E+01 1.21395E+00
 -1      7848 1.28790E+01-1.18115E+01 8.48282E+00
 -1      7849-3.86171E+01-6.35864E-01 2.67820E+00
 -1      7850-1.24572E+01 1.35934E+01 5.83685E+00
 -1      7851-1.29454E+01 1.20174E+01 4.67417E+00
 -1      7852-1.83773E+01 1.35829E+01 3.04279E+00
 -1      7853-1.91039E+01 1.35829E+01 1.79396E+00
 -1      7854-3.73927E+01-6.33567E-01 1.37915E+00
 -1      7855-3.55285E+01-6.55090E+00 1.62683E+00
 -1      7856-3.47519E+01-5.26861E+00 1.40526E+00
 -1      7857-3.59348E+01-7.11356E+00 8.31762E+00
 -1      7858 8.54362E+00 6.82177E+00 8.64628E+00
 -1      7859-2.33989E+01-6.13972E+00 3.00144E+00
 -1      7860 2.79920E+01-1.34985E+01 1.66527E+00
 -1      7861 8.58268E+00-7.88047E+00 5.80353E+00
 -1      7862-1.41638E+00 1.32853E+01 8.75445E+00
 -1      7863 1.89063E+01-1.35465E+01 7.24943E+00
 -1      7864 1.88523E+01-1.23769E+01 8.55914E+00
 -1      7865 3.36334E+01-1.33997E+01 1.48894E+00
 -1      7866-1.45731E+01 1.33968E+01 4.00423E+00
 -1      7867-1.36390E+01 1.35936E+01 5.60419E+00
 -1      7868-1.25450E+01-1.25876E+01 8.39275E+00
 -1      7869-1.25849E+01-1.36271E+01 7.12247E+00
 -1      7870-2.59331E+01-1.35939E+01 7.28580E+00
 -1      7871-2.74785E+01-1.36415E+01 7.08752E+00
 -1      7872-2.23302E+00-1.40555E+01 6.08207E+00
 -1      7873 1.24376E+01-1.38992E+01 1.04511E+00
 -1      7874 1.16238E+01-1.38978E+01 8.74639E-01
 -1      7875 1.00956E+01-1.41422E+01 1.94355E+00
 -1      7876 1.11306E+01-1.30459E+01 1.04387E+00
 -1      7877 1.08896E+01-1.41396E+01 2.10944E+00
 -1      7878 1.23962E+01 1.39426E+01 1.04477E+00
 -1      7879 1.15848E+01 1.39417E+01 8.75266E-01
 -1      7880 1.10809E+01 1.30894E+01 1.05277E+00
 -1      7881 1.00978E+01 1.41393E+01 1.94432E+00
 -1      7882 1.08919E+01 1.41396E+01 2.11139E+00
 -1      7883-1.07060E+01-1.31324E+01 5.94311E+00
 -1      7884-9.35180E+00-1.20879E+01 5.15003E+00
 -1      7885-9.75877E+00-1.39415E+01 4.51564E+00
 -1      7886-1.14449E+01-1.34539E+01 4.59085E+00
 -1      7887-1.00865E+01-1.23976E+01 3.80054E+00
 -1      7888-1.18961E+01-1.39150E+01 6.34031E-01
 -1      7889-3.73505E+01 8.66765E-01 1.37915E+00
 -1      7890 1.65625E+01 1.35199E+01 8.23984E+00
 -1      7891 1.15212E+01 1.20233E+01 1.77856E+00
 -1      7892 1.11181E+01 1.11835E+01 2.97686E+00
 -1      7893 1.09893E+01 1.03133E+01 1.56879E+00
 -1      7894 1.14793E+01-3.11640E+00 1.59693E+00
 -1      7895 8.64459E+00 6.78216E+00 5.14595E+00
 -1      7896-1.35715E+01 1.35935E+01 8.18555E+00
 -1      7897 1.82141E+01-1.07596E+01 8.08993E+00
 -1      7898-1.72712E+01 1.19803E+01 3.37956E+00
 -1      7899-1.14884E+01-2.25303E+00 1.81730E-01
 -1      7900-1.12347E+01-1.50037E+00 1.24803E+00
 -1      7901 2.67154E+01-1.40487E+01 1.27821E+00
 -1      7902 2.82317E+01-1.34647E+01 8.28586E+00
 -1      7903 1.48074E+00-1.39226E+01 9.31863E+00
 -1      7904-1.77545E+01 1.36631E+01 1.24777E+00
 -1      7905-1.63575E+01 1.36632E+01 1.21403E+00
 -1      7906-1.66484E+01 1.20606E+01 1.58414E+00
 -1      7907-1.67766E+01 1.33970E+01 2.83327E+00
 -1      7908-8.71420E+00 2.46047E+00 5.45528E+00
 -1      7909-9.35058E+00 7.91245E-01 5.25040E+00
 -1      7910-7.45831E+00 7.75493E-01 5.83279E+00
 -1      7911-1.70968E+01 1.09007E+01 1.58408E+00
 -1      7912-2.23417E+00 1.40623E+01 6.08221E+00
 -1      7913 1.69684E+01-2.09302E+00 8.34102E+00
 -1      7914 1.56416E+01-1.35207E+00 8.71831E+00
 -1      7915 1.56441E+01-2.83534E+00 8.71836E+00
 -1      7916-1.11403E+01-1.19586E+01 1.93378E+00
 -1      7917-1.12981E+01-1.05866E+01 1.30393E+00
 -1      7918-1.27807E+01 1.34223E+01 3.91093E+00
 -1      7919-1.03722E+01-1.41388E+01 1.69376E+00
 -1      7920-1.05505E+01-1.41427E+01 2.77295E+00
 -1      7921-1.06620E+01-1.25985E+01 2.99872E+00
 -1      7922-2.23806E+01-1.34083E+01 1.54216E+00
 -1      7923 3.86289E+01-3.26801E+00 8.70100E+00
 -1      7924-1.22709E+01-7.64315E+00 2.89445E+00
 -1      7925 1.33834E+01 8.50976E+00 1.34395E+00
 -1      7926 8.31845E+00-1.25375E+01 5.40852E+00
 -1      7927-1.11109E+01-1.30601E+01 1.05147E+00
 -1      7928 1.72651E+01-9.79749E+00 8.74536E+00
 -1      7929 7.61577E+00 6.78772E+00 5.92686E+00
 -1      7930 1.12061E+01 1.51048E+00 1.24830E+00
 -1      7931 1.14508E+01 2.26098E+00 2.12365E-01
 -1      7932-1.15117E+01-7.47409E-01 2.30983E-01
 -1      7933 3.89583E+01 1.39821E+01 3.82552E+00
 -1      7934-1.27766E+01 1.38985E+01 9.79364E-01
 -1      7935-1.23817E+01 1.23227E+01 1.48896E+00
 -1      7936-3.89583E+01 1.39815E+01 3.82583E+00
 -1      7937-3.89908E+01 1.39815E+01 4.99912E+00
 -1      7938-1.65165E+01-1.32781E+01 8.44691E+00
 -1      7939 8.99587E+00-1.35946E+01 6.22676E+00
 -1      7940-3.89907E+01 1.39482E+01 6.17094E+00
 -1      7941 2.77100E+01 1.35656E+01 2.72014E+00
 -1      7942 3.89583E+01-1.40556E+01 2.80270E+00
 -1      7943 3.84686E+01-1.25278E+01 2.41453E+00
 -1      7944-1.09050E+01-1.19584E+01 2.17831E+00
 -1      7945-1.10839E+01-1.05774E+01 1.54313E+00
 -1      7946 1.48622E+01-1.37517E+01 1.17393E+00
 -1      7947 1.54798E+01-1.20426E+01 1.50264E+00
 -1      7948-9.66932E+00 2.46537E+00 4.56091E+00
 -1      7949 3.90658E+01-1.40556E+01 1.78127E+00
 -1      7950 3.75343E+01-1.34723E+01 2.41279E+00
 -1      7951 3.54863E+01-1.36445E+01 1.28759E+00
 -1      7952 1.37402E+01-1.33372E+01 8.48208E+00
 -1      7953 1.14646E+01 7.51069E-01 2.30067E-01
 -1      7954-1.14796E+01-6.05685E+00 1.56554E+00
 -1      7955-1.13126E+01-7.57740E+00 1.31370E+00
 -1      7956-1.25840E+01-8.31762E+00 1.32083E+00
 -1      7957-1.12357E+01-6.05797E+00 1.78326E+00
 -1      7958-1.10809E+01-7.57916E+00 1.53535E+00
 -1      7959-1.82506E+01 1.22463E+01 1.79398E+00
 -1      7960-1.41487E+00 1.08562E+01 8.75450E+00
 -1      7961 2.98121E+01-1.38123E+01 8.72222E+00
 -1      7962 2.91531E+01-1.22769E+01 8.28585E+00
 -1      7963-1.15136E+01 2.25635E+00 2.31586E-01
 -1      7964 1.10133E+01 8.80896E+00 1.57630E+00
 -1      7965 1.98048E+01-4.93421E+00 1.66896E+00
 -1      7966 1.69807E+01-1.20120E+01 1.50270E+00
 -1      7967 1.86022E+01-1.22687E+01 1.49254E+00
 -1      7968 3.90658E+01 1.39821E+01 2.80409E+00
 -1      7969 3.75428E+01 1.34644E+01 2.42598E+00
 -1      7970 3.84771E+01 1.24464E+01 3.45054E+00
 -1      7971 1.70504E+01-3.57604E+00 8.76043E+00
 -1      7972-2.58647E+01-1.24037E+01 8.56108E+00
 -1      7973-2.74102E+01-1.24513E+01 8.36284E+00
 -1      7974 2.97827E+01-6.44265E-01 7.12156E+00
 -1      7975-1.25671E+01-1.20807E+01 5.32856E+00
 -1      7976-9.73922E+00-1.31327E+01 6.39278E+00
 -1      7977-8.79337E+00-1.39455E+01 4.96486E+00
 -1      7978-7.87433E+00-1.23661E+01 5.55974E+00
 -1      7979-8.25963E+00-1.34256E+01 6.79439E+00
 -1      7980-3.89907E+01 1.40556E+01 7.19299E+00
 -1      7981-3.72544E+01 1.34671E+01 6.58100E+00
 -1      7982-3.82637E+01 1.25226E+01 7.60500E+00
 -1      7983 7.81458E+00-1.35917E+01 8.54348E+00
 -1      7984-3.90717E+01 1.40556E+01 8.21765E+00
 -1      7985-3.73353E+01 1.34671E+01 7.60566E+00
 -1      7986 3.90658E+01 1.40623E+01 1.78038E+00
 -1      7987 3.84770E+01 1.25267E+01 2.42682E+00
 -1      7988-2.43339E+00-1.35552E+01 8.58270E+00
 -1      7989-3.90658E+01 1.39815E+01 2.80439E+00
 -1      7990-3.74481E+01 1.34776E+01 3.43084E+00
 -1      7991-3.75556E+01 1.34776E+01 2.40940E+00
 -1      7992 1.37744E+01-1.38984E+01 1.17480E+00
 -1      7993 1.23115E+01-1.33445E+01 2.46838E+00
 -1      7994 1.25444E+01-1.22458E+01 1.41831E+00
 -1      7995 1.36336E+01-1.20975E+01 1.41927E+00
 -1      7996-9.97528E+00-1.39517E+01 3.57905E+00
 -1      7997-2.38095E+00 1.35608E+01 8.58287E+00
 -1      7998 3.13324E+01-1.34602E+01 8.54154E+00
 -1      7999 3.89909E+01 1.40554E+01 7.19368E+00
 -1      8000 3.84758E+01 1.25520E+01 7.58877E+00
 -1      8001-8.13456E+00-1.20828E+01 8.68504E+00
 -1      8002-1.46414E+01-1.34926E+01 8.75244E+00
 -1      8003-1.40805E+00-1.32626E+01 8.73860E+00
 -1      8004-8.14548E+00-1.34242E+01 7.84001E+00
 -1      8005-2.79818E+01 1.34278E+01 8.50735E+00
 -1      8006-3.90658E+01 1.40615E+01 1.78080E+00
 -1      8007-3.84899E+01 1.25391E+01 2.41068E+00
 -1      8008 3.90717E+01 1.40554E+01 8.21834E+00
 -1      8009 3.75476E+01 1.34965E+01 7.58874E+00
 -1      8010 3.86988E+01-8.97662E+00 1.70953E+00
 -1      8011 2.75794E+01 1.22259E+01 1.44168E+00
 -1      8012 3.90717E+01-1.40615E+01 8.21811E+00
 -1      8013 3.90717E+01-1.39815E+01 7.19453E+00
 -1      8014 3.75552E+01-1.34885E+01 7.57791E+00
 -1      8015 3.84836E+01-1.25500E+01 7.57772E+00
 -1      8016-2.39182E+01-5.91490E+00 1.54816E+00
 -1      8017 3.16486E+01-1.57967E+00 8.57434E+00
 -1      8018 3.03663E+01-8.38314E-01 8.57437E+00
 -1      8019-1.12986E+01-9.08110E+00 1.30657E+00
 -1      8020-1.10862E+01-9.08001E+00 1.53566E+00
 -1      8021-7.37168E+00-1.34238E+01 8.68569E+00
 -1      8022-3.85419E+01-2.69627E+00 8.54175E+00
 -1      8023 1.96256E+01-1.35465E+01 8.55892E+00
 -1      8024-3.90717E+01-1.39175E+01 7.23416E+00
 -1      8025-3.75291E+01-1.35045E+01 7.57542E+00
 -1      8026-1.04026E+01 1.41718E+01 1.62494E+00
 -1      8027-1.16167E+01 1.34239E+01 2.12723E+00
 -1      8028-1.27298E+01 2.59306E+00 5.91550E+00
 -1      8029 1.26266E+01 1.35173E+01 2.60166E+00
 -1      8030 2.68889E+01 1.05809E+01 8.57760E+00
 -1      8031-3.90717E+01-1.40536E+01 8.24844E+00
 -1      8032-3.84574E+01-1.25581E+01 7.60555E+00
 -1      8033 1.78769E+01-1.37216E+01 1.23713E+00
 -1      8034 3.12879E+01 1.34555E+01 8.52649E+00
 -1      8035-3.84998E+01 3.03485E+00 8.50105E+00
 -1      8036-1.22340E+01-1.36273E+01 6.04383E+00
 -1      8037 3.07724E+01-1.22724E+01 8.54156E+00
 -1      8038 9.06958E+00 1.35247E+01 6.20410E+00
 -1      8039 2.97197E+01 1.36207E+01 8.72227E+00
 -1      8040 1.28223E+01 1.24591E+01 1.55435E+00
 -1      8041 1.14490E+01-3.75022E+00 2.36602E-01
 -1      8042 3.86988E+01-8.22110E+00 2.99345E+00
 -1      8043-3.56965E+01-7.55470E+00 8.54517E+00
 -1      8044 2.75276E+01-7.22964E+00 8.40937E+00
 -1      8045 3.87881E+01-1.05466E+01 1.29397E+00
 -1      8046 3.86988E+01-9.80625E+00 3.00354E+00
 -1      8047-7.86582E+00-1.41857E+01 5.49910E+00
 -1      8048-6.94062E+00-1.26056E+01 6.07609E+00
 -1      8049 1.37321E+01 1.39424E+01 1.17464E+00
 -1      8050 3.79893E+01-1.39170E+01 8.89751E-01
 -1      8051 3.67702E+01-1.39170E+01 1.28760E+00
 -1      8052 3.73921E+01-1.23893E+01 1.52302E+00
 -1      8053-3.79893E+01 1.39170E+01 8.89751E-01
 -1      8054-3.67702E+01 1.39170E+01 1.28760E+00
 -1      8055-3.74134E+01 1.23946E+01 1.51963E+00
 -1      8056-7.02713E+00 3.78603E+00 5.99599E+00
 -1      8057 3.89236E+01-1.17466E+01 1.29398E+00
 -1      8058 3.89236E+01-1.29726E+01 8.91495E-01
 -1      8059 3.84686E+01-1.13019E+01 2.81702E+00
 -1      8060-3.89236E+01 1.17432E+01 1.29059E+00
 -1      8061-3.89236E+01 1.29785E+01 8.91033E-01
 -1      8062-1.19102E+01 1.38993E+01 6.31197E-01
 -1      8063-1.11491E+01 1.30782E+01 9.84019E-01
 -1      8064-3.89004E+01-1.16643E+01 8.81697E+00
 -1      8065-3.89004E+01-1.29491E+01 9.13929E+00
 -1      8066-3.73578E+01-1.24000E+01 8.46628E+00
 -1      8067 3.79904E+01 1.39136E+01 9.10917E+00
 -1      8068 3.67680E+01 1.39137E+01 8.71128E+00
 -1      8069 3.73945E+01 1.24102E+01 8.47960E+00
 -1      8070 3.67509E+01 1.38980E+01 1.28763E+00
 -1      8071 3.79700E+01 1.38980E+01 8.89756E-01
 -1      8072 3.73813E+01 1.23623E+01 1.53620E+00
 -1      8073-3.67527E+01 1.38989E+01 8.71128E+00
 -1      8074-3.79754E+01 1.38989E+01 9.10916E+00
 -1      8075-3.71674E+01 1.23659E+01 8.49652E+00
 -1      8076-3.67508E+01-1.38980E+01 1.28760E+00
 -1      8077-3.79700E+01-1.38980E+01 8.89751E-01
 -1      8078-3.75490E+01-1.34704E+01 2.42228E+00
 -1      8079-3.73875E+01-1.23684E+01 1.53251E+00
 -1      8080-3.89042E+01-1.29592E+01 8.93652E-01
 -1      8081-3.89042E+01-1.17272E+01 1.29631E+00
 -1      8082-3.84832E+01-1.25316E+01 2.42618E+00
 -1      8083 3.67527E+01-1.38989E+01 8.71128E+00
 -1      8084 3.79754E+01-1.38989E+01 9.10917E+00
 -1      8085 3.73873E+01-1.23873E+01 8.46877E+00
 -1      8086 3.89042E+01 1.29603E+01 8.90605E-01
 -1      8087 3.89042E+01 1.17274E+01 1.28876E+00
 -1      8088 1.93394E+01-1.35470E+01 1.49250E+00
 -1      8089 3.89037E+01-1.29604E+01 9.10897E+00
 -1      8090 3.89037E+01-1.17251E+01 8.70941E+00
 -1      8091-1.33473E+01-1.36270E+01 8.39193E+00
 -1      8092-3.89037E+01 1.29544E+01 9.10850E+00
 -1      8093-3.89037E+01 1.17285E+01 8.70602E+00
 -1      8094 3.89187E+01 1.17425E+01 8.70948E+00
 -1      8095 3.89187E+01 1.29691E+01 9.10920E+00
 -1      8096-5.85137E+00-1.35008E+01 5.91305E+00
 -1      8097-6.63775E+00-1.41748E+01 5.79382E+00
 -1      8098-7.02462E+00-1.34246E+01 7.07698E+00
 -1      8099 1.73982E+01-8.64800E+00 8.74538E+00
 -1      8100-7.24154E+00 2.28512E+00 5.89885E+00
 -1      8101-3.79720E+01-1.38955E+01 9.10916E+00
 -1      8102-3.67493E+01-1.38955E+01 8.71128E+00
 -1      8103-3.87348E+01 1.05211E+01 8.70603E+00
 -1      8104-3.85395E+01 8.88355E+00 8.53993E+00
 -1      8105 2.81513E+01 1.35848E+01 8.57128E+00
 -1      8106-2.66045E+01-1.38100E+01 8.72491E+00
 -1      8107-2.82160E+01-1.36414E+01 8.36276E+00
 -1      8108-2.51892E+01-1.35939E+01 8.56109E+00
 -1      8109-3.90658E+01-1.40612E+01 1.78342E+00
 -1      8110 2.84476E+01 1.35655E+01 1.44175E+00
 -1      8111-3.90658E+01-1.39767E+01 2.81176E+00
 -1      8112 1.17729E+01 1.20200E+01 1.55867E+00
 -1      8113 1.05396E+01 1.34976E+01 8.70000E-01
 -1      8114 1.00860E+01 1.26459E+01 1.03513E+00
 -1      8115-3.86171E+01 1.14139E-01 1.37916E+00
 -1      8116 8.16263E+00 1.41856E+01 5.08278E+00
 -1      8117 1.05336E+01-1.34980E+01 8.61334E-01
 -1      8118 8.16064E+00-1.41876E+01 5.08241E+00
 -1      8119 1.12033E+01 8.80775E+00 1.31351E+00
 -1      8120 1.12335E+01-1.18527E+01 1.64514E+00
 -1      8121 1.02252E+01 1.34823E+01 1.21056E-01
 -1      8122-1.10511E+01 1.19267E+01 1.69967E+00
 -1      8123-1.12926E+01 1.19256E+01 1.48582E+00
 -1      8124-1.00680E+01 1.26776E+01 9.65548E-01
 -1      8125-1.08103E+01 1.35013E+01 6.29401E-01
 -1      8126-1.05859E+01-1.34986E+01 8.58106E-01
 -1      8127-1.02019E+01 1.34943E+01 1.92278E-01
 -1      8128 1.30598E+01-9.19334E+00 2.71929E+00
 -1      8129 7.54226E+00-8.63240E+00 6.04046E+00
 -1      8130 2.76704E+01-6.50780E+00 8.59382E+00
 -1      8131 3.39749E+01 5.91740E+00 8.38673E+00
 -1      8132-2.70620E+01-5.91618E+00 1.56782E+00
 -1      8133 1.12161E+01 7.30538E+00 1.34421E+00
 -1      8134 1.23973E+01 6.55966E+00 1.34242E+00
 -1      8135 1.62006E+01-1.01999E+01 7.22472E+00
 -1      8136-3.74806E+01 1.34776E+01 4.60415E+00
 -1      8137-1.51008E+01 3.50441E+00 8.85287E+00
 -1      8138 1.12239E+01 1.03092E+01 1.33494E+00
 -1      8139 1.14667E+01-1.03462E+01 1.41924E+00
 -1      8140 1.20838E+01-7.84752E+00 1.28923E+00
 -1      8141-1.12871E+01 1.04221E+01 1.46893E+00
 -1      8142 1.14472E+01-1.18469E+01 1.40141E+00
 -1      8143-1.12835E+01-1.24140E+01 1.99936E-01
 -1      8144 1.01308E+01-1.35075E+01 2.18224E-01
 -1      8145 1.03260E+01-1.34947E+01 1.09742E+00
 -1      8146-1.01912E+01-1.35039E+01 2.09360E-01
 -1      8147 1.14810E+01-4.60601E+00 1.58806E+00
 -1      8148 1.12882E+01-1.23810E+01 2.15482E-01
 -1      8149-1.13054E+01-1.39183E+01 2.24408E-01
 -3
    3C                          4542                                     1
 -1      2303    6    0    1
 -2      3054      3105      3048      4359      3630      4051      4044      4360      4362      4361
 -1      2304    6    0    1
 -2      2917      4182      4155      4359      4363      4364      4365      4366      4368      4367
 -1      2305    6    0    1
 -2      3130      4158      4102      4177      4369      4370      4371      4372      4374      4373
 -1      2306    6    0    1
 -2      3048      3105        72      4359      4051      4375      4376      4361      4362      4377
 -1      2307    6    0    1
 -2      3130      4177      4102      4228      4372      4373      4371      4378      4380      4379
 -1      2308    6    0    1
 -2      3082      4110       636      4148      4381      4382      4383      4384      4386      4385
 -1      2309    6    0    1
 -2      4209      4211      4125      4315      4387      4388      4389      4390      4392      4391
 -1      2310    6    0    1
 -2      4125      4209      4117      4211      4389      4393      4394      4388      4387      4395
 -1      2311    6    0    1
 -2        71      3049        70      4348      4396      4397        80      4398      4400      4399
 -1      2312    6    0    1
 -2       660       636      4110      4148       968      4382      4401      4402      4385      4386
 -1      2313    6    0    1
 -2      3002      3098       260       261      3680      4403      4404      4405      4406       270
 -1      2314    6    0    1
 -2      3103      4091      3150      4207      4407      4408      3455      4409      4411      4410
 -1      2315    6    0    1
 -2      3098      3002      3003       261      3680      3975      3979      4406      4405      4412
 -1      2316    6    0    1
 -2      3098       261      3003      4297      4406      4412      3979      4413      4415      4414
 -1      2317    6    0    1
 -2      3054      4316      4182      4359      4416      4417      4418      4360      4419      4368
 -1      2318    6    0    1
 -2      1748      4187      4171      4247      4420      4421      4422      4423      4425      4424
 -1      2319    6    0    1
 -2       260       261      3098      4297       270      4406      4403      4426      4415      4413
 -1      2320    6    0    1
 -2      1128      3002      2927       260      4427      3679      4428      1209      4404      4429
 -1      2321    6    0    1
 -2        78      2992      1120      4329      4430      4431      1183      4432      4434      4433
 -1      2322    6    0    1
 -2      2927      3096      1128      1124      3665      4435      4428      4436      4437      1211
 -1      2323    6    0    1
 -2       259       260      2927      4321       269      4429      4438      4439      4441      4440
 -1      2324    6    0    1
 -2      2927      3096      3002      1128      3665      3678      3679      4428      4435      4427
 -1      2325    6    0    1
 -2      1124      1128      2927       260      1211      4428      4436      1207      1209      4429
 -1      2326    6    0    1
 -2       258      3100      2926      1132      4442      3667      4443      1203      4445      4444
 -1      2327    6    0    1
 -2       660      4148      4110      4294      4402      4386      4401      4446      4448      4447
 -1      2328    6    0    1
 -2      2927       259      2926      1124      4438      4449      3663      4436      1206      4450
 -1      2329    6    0    1
 -2      1132       258      3100      1123      1203      4442      4445      1205      1201      4451
 -1      2330    6    0    1
 -2      3096      2997      1139      1140      3660      4452      4453      4454      4455      1240
 -1      2331    6    0    1
 -2      1137        71        70      4348      1162        80      1163      4456      4398      4399
 -1      2332    6    0    1
 -2      1124       259      2926      1132      1206      4449      4450      1208      1204      4444
 -1      2333    6    0    1
 -2      3058      4248      4127      4290      4457      4458      4459      4460      4462      4461
 -1      2334    6    0    1
 -2      1118        74        73      2921      1171        83      1172      4463      4465      4464
 -1      2335    6    0    1
 -2      1141      1143      2925      1123      1262      4466      4467      1259      1260      4468
 -1      2336    6    0    1
 -2      1128      3096      1139      1140      4435      4453      1247      1264      4454      1240
 -1      2337    6    0    1
 -2      3140      2885       508      2990      3200      4469      4470      3476      3475      4471
 -1      2338    6    0    1
 -2      3024      4208      4126      4327      4472      4473      4474      4475      4477      4476
 -1      2339    6    0    1
 -2      3114      3052      1141      1138      4058      4478      4479      4480      4481      1230
 -1      2340    6    0    1
 -2        76      1119      2993      3094      1177      4482      4483      4484      4485      3962
 -1      2341    6    0    1
 -2      2722      3028      4128      4176      4486      4487      4488      4489      4491      4490
 -1      2342    6    0    1
 -2      1118      1130      1143      2922      1173      1232      1231      4492      4494      4493
 -1      2343    6    0    1
 -2      2921        74        73      4359      4465        83      4464      4495      4497      4496
 -1      2344    6    0    1
 -2      4092      4178      3010      4193      4498      4499      4500      4501      4503      4502
 -1      2345    6    0    1
 -2      1119        76        75      3094      1177        85      1178      4485      4484      4504
 -1      2346    6    0    1
 -2      2926      2924      1124      1132      3662      4505      4450      4444      4506      1208
 -1      2347    6    0    1
 -2      2925      1143      1142      1132      4466      1235      4507      4508      1261      1265
 -1      2348    6    0    1
 -2      1141      1143      3091      2925      1262      4509      4510      4467      4466      3655
 -1      2349    6    0    1
 -2      1144      1133      1125      4329      1269      1268      1270      4511      4513      4512
 -1      2350    6    0    1
 -2      1130        73        72      2921      1168        82      1169      4514      4464      4515
 -1      2351    6    0    1
 -2      2926      2924      2927      1124      3662      3664      3663      4450      4505      4436
 -1      2352    6    0    1
 -2      2993        77        76      4307      4516        86      4483      4517      4519      4518
 -1      2353    6    0    1
 -2      2914      4155      2917      4182      4520      4365      3613      4521      4364      4363
 -1      2354    6    0    1
 -2      4128      4176      3028      4237      4490      4491      4487      4522      4524      4523
 -1      2355    6    0    1
 -2      2993      2991        77      4307      3951      4525      4516      4517      4526      4519
 -1      2356    6    0    1
 -2      2294      4117      4143      4272      4527      4528      4529      4530      4532      4531
 -1      2357    6    0    1
 -2        75      3094        76      4345      4504      4484        85      4533      4535      4534
 -1      2358    6    0    1
 -2       257       258      3071      4318       267      4536      4537      4538      4540      4539
 -1      2359    6    0    1
 -2      1132      3100      2925      1123      4445      3666      4508      1205      4451      4468
 -1      2360    6    0    1
 -2      1123      3100      3069       257      4451      4088      4541      1200      4543      4542
 -1      2361    6    0    1
 -2        76      3094      2993      4345      4484      3962      4483      4534      4535      4544
 -1      2362    6    0    1
 -2      3113      1141      2925      1123      4545      4467      3669      4546      1259      4468
 -1      2363    6    0    1
 -2      3100      2925      2926      1132      3666      3661      3667      4445      4508      4444
 -1      2364    6    0    1
 -2      3140       508        78      2990      4470       519      4547      3476      4471      4548
 -1      2365    6    0    1
 -2      2924      3096      1124      1140      3656      4437      4505      4549      4454      1263
 -1      2366    6    0    1
 -2      1118      1142      1131      2922      1234      1233      1176      4492      4551      4550
 -1      2367    6    0    1
 -2      2983      4264      4203      4338      4552      4553      4554      4555      4557      4556
 -1      2368    6    0    1
 -2      2924      2925      1142      1132      3654      4507      4558      4506      4508      1265
 -1      2369    6    0    1
 -2      3094      1131      1119      2923      4559      1179      4485      3645      4561      4560
 -1      2370    6    0    1
 -2      3071      3100       258       257      3690      4442      4536      4537      4543       267
 -1      2371    6    0    1
 -2        70      3049        71      4330      4397      4396        80      4562      4564      4563
 -1      2372    6    0    1
 -2        72      2921        73      4359      4515      4464        82      4377      4495      4496
 -1      2373    6    0    1
 -2      2898      2899      4100      4151      3528      4565      4566      4567      4569      4568
 -1      2374    6    0    1
 -2       258      2929      3071      4318      4570      3689      4536      4540      4571      4539
 -1      2375    6    0    1
 -2      1133      3078      1125      4329      4572      4573      1268      4513      4574      4512
 -1      2376    6    0    1
 -2      1124      1142      2924      1140      1266      4558      4505      1263      1267      4549
 -1      2377    6    0    1
 -2      2922      1143      1142      2925      4493      1235      4551      3653      4466      4507
 -1      2378    6    0    1
 -2      3091      1143      1130      2922      4509      1232      4575      3647      4493      4494
 -1      2379    6    0    1
 -2      2993      1119      1127      2997      4482      1182      4576      3960      4578      4577
 -1      2380    6    0    1
 -2      3096      2924      2923      1140      3656      3652      3657      4454      4549      4579
 -1      2381    6    0    1
 -2      1142      2923      2924      1140      4580      3652      4558      1267      4579      4549
 -1      2382    6    0    1
 -2        74      1118      2920      2921      1171      4581      4582      4465      4463      3634
 -1      2383    6    0    1
 -2      1119      2997      3094      2923      4578      3658      4485      4560      3659      3645
 -1      2384    6    0    1
 -2      3113      3052      1141      3114      4057      4478      4545      4059      4058      4479
 -1      2385    6    0    1
 -2      2925      3091      1141      3113      3655      4510      4467      3669      3668      4545
 -1      2386    6    0    1
 -2      1146      1136      1122      4348      1255      1254      1256      4583      4585      4584
 -1      2387    6    0    1
 -2      3051      1130        72      2921      4586      1169      4587      3649      4514      4515
 -1      2388    6    0    1
 -2        75      1131      3094      2920      1174      4559      4504      4588      4589      3636
 -1      2389    6    0    1
 -2      2921      1130      1118      2922      4514      1173      4463      3641      4494      4492
 -1      2390    6    0    1
 -2      3071      3100      2929       258      3690      3675      3689      4536      4442      4570
 -1      2391    6    0    1
 -2      2923      1131      1142      2922      4561      1233      4580      3643      4550      4551
 -1      2392    6    0    1
 -2      4091      4171      4167      4247      4590      4591      4592      4593      4424      4594
 -1      2393    6    0    1
 -2      1122      1138      1146      4348      1252      1257      1256      4584      4595      4583
 -1      2394    6    0    1
 -2      2294      4117      2315      4143      4527      4596      2568      4529      4528      4597
 -1      2395    6    0    1
 -2      1131        75        74      2920      1174        84      1175      4589      4588      4582
 -1      2396    6    0    1
 -2      2304      4206      4124      4289      4598      4599      4600      4601      4603      4602
 -1      2397    6    0    1
 -2      2920      1118      1131      2922      4581      1176      4589      3642      4492      4550
 -1      2398    6    0    1
 -2      2294      2315      4117      4272      2568      4596      4527      4530      4604      4532
 -1      2399    6    0    1
 -2      3039      4104      2913      4182      4605      4606      3609      4607      4609      4608
 -1      2400    6    0    1
 -2      3016      4124      4240      4253      4610      4611      4612      4613      4615      4614
 -1      2401    6    0    1
 -2      3024      3097      4126      4208      4009      4616      4474      4472      4617      4473
 -1      2402    6    0    1
 -2      3077      4102      3130      4158      4618      4371      3418      4619      4370      4369
 -1      2403    6    0    1
 -2        77      2991      2990      4307      4525      3945      4620      4519      4526      4621
 -1      2404    6    0    1
 -2      4129      2963      4228      4244      4622      4623      4624      4625      4627      4626
 -1      2405    6    0    1
 -2      2722      4128      3028      4196      4488      4487      4486      4628      4630      4629
 -1      2406    6    0    1
 -2      2921      2920        74      4359      3634      4582      4465      4495      4631      4497
 -1      2407    6    0    1
 -2      3002      1128      1121       261      4427      1214      4632      4405      1210      1212
 -1      2408    6    0    1
 -2      2923      1119      2997      1140      4560      4578      3659      4579      1238      4455
 -1      2409    6    0    1
 -2      3150      4091      3103      4264      4408      4407      3455      4633      4635      4634
 -1      2410    6    0    1
 -2      2279      4211      4209      4315      4636      4387      4637      4638      4392      4390
 -1      2411    6    0    1
 -2      2925      1142      2922      2924      4507      4551      3653      3654      4558      3651
 -1      2412    6    0    1
 -2      3069      1129      1123       257      4639      1202      4541      4542      1198      1200
 -1      2413    6    0    1
 -2      2288      2308      4183      4200      2601      4640      4641      4642      4644      4643
 -1      2414    6    0    1
 -2      3100      3069      3113      1123      4088      4089      3670      4451      4541      4546
 -1      2415    6    0    1
 -2      3024      4252      4208      4327      4645      4646      4472      4475      4647      4477
 -1      2416    6    0    1
 -2      1131      1119      2923      1140      1179      4560      4561      1239      1238      4579
 -1      2417    6    0    1
 -2      1127        77        76      2993      1180        86      1181      4576      4516      4483
 -1      2418    6    0    1
 -2      2926       258       259      4321      4443       268      4449      4648      4649      4439
 -1      2419    6    0    1
 -2      1119      1139      1127      2997      1237      1236      1182      4578      4452      4577
 -1      2420    6    0    1
 -2      4155      4182      2914      4233      4364      4521      4520      4650      4652      4651
 -1      2421    6    0    1
 -2      3051      2921        72      4359      3649      4515      4587      4653      4495      4377
 -1      2422    6    0    1
 -2      1138      1141      3114      1129      1230      4479      4480      1253      1258      4654
 -1      2423    6    0    1
 -2        72        71      3051      3048        81      4655      4587      4376      4656      4050
 -1      2424    6    0    1
 -2      4102      4158      3077      4292      4370      4619      4618      4657      4659      4658
 -1      2425    6    0    1
 -2      3025      3027      4111      4152      4005      4660      4661      4662      4664      4663
 -1      2426    6    0    1
 -2      4208      4252      4126      4327      4646      4665      4473      4477      4647      4476
 -1      2427    6    0    1
 -2       255       256      2873      4305       265      4666      4667      4668      4670      4669
 -1      2428    6    0    1
 -2      3028      4196      4128      4237      4629      4630      4487      4523      4671      4522
 -1      2429    6    0    1
 -2      2993      2992        77      2991      3952      4672      4516      3951      3947      4525
 -1      2430    6    0    1
 -2      2899      4100      4151      4194      4565      4568      4569      4673      4675      4674
 -1      2431    6    0    1
 -2      2288      4183      4098      4200      4641      4676      4677      4642      4643      4678
 -1      2432    6    0    1
 -2      3114      1138      3155      4348      4480      4679      4086      4680      4595      4681
 -1      2433    6    0    1
 -2      2929       258      2926      4321      4570      4443      3673      4682      4649      4648
 -1      2434    6    0    1
 -2        74      2920        75      4345      4582      4588        84      4683      4684      4533
 -1      2435    6    0    1
 -2      2923      2920      1131      2922      3644      4589      4561      3643      3642      4550
 -1      2436    6    0    1
 -2      4093      4206      2346      4289      4685      4686      4687      4688      4603      4689
 -1      2437    6    0    1
 -2      2285      2286      4163      4183      2580      4690      4691      4692      4694      4693
 -1      2438    6    0    1
 -2        75      2920      3094      4345      4588      3636      4504      4533      4684      4535
 -1      2439    6    0    1
 -2      3064      3058      4127      4290      4069      4459      4695      4696      4460      4461
 -1      2440    6    0    1
 -2      4107      4135      1684      4287      4697      4698      4699      4700      4702      4701
 -1      2441    6    0    1
 -2      2921      3091      1130      2922      3646      4575      4514      3641      3647      4494
 -1      2442    6    0    1
 -2      4183      4200      2308      4251      4643      4644      4640      4703      4705      4704
 -1      2443    6    0    1
 -2      4097      4163      2286      4183      4706      4690      4707      4708      4693      4694
 -1      2444    6    0    1
 -2      3024      4126      3097      4327      4474      4616      4009      4475      4476      4709
 -1      2445    6    0    1
 -2      2300      4213      4131      4251      4710      4711      4712      4713      4715      4714
 -1      2446    6    0    1
 -2      4124      4253      3016      4256      4615      4613      4610      4716      4718      4717
 -1      2447    6    0    1
 -2      1734      4103      4175      4198      4719      4720      4721      4722      4724      4723
 -1      2448    6    0    1
 -2      1734      4103      1689      4175      4719      4725      1995      4721      4720      4726
 -1      2449    6    0    1
 -2      1129      3113      3069      1123      4727      4089      4639      1202      4546      4541
 -1      2450    6    0    1
 -2      1148      3124      1122      1136      4728      4729      1196      1225      4730      1254
 -1      2451    6    0    1
 -2      1120        78        77      2992      1183        87      1184      4431      4430      4672
 -1      2452    6    0    1
 -2      4138      4248      3058      4290      4731      4457      4732      4733      4462      4460
 -1      2453    6    0    1
 -2      1141      1117      3052      3091      1227      4734      4478      4510      4735      4056
 -1      2454    6    0    1
 -2      1733      1748      4171      4247      2103      4422      4736      4737      4423      4424
 -1      2455    6    0    1
 -2      1684      4135      4107      4275      4698      4697      4699      4738      4740      4739
 -1      2456    6    0    1
 -2      2913      4182      4104      4233      4608      4609      4606      4741      4652      4742
 -1      2457    6    0    1
 -2      3054      3048       502      4359      4044      4743      4744      4360      4361      4745
 -1      2458    6    0    1
 -2      1117      1141      1130      3091      1227      1226      1170      4735      4510      4575
 -1      2459    6    0    1
 -2      2300      2296      4131      4213      2642      4746      4712      4710      4747      4711
 -1      2460    6    0    1
 -2      2897      4141      4100      4194      4748      4749      4750      4751      4752      4675
 -1      2461    6    0    1
 -2      2285      4183      4163      4210      4692      4693      4691      4753      4755      4754
 -1      2462    6    0    1
 -2      3114      1141      3113      1129      4479      4545      4059      4654      1258      4727
 -1      2463    6    0    1
 -2      3048        72       502      4359      4376       555      4743      4361      4377      4745
 -1      2464    6    0    1
 -2      1010      4127       237      4299      4756      4757      1047      4758      4760      4759
 -1      2465    6    0    1
 -2      2348      4126      4284      4286      4761      4762      4763      4764      4766      4765
 -1      2466    6    0    1
 -2      1122       255      3124      1148      1194      4767      4729      1196      1160      4728
 -1      2467    6    0    1
 -2      1121      3000      3002       261      4768      3972      4632      1212      4769      4405
 -1      2468    6    0    1
 -2       262      1121      3128      1133      1213      4770      4771      1215      1217      4772
 -1      2469    6    0    1
 -2      3051        71      3049      3048      4655      4396      4049      4050      4656      4046
 -1      2470    6    0    1
 -2      2287      4097      2286      4183      4773      4707      2584      4774      4708      4694
 -1      2471    6    0    1
 -2      1694      1689      1734      4103      2014      1995      2015      4775      4725      4719
 -1      2472    6    0    1
 -2      2953      4156      4116      4269      4776      4777      4778      4779      4781      4780
 -1      2473    6    0    1
 -2      2294      2281      2315      4272      2567      2557      2568      4530      4782      4604
 -1      2474    6    0    1
 -2        72        71      1117      3051        81      1166      1165      4587      4655      4783
 -1      2475    6    0    1
 -2      3106      4203      2983      4264      4784      4554      3930      4785      4553      4552
 -1      2476    6    0    1
 -2      2307      4125      4211      4315      4786      4388      4787      4788      4391      4392
 -1      2477    6    0    1
 -2      4100      2898      4151      4259      4566      4567      4568      4789      4791      4790
 -1      2478    6    0    1
 -2      2897      4100      4141      4261      4750      4749      4748      4792      4794      4793
 -1      2479    6    0    1
 -2      1121      3128      3000       262      4770      3973      4768      1213      4771      4795
 -1      2480    6    0    1
 -2        77      1127      2992      2993      1180      4796      4672      4516      4576      3952
 -1      2481    6    0    1
 -2       665       508      2885      4164      4797      4469      4798      4799      4801      4800
 -1      2482    6    0    1
 -2      2900      4194      4151      4222      4802      4674      4803      4804      4806      4805
 -1      2483    6    0    1
 -2      1687      4175      4115      4275      4807      4808      4809      4810      4812      4811
 -1      2484    6    0    1
 -2      3039      4104      4182      4337      4605      4609      4607      4813      4815      4814
 -1      2485    6    0    1
 -2      3068      3114      3069      1129      4085      4084      4082      4816      4654      4639
 -1      2486    6    0    1
 -2      4127      4248      4138      4290      4458      4731      4817      4461      4462      4733
 -1      2487    6    0    1
 -2      4124      4206      4093      4289      4599      4685      4818      4602      4603      4688
 -1      2488    6    0    1
 -2      2945      4156      2953      4269      4819      4776      3766      4820      4781      4779
 -1      2489    6    0    1
 -2      3058      3119      4127      4248      4065      4821      4459      4457      4822      4458
 -1      2490    6    0    1
 -2      1694      4103      1734      4185      4775      4719      2015      4823      4825      4824
 -1      2491    6    0    1
 -2      2898      2900      2899      4151      3532      3531      3528      4567      4803      4569
 -1      2492    6    0    1
 -2      3068      2873       255       256      3404      4667      4826      4827      4666       265
 -1      2493    6    0    1
 -2      3067      3069      3071       257      4081      4083      4080      4828      4542      4537
 -1      2494    6    0    1
 -2      4136      4190      2954      4288      4829      4830      4831      4832      4834      4833
 -1      2495    6    0    1
 -2      3102      4177      4146      4297      4835      4836      4837      4838      4840      4839
 -1      2496    6    0    1
 -2      4126      4208      3097      4250      4473      4617      4616      4841      4843      4842
 -1      2497    6    0    1
 -2      3069      3067       256       257      4081      4844      4845      4542      4828       266
 -1      2498    6    0    1
 -2      3051      1117      1130      3091      4783      1170      4586      3648      4735      4575
 -1      2499    6    0    1
 -2       508       622      2885      3140      4846      4847      4469      4470      4848      3200
 -1      2500    6    0    1
 -2      1117      3051      3052      3091      4783      4053      4734      4735      3648      4056
 -1      2501    6    0    1
 -2      1685      1684      4107      4175      1981      4699      4849      4850      4852      4851
 -1      2502    6    0    1
 -2        78      2996      2992      4329      4853      3949      4430      4432      4854      4434
 -1      2503    6    0    1
 -2      3096      1139      2997      2998      4453      4452      3660      3968      4855      3963
 -1      2504    6    0    1
 -2      2315      4143      4117      4211      4597      4528      4596      4856      4857      4395
 -1      2505    6    0    1
 -2      3049      1117      3052      4348      4858      4734      4052      4400      4860      4859
 -1      2506    6    0    1
 -2      4111      3027      4194      4340      4660      4861      4862      4863      4865      4864
 -1      2507    6    0    1
 -2       256      3068      3069      1129      4827      4082      4845      1197      4816      4639
 -1      2508    6    0    1
 -2      3098      4321       260      4322      4866      4441      4403      4867      4869      4868
 -1      2509    6    0    1
 -2      2900      2901      4194      4222      3537      4870      4802      4804      4871      4806
 -1      2510    6    0    1
 -2      3096      1139      2998      1128      4453      4855      3968      4435      1247      4872
 -1      2511    6    0    1
 -2      2966      4177      3130      4228      4873      4372      3864      4874      4380      4378
 -1      2512    6    0    1
 -2      3036      3028      4176      4237      3441      4491      4875      4876      4523      4524
 -1      2513    6    0    1
 -2      1122      3155      1138      4348      4877      4679      1252      4584      4681      4595
 -1      2514    6    0    1
 -2      2994      2993      1127      2997      3956      4576      4878      3961      3960      4577
 -1      2515    6    0    1
 -2       502      4316      3054      4359      4879      4416      4744      4745      4419      4360
 -1      2516    6    0    1
 -2      3067       257      3071      4318      4828      4537      4080      4880      4538      4539
 -1      2517    6    0    1
 -2      2285      2287      2286      4183      2585      2584      2580      4692      4774      4694
 -1      2518    6    0    1
 -2      1148      1318      3124      1136      4881      4882      4728      1225      4883      4730
 -1      2519    6    0    1
 -2      4094      4219       649      4239      4884      4885      4886      4887      4889      4888
 -1      2520    6    0    1
 -2      3039      2913      3073      4182      3609      3606      3610      4607      4608      4890
 -1      2521    6    0    1
 -2       260      4297      3098      4322      4426      4413      4403      4868      4891      4867
 -1      2522    6    0    1
 -2      3114      3068      1122      1129      4085      4892      4893      4654      4816      1199
 -1      2523    6    0    1
 -2      3049      1117        71      3051      4858      1166      4396      4049      4783      4655
 -1      2524    6    0    1
 -2      3102      4297      4146      4322      4838      4839      4837      4894      4891      4895
 -1      2525    6    0    1
 -2      3119      3064      3058      4127      4070      4069      4065      4821      4695      4459
 -1      2526    6    0    1
 -2      4103      1734      4185      4198      4719      4824      4825      4724      4722      4896
 -1      2527    6    0    1
 -2      2348      4126      4191      4284      4761      4897      4898      4763      4762      4899
 -1      2528    6    0    1
 -2      2990        77        78      2992      4620        87      4548      3948      4672      4430
 -1      2529    6    0    1
 -2      2989      2990      2991      4307      3474      3945      3944      4900      4621      4526
 -1      2530    6    0    1
 -2      4095      4196      4167      4237      4901      4902      4903      4904      4671      4905
 -1      2531    6    0    1
 -2      4171      4187      4167      4247      4421      4906      4591      4424      4425      4594
 -1      2532    6    0    1
 -2      1684      4107      4175      4275      4699      4851      4852      4738      4739      4812
 -1      2533    6    0    1
 -2      1726      4187      1748      4247      4907      4420      2079      4908      4425      4423
 -1      2534    6    0    1
 -2      3000      3003       261      4351      3976      4412      4769      4909      4911      4910
 -1      2535    6    0    1
 -2      2320      4120      4157      4236      4912      4913      4914      4915      4917      4916
 -1      2536    6    0    1
 -2      3053        70      3049      4348      4918      4397      4048      4919      4399      4400
 -1      2537    6    0    1
 -2       256       257      3067      4318       266      4828      4844      4920      4538      4880
 -1      2538    6    0    1
 -2      4153      4240      4124      4253      4921      4611      4922      4923      4614      4615
 -1      2539    6    0    1
 -2      1690      4115      1687      4175      4924      4809      2001      4925      4808      4807
 -1      2540    6    0    1
 -2      2951      4222      4098      4346      4926      4927      4928      4929      4931      4930
 -1      2541    6    0    1
 -2      2309      2288      4098      4200      2600      4677      4932      4933      4642      4678
 -1      2542    6    0    1
 -2      1287      1326      4327      4328      1626      4934      4935      4936      4938      4937
 -1      2543    6    0    1
 -2      4095      4187      4196      4237      4939      4940      4901      4904      4941      4671
 -1      2544    6    0    1
 -2       633      4129      2877      4292      4942      4943      4944      4945      4947      4946
 -1      2545    6    0    1
 -2      2994      1127      1139      2997      4878      1236      4948      3961      4577      4452
 -1      2546    6    0    1
 -2      3052      1117      1138      4348      4734      1228      4481      4859      4860      4595
 -1      2547    6    0    1
 -2      2972      4136      2954      4288      4949      4831      3813      4950      4832      4833
 -1      2548    6    0    1
 -2       636       658      4110      4257       957      4951      4382      4952      4954      4953
 -1      2549    6    0    1
 -2      3003      4297       261      4351      4414      4415      4412      4911      4955      4910
 -1      2550    6    0    1
 -2      4098      4200      4183      4251      4678      4643      4676      4956      4705      4703
 -1      2551    6    0    1
 -2      4095      4187      4167      4196      4939      4906      4903      4901      4940      4902
 -1      2552    6    0    1
 -2       496      2885       508      4164      4957      4469       575      4958      4800      4801
 -1      2553    6    0    1
 -2      3039      4182      4134      4337      4607      4959      4960      4813      4814      4961
 -1      2554    6    0    1
 -2      1122      3155      3114      1138      4877      4086      4893      1252      4679      4480
 -1      2555    6    0    1
 -2      1323      4224      4092      4268      4962      4963      4964      4965      4967      4966
 -1      2556    6    0    1
 -2      2953      4156      2945      4314      4776      4819      3766      4968      4970      4969
 -1      2557    6    0    1
 -2      1687      4115      1691      4275      4809      4971      2003      4810      4811      4972
 -1      2558    6    0    1
 -2      2963      4129      3117      4244      4622      4973      3857      4627      4625      4974
 -1      2559    6    0    1
 -2      3102      4146      4177      4298      4837      4836      4835      4975      4977      4976
 -1      2560    6    0    1
 -2       615      3082       636      4148      4978      4383       775      4979      4384      4385
 -1      2561    6    0    1
 -2      2873       256      3067      4305      4666      4844      3400      4669      4670      4980
 -1      2562    6    0    1
 -2      2348      4191      4126      4286      4898      4897      4761      4764      4981      4766
 -1      2563    6    0    1
 -2       636      4110      3082      4257      4382      4381      4383      4952      4953      4982
 -1      2564    6    0    1
 -2      4126      4327      1326      4328      4476      4934      4983      4984      4937      4938
 -1      2565    6    0    1
 -2      2951      4151      4098      4222      4985      4986      4928      4926      4805      4927
 -1      2566    6    0    1
 -2      4147      4190      2910      4233      4987      4988      4989      4990      4992      4991
 -1      2567    6    0    1
 -2      4099      2910      4190      4233      4993      4988      4994      4995      4991      4992
 -1      2568    6    0    1
 -2      4141      4194      3027      4340      4752      4861      4996      4997      4864      4865
 -1      2569    6    0    1
 -2      4114      4253      4124      4256      4998      4615      4999      5000      4718      4716
 -1      2570    6    0    1
 -2      3155      1122      1136      4348      4877      1254      5001      4681      4584      4585
 -1      2571    6    0    1
 -2       627      3077      4158      4292      5002      4619      5003      5004      4658      4659
 -1      2572    6    0    1
 -2      2304      2346      4206      4289      2673      4686      4598      4601      4689      4603
 -1      2573    6    0    1
 -2      3130      3101      4158      4177      3419      5005      4369      4372      5006      4374
 -1      2574    6    0    1
 -2      3128       262       263      4351      4771       272      5007      5008      5010      5009
 -1      2575    6    0    1
 -2      2900      2899      4151      4194      3531      4569      4803      4802      4673      4674
 -1      2576    6    0    1
 -2      2965      4129      2963      4228      5011      4622      3855      5012      4624      4623
 -1      2577    6    0    1
 -2      3064      4290      4127      4319      4696      4461      4695      5013      5015      5014
 -1      2578    6    0    1
 -2       649      4219       610      4239      4885      5016       939      4888      4889      5017
 -1      2579    6    0    1
 -2      2346      4206      4093      4225      4686      4685      4687      5018      5020      5019
 -1      2580    6    0    1
 -2      4128      4196      4187      4237      4630      4940      5021      4522      4671      4941
 -1      2581    6    0    1
 -2      2313      4145      4113      4286      5022      5023      5024      5025      5027      5026
 -1      2582    6    0    1
 -2      3048      4316       502      4330      5028      4879      4743      5029      5031      5030
 -1      2583    6    0    1
 -2      4111      4194      4141      4340      4862      4752      5032      4863      4864      4997
 -1      2584    6    0    1
 -2      4099      4190      4147      4233      4994      4987      5033      4995      4992      4990
 -1      2585    6    0    1
 -2      3000       261       262      4351      4769       271      4795      4909      4910      5010
 -1      2586    6    0    1
 -2      2319      2320      4120      4157      2701      4912      5034      5035      4914      4913
 -1      2587    6    0    1
 -2      3046      4316      3048      4330      5036      5028      4043      5037      5031      5029
 -1      2588    6    0    1
 -2      2999      3128      1121      1133      3974      4770      5038      5039      4772      1217
 -1      2589    6    0    1
 -2      3124      3155      1122      1136      3470      4877      4729      4730      5001      1254
 -1      2590    6    0    1
 -2       636       658       660      4110       957       906       968      4382      4951      4401
 -1      2591    6    0    1
 -2      1125       644      3078      1147      5040      5041      4573      1189      5043      5042
 -1      2592    6    0    1
 -2      3155      3124      1318      1136      3470      4882      5044      5001      4730      4883
 -1      2593    6    0    1
 -2      2332      4104      4188      4310      5045      5046      5047      5048      5050      5049
 -1      2594    6    0    1
 -2      1706      4109      1698      4185      5051      5052      2058      5053      5055      5054
 -1      2595    6    0    1
 -2      2932      4146      4139      4321      5056      5057      5058      5059      5061      5060
 -1      2596    6    0    1
 -2       496        77      2990      4307       572      4620      5062      5063      4519      4621
 -1      2597    6    0    1
 -2      2998      3002      1128      1121      3971      4427      4872      5064      4632      1214
 -1      2598    6    0    1
 -2      2301      2299      4100      4166      2654      5065      5066      5067      5069      5068
 -1      2599    6    0    1
 -2      3000      2999      3128      1121      3970      3974      3973      4768      5038      4770
 -1      2600    6    0    1
 -2      1287      1326      1306      4327      1626      1625      1518      4935      4934      5070
 -1      2601    6    0    1
 -2        76      2993      4307      4345      4483      4517      4518      4534      4544      5071
 -1      2602    6    0    1
 -2       256      1122      3068      1129      1195      4892      4827      1197      1199      4816
 -1      2603    6    0    1
 -2       665       625       508      4164       922      5072      4797      4799      5073      4801
 -1      2604    6    0    1
 -2      2929       258      4197      4318      4570      5074      5075      4571      4540      5076
 -1      2605    6    0    1
 -2      2963      2965      3117      4129      3855      3858      3857      4622      5011      4973
 -1      2606    6    0    1
 -2      3102      4177      4228      4298      4835      4380      5077      4975      4976      5078
 -1      2607    6    0    1
 -2      4204      4265      4221      4266      5079      5080      5081      5082      5084      5083
 -1      2608    6    0    1
 -2      3039      3044      4134      4182      4030      5085      4960      4607      5086      4959
 -1      2609    6    0    1
 -2      1284      4224      1323      4268      5087      4962      1609      5088      4967      4965
 -1      2610    6    0    1
 -2      1690      1691      1687      4115      2004      2003      2001      4924      4971      4809
 -1      2611    6    0    1
 -2      3099      3102      4146      4322      3988      4837      5089      5090      4894      4895
 -1      2612    6    0    1
 -2      3078      1133      1125      1147      4572      1268      4573      5042      1218      1189
 -1      2613    6    0    1
 -2      1725      4130      4263      4296      5091      5092      5093      5094      5096      5095
 -1      2614    6    0    1
 -2      4094      4196      2728      4219      5097      5098      5099      4884      5101      5100
 -1      2615    6    0    1
 -2      2989      4238       496      4307      5102      5103      5104      4900      5105      5063
 -1      2616    6    0    1
 -2        71      3048       502      4330      4656      4743       554      4563      5029      5030
 -1      2617    6    0    1
 -2      1119        75      1131      3094      1178      1174      1179      4485      4504      4559
 -1      2618    6    0    1
 -2      3007      4297      3102      4322      5106      4838      3986      5107      4891      4894
 -1      2619    6    0    1
 -2      4110      4143      2335      4211      5108      5109      5110      5111      4857      5112
 -1      2620    6    0    1
 -2       660       615       636      4148       967       775       968      4402      4979      4385
 -1      2621    6    0    1
 -2      1120      2992      1127      4329      4431      4796      1185      4433      4434      5113
 -1      2622    6    0    1
 -2      4095      4167      3032      4237      4903      5114      5115      4904      4905      5116
 -1      2623    6    0    1
 -2      3064      4127      3119      4319      4695      4821      4070      5013      5014      5117
 -1      2624    6    0    1
 -2      2288      2331      2309      4098      2588      2603      2600      4677      5118      4932
 -1      2625    6    0    1
 -2      2997      2993      1119      3094      3960      4482      4578      3658      3962      4485
 -1      2626    6    0    1
 -2      2914      4182      3073      4233      4521      4890      3607      4651      4652      5119
 -1      2627    6    0    1
 -2       502      3048      3054      4316      4743      4044      4744      4879      5028      4416
 -1      2628    6    0    1
 -2      3077      3130      4102      4292      3418      4371      4618      4658      5120      4657
 -1      2629    6    0    1
 -2      3038      2913      3039      4104      3599      3609      3608      5121      4606      4605
 -1      2630    6    0    1
 -2      2898      2899      2897      4100      3528      3527      3522      4566      4565      4750
 -1      2631    6    0    1
 -2      2307      4211      2279      4315      4787      4636      2554      4788      4392      4638
 -1      2632    6    0    1
 -2      2942      4107      2944      4320      5122      5123      3752      5124      5126      5125
 -1      2633    6    0    1
 -2      2335      4143      4110      4283      5109      5108      5110      5127      5129      5128
 -1      2634    6    0    1
 -2      3028      3036      4196      4237      3441      5130      4629      4523      4876      4671
 -1      2635    6    0    1
 -2      4127      4290      4162      4319      4461      5131      5132      5014      5015      5133
 -1      2636    6    0    1
 -2      1127      2994      1134      4329      4878      5134      1242      5113      5136      5135
 -1      2637    6    0    1
 -2      2309      2308      2288      4200      2599      2601      2600      4933      4644      4642
 -1      2638    6    0    1
 -2      3099      3007      3102      4322      3700      3986      3988      5090      5107      4894
 -1      2639    6    0    1
 -2      2873      3068      3067       256      3404      3403      3400      4666      4827      4844
 -1      2640    6    0    1
 -2      2885       496       508      2990      4957       575      4469      3475      5062      4471
 -1      2641    6    0    1
 -2      2951      3040      4222      4346      3555      5137      4926      4929      5138      4931
 -1      2642    6    0    1
 -2      4203      4264      4118      4338      4553      5139      5140      4556      4557      5141
 -1      2643    6    0    1
 -2      2989       496      2990      4307      5104      5062      3474      4900      5063      4621
 -1      2644    6    0    1
 -2      3038      4195      4147      4233      5142      5143      5144      5145      5146      4990
 -1      2645    6    0    1
 -2      4124      4153      2304      4289      4922      5147      4600      4602      5148      4601
 -1      2646    6    0    1
 -2       237      4127      1015      4229      4757      5149      1045      5150      5152      5151
 -1      2647    6    0    1
 -2       508       622       665      2885      4846       787      4797      4469      4847      4798
 -1      2648    6    0    1
 -2      1139      1134      2998      1121      1251      5153      4855      1248      1249      5064
 -1      2649    6    0    1
 -2      2945      2953      2956      4269      3766      3769      3768      4820      4779      5154
 -1      2650    6    0    1
 -2      3049      3052      3123      4348      4052      4055      4054      4400      4859      5155
 -1      2651    6    0    1
 -2      1757      1697      1754      4106      2047      2053      1878      5156      5158      5157
 -1      2652    6    0    1
 -2      2977      4142      4250      4335      5159      5160      5161      5162      5164      5163
 -1      2653    6    0    1
 -2      2950      3061      2962      4101      3575      3795      3794      5165      5167      5166
 -1      2654    6    0    1
 -2      2927       259      1124       260      4438      1206      4436      4429       269      1207
 -1      2655    6    0    1
 -2      2306      2333      2280      4099      2485      2503      2562      5168      5170      5169
 -1      2656    6    0    1
 -2      2965      4129      4228      4292      5011      4624      5012      5171      4947      5172
 -1      2657    6    0    1
 -2      3002      3098      2927       260      3680      3677      3679      4404      4403      4429
 -1      2658    6    0    1
 -2      3027      4141      3008      4194      4996      5173      3433      4861      4752      5174
 -1      2659    6    0    1
 -2      1714      4119      4180      4332      5175      5176      5177      5178      5180      5179
 -1      2660    6    0    1
 -2       613       635       654      4257       769       956       955      5181      5183      5182
 -1      2661    6    0    1
 -2      4220      4247      1692      4287      5184      5185      5186      5187      5189      5188
 -1      2662    6    0    1
 -2      2929      4197       258      4321      5075      5074      4570      4682      5190      4649
 -1      2663    6    0    1
 -2      1757      4106      1754      4263      5156      5157      1878      5191      5193      5192
 -1      2664    6    0    1
 -2      4155      4300      2917      4359      5194      5195      4365      4367      5196      4366
 -1      2665    6    0    1
 -2      3147      4160      4095      4237      5197      5198      5199      5200      5201      4904
 -1      2666    6    0    1
 -2      2926       259       258      1132      4449       268      4443      4444      1204      1203
 -1      2667    6    0    1
 -2      3105      3051        72      4359      3650      4587      4375      4362      4653      4377
 -1      2668    6    0    1
 -2      2941      2949      4109      4291      3738      5202      5203      5204      5206      5205
 -1      2669    6    0    1
 -2      1702      4149      4129      4271      5207      5208      5209      5210      5212      5211
 -1      2670    6    0    1
 -2      2309      4098      2331      4283      4932      5118      2603      5213      5215      5214
 -1      2671    6    0    1
 -2       260      1128      3002       261      1209      4427      4404       270      1210      4405
 -1      2672    6    0    1
 -2      4095      4128      4187      4237      5216      5021      4939      4904      4522      4941
 -1      2673    6    0    1
 -2        74      1118      1131      2920      1171      1176      1175      4582      4581      4589
 -1      2674    6    0    1
 -2       635      4253       654      4257      5217      5218       956      5183      5219      5182
 -1      2675    6    0    1
 -2        74      2920      4300      4359      4582      5220      5221      4497      4631      5196
 -1      2676    6    0    1
 -2      2299      2300      2301      4100      2641      2655      2654      5065      5222      5066
 -1      2677    6    0    1
 -2      2315      2335      4143      4211      2633      5109      4597      4856      5112      4857
 -1      2678    6    0    1
 -2      4110      4230      2335      4283      5223      5224      5110      5128      5225      5127
 -1      2679    6    0    1
 -2      4182      4188       500      4227      5226      5227      5228      5229      5231      5230
 -1      2680    6    0    1
 -2      1691      4115      4221      4275      4971      5232      5233      4972      4811      5234
 -1      2681    6    0    1
 -2      2899      2897      4100      4194      3527      4750      4565      4673      4751      4675
 -1      2682    6    0    1
 -2        74      4300      2920      4345      5221      5220      4582      4683      5235      4684
 -1      2683    6    0    1
 -2      3039      4134      3044      4337      4960      5085      4030      4813      4961      5236
 -1      2684    6    0    1
 -2      3041      4140      4120      4270      5237      5238      5239      5240      5242      5241
 -1      2685    6    0    1
 -2       631       649       610      4239       940       939       837      5243      4888      5017
 -1      2686    6    0    1
 -2      1733      1726      1748      4247      2030      2079      2103      4737      4908      4423
 -1      2687    6    0    1
 -2      2887      3128       263      4351      3486      5007      5244      5245      5008      5009
 -1      2688    6    0    1
 -2      4129      4149      1702      4245      5208      5207      5209      5246      5248      5247
 -1      2689    6    0    1
 -2      4111      4194      3085      4208      4862      5249      5250      5251      5253      5252
 -1      2690    6    0    1
 -2      3002      2998      3000      1121      3971      3969      3972      4632      5064      4768
 -1      2691    6    0    1
 -2      1123       258      3100       257      1201      4442      4451      1200       267      4543
 -1      2692    6    0    1
 -2      2348      4191      2325      4284      4898      5254      2498      4763      4899      5255
 -1      2693    6    0    1
 -2      3038      4104      4195      4233      5121      5256      5142      5145      4742      5146
 -1      2694    6    0    1
 -2      3010      4178      3142      4193      4499      5257      3993      4502      4503      5258
 -1      2695    6    0    1
 -2      2727      2728      4196      4219      2844      5098      5259      5260      5100      5101
 -1      2696    6    0    1
 -2      2973      4110      3082      4148      5261      4381      3898      5262      4386      4384
 -1      2697    6    0    1
 -2      2331      4098      2288      4210      5118      4677      2588      5263      5265      5264
 -1      2698    6    0    1
 -2      2944      4107      4314      4320      5123      5266      5267      5125      5126      5268
 -1      2699    6    0    1
 -2      3038      2913      4104      4233      3599      4606      5121      5145      4741      4742
 -1      2700    6    0    1
 -2      2913      3073      4182      4233      3606      4890      4608      4741      5119      4652
 -1      2701    6    0    1
 -2      2347      4153      2305      4200      5269      5270      2676      5271      5273      5272
 -1      2702    6    0    1
 -2      4129      4228      4149      4244      4624      5274      5208      4625      4626      5275
 -1      2703    6    0    1
 -2      4117      4285      2954      4288      5276      5277      5278      5279      5280      4833
 -1      2704    6    0    1
 -2      2321      4236      4157      4249      5281      4916      5282      5283      5285      5284
 -1      2705    6    0    1
 -2      3096      2923      2997      1140      3657      3659      3660      4454      4579      4455
 -1      2706    6    0    1
 -2      4145      4199      4112      4284      5286      5287      5288      5289      5291      5290
 -1      2707    6    0    1
 -2      4163      4183      4097      4210      4693      4708      4706      4754      4755      5292
 -1      2708    6    0    1
 -2      1725      4263      1754      4296      5093      5192      1874      5094      5095      5293
 -1      2709    6    0    1
 -2        76      1119      1127      2993      1177      1182      1181      4483      4482      4576
 -1      2710    6    0    1
 -2      3038      4104      3039      4195      5121      4605      3608      5142      5256      5294
 -1      2711    6    0    1
 -2      2926      2929      3100       258      3673      3675      3667      4443      4570      4442
 -1      2712    6    0    1
 -2      4139      4146      1011      4321      5057      5295      5296      5060      5061      5297
 -1      2713    6    0    1
 -2      2898      4100      2897      4259      4566      4750      3522      4791      4789      5298
 -1      2714    6    0    1
 -2      4098      4183      4151      4251      4676      5299      4986      4956      4703      5300
 -1      2715    6    0    1
 -2      2986      4125      4238      4288      5301      5302      5303      5304      5306      5305
 -1      2716    6    0    1
 -2      2304      2346      2303      4206      2673      2672      2667      4598      4686      5307
 -1      2717    6    0    1
 -2      2868      1125      3078      4329      5308      4573      3209      5309      4512      4574
 -1      2718    6    0    1
 -2      1714      4180      1730      4332      5177      5310      2088      5178      5179      5311
 -1      2719    6    0    1
 -2        73      1130      1118      2921      1168      1173      1172      4464      4514      4463
 -1      2720    6    0    1
 -2      1698      4109      1700      4185      5052      5312      2056      5054      5055      5313
 -1      2721    6    0    1
 -2      2954      4117      4190      4285      5278      5314      4830      5277      5276      5315
 -1      2722    6    0    1
 -2      2336      2300      4131      4251      2643      4712      5316      5317      4713      4714
 -1      2723    6    0    1
 -2      3061      4101      4147      4195      5167      5318      5319      5320      5321      5143
 -1      2724    6    0    1
 -2      1681      4220      1692      4287      5322      5186      1963      5323      5187      5188
 -1      2725    6    0    1
 -2      3147      4095      3032      4237      5199      5115      4022      5200      4904      5116
 -1      2726    6    0    1
 -2      4109      4185      1706      4198      5055      5053      5051      5324      4896      5325
 -1      2727    6    0    1
 -2      3096      2927      2924      1124      3665      3664      3656      4437      4436      4505
 -1      2728    6    0    1
 -2      2301      2356      2299      4166      2657      2656      2654      5067      5326      5069
 -1      2729    6    0    1
 -2      3089      2977      3095      4112      3840      3911      3780      5327      5329      5328
 -1      2730    6    0    1
 -2      2332      2317      2316      4104      2695      2531      2486      5045      5331      5330
 -1      2731    6    0    1
 -2      1698      1706      1700      4109      2058      2057      2056      5052      5051      5312
 -1      2732    6    0    1
 -2       496        78       508      2990       573       519       575      5062      4548      4471
 -1      2733    6    0    1
 -2      1754      4106      1697      4296      5157      5158      2053      5293      5333      5332
 -1      2734    6    0    1
 -2      2333      4099      2306      4188      5170      5168      2485      5334      5336      5335
 -1      2735    6    0    1
 -2      1139      1134      2994      2998      1251      5134      4948      4855      5153      3964
 -1      2736    6    0    1
 -2      3096      1128      1124      1140      4435      1211      4437      4454      1264      1263
 -1      2737    6    0    1
 -2      4182      4316       494      4359      4417      5337      5338      4368      4419      5339
 -1      2738    6    0    1
 -2      4114      4153      4124      4253      5340      4922      4999      4998      4923      4615
 -1      2739    6    0    1
 -2      2923      1142      1131      1140      4580      1233      4561      4579      1267      1239
 -1      2740    6    0    1
 -2      2722      4128      2734      4176      4488      5341      2858      4489      4490      5342
 -1      2741    6    0    1
 -2      3142      3010      3012      4178      3993      3991      3994      5257      4499      5343
 -1      2742    6    0    1
 -2      2283      4096      2284      4272      5344      5345      2570      5346      5348      5347
 -1      2743    6    0    1
 -2      2977      4250      4112      4335      5161      5349      5329      5162      5163      5350
 -1      2744    6    0    1
 -2      2990      2885       496      4164      3475      4957      5062      5351      4800      4958
 -1      2745    6    0    1
 -2      1119      1139      2997      1140      1237      4452      4578      1238      1240      4455
 -1      2746    6    0    1
 -2      3100      3071      3069       257      3690      4083      4088      4543      4537      4542
 -1      2747    6    0    1
 -2      4155      4188      4182      4233      5352      5226      4364      4650      5353      4652
 -1      2748    6    0    1
 -2      3114      1122      1138      1129      4893      1252      4480      4654      1199      1253
 -1      2749    6    0    1
 -2      3103      4091      4207      4239      4407      4411      4409      5354      5356      5355
 -1      2750    6    0    1
 -2      2294      2315      2335      4143      2568      2633      2632      4529      4597      5109
 -1      2751    6    0    1
 -2      2894      4219      4094      4239      5357      4884      5358      5359      4889      4887
 -1      2752    6    0    1
 -2      2920      1131      3094      2923      4589      4559      3636      3644      4561      3645
 -1      2753    6    0    1
 -2      3149      4108      4176      4323      5360      5361      5362      5363      5365      5364
 -1      2754    6    0    1
 -2      3128       263       262      1133      5007       272      4771      4772      1216      1215
 -1      2755    6    0    1
 -2      1143      1130      1141      3091      1232      1226      1262      4509      4575      4510
 -1      2756    6    0    1
 -2      3016      4240      4124      4350      4612      4611      4610      5366      5368      5367
 -1      2757    6    0    1
 -2      2912      2910      4099      4233      3592      4993      5369      5370      4991      4995
 -1      2758    6    0    1
 -2      3078       263      1133      1147      5371      1216      4572      5042      1158      1218
 -1      2759    6    0    1
 -2      4113      4218      2115      4235      5372      5373      5374      5375      5377      5376
 -1      2760    6    0    1
 -2      4096      4241      2284      4272      5378      5379      5345      5348      5380      5347
 -1      2761    6    0    1
 -2      2332      4104      2316      4188      5045      5330      2486      5047      5046      5381
 -1      2762    6    0    1
 -2      4100      2897      4259      4261      4750      5298      4789      4794      4792      5382
 -1      2763    6    0    1
 -2       255      3124      3068      1122      4767      3405      4826      1194      4729      4892
 -1      2764    6    0    1
 -2      2316        51      4188      4227      5383      5384      5381      5385      5386      5231
 -1      2765    6    0    1
 -2      2957      2941      2949      4109      3748      3738      3749      5387      5203      5202
 -1      2766    6    0    1
 -2      3010      4092      3011      4268      4500      5388      3515      5389      4966      5390
 -1      2767    6    0    1
 -2      1142      1118      1143      2922      1234      1231      1235      4551      4492      4493
 -1      2768    6    0    1
 -2      4131      4213      4100      4251      4711      5391      5392      4714      4715      5393
 -1      2769    6    0    1
 -2      2336      2300      2296      4131      2643      2642      2618      5316      4712      4746
 -1      2770    6    0    1
 -2      4125      4117      4209      4288      4394      4393      4389      5306      5279      5394
 -1      2771    6    0    1
 -2       654      4253      4114      4257      5218      4998      5395      5182      5219      5396
 -1      2772    6    0    1
 -2      2306      4099      2280      4241      5168      5169      2562      5397      5399      5398
 -1      2773    6    0    1
 -2      1124      2924      1142      1132      4505      4558      1266      1208      4506      1265
 -1      2774    6    0    1
 -2      2732      4224      4193      4342      5400      5401      5402      5403      5405      5404
 -1      2775    6    0    1
 -2      2305      4200      4124      4251      5272      5406      5407      5408      4705      5409
 -1      2776    6    0    1
 -2      2950      4101      2962      4254      5165      5166      3794      5410      5412      5411
 -1      2777    6    0    1
 -2      4112      4199      2329      4284      5287      5413      5414      5290      5291      5415
 -1      2778    6    0    1
 -2      3110      2727      4196      4219      5416      5259      5417      5418      5260      5101
 -1      2779    6    0    1
 -2      3069       256      1129       257      4845      1197      4639      4542       266      1198
 -1      2780    6    0    1
 -2      2286      4097      2287      4334      4707      4773      2584      5419      5421      5420
 -1      2781    6    0    1
 -2      2912      4099      2910      4325      5369      4993      3592      5422      5424      5423
 -1      2782    6    0    1
 -2      2301      4100      2300      4251      5066      5222      2655      5425      5393      4713
 -1      2783    6    0    1
 -2      4120      4140      3041      4254      5238      5237      5239      5426      5428      5427
 -1      2784    6    0    1
 -2      2115      4218      2108      4235      5373      5429      2229      5376      5377      5430
 -1      2785    6    0    1
 -2      4126      4286      1326      4327      4766      5431      4983      4476      5432      4934
 -1      2786    6    0    1
 -2       500      4188        51      4227      5227      5384       537      5230      5231      5386
 -1      2787    6    0    1
 -2      2926      2925      2924      1132      3661      3654      3662      4444      4508      4506
 -1      2788    6    0    1
 -2      2282      2284      4241      4272      2569      5379      5433      5434      5347      5380
 -1      2789    6    0    1
 -2      2944      4314      4156      4320      5267      4970      5435      5125      5268      5436
 -1      2790    6    0    1
 -2      1724      4119      1714      4332      5437      5175      2092      5438      5180      5178
 -1      2791    6    0    1
 -2      2877      4129       633      4242      4943      4942      4944      5439      5441      5440
 -1      2792    6    0    1
 -2       498      4164      4125      4238      5442      5443      5444      5445      5446      5302
 -1      2793    6    0    1
 -2      4147      4188      4104      4310      5447      5046      5448      5449      5049      5050
 -1      2794    6    0    1
 -2      4193      4224      4092      4342      5401      4963      4501      5404      5405      5450
 -1      2795    6    0    1
 -2      1291      1310      3116      4140      1506      5451      5452      5453      5455      5454
 -1      2796    6    0    1
 -2      3000      3003      3002       261      3976      3975      3972      4769      4412      4405
 -1      2797    6    0    1
 -2      3089      4112      3095      4184      5327      5328      3780      5456      5458      5457
 -1      2798    6    0    1
 -2      2986      4125      2988      4238      5301      5459      3375      5303      5302      5460
 -1      2799    6    0    1
 -2      3091      3052      1141      3113      4056      4478      4510      3668      4057      4545
 -1      2800    6    0    1
 -2      4118      4172      1745      4245      5461      5462      5463      5464      5466      5465
 -1      2801    6    0    1
 -2      2925      1143      1132      1123      4466      1261      4508      4468      1260      1205
 -1      2802    6    0    1
 -2      3128      3078       263      1133      3488      5371      5007      4772      4572      1216
 -1      2803    6    0    1
 -2      2332      4188      4241      4310      5047      5467      5468      5048      5049      5469
 -1      2804    6    0    1
 -2      2297      4199      4145      4284      5470      5286      5471      5472      5291      5289
 -1      2805    6    0    1
 -2      1142      2923      2922      2924      4580      3643      4551      4558      3652      3651
 -1      2806    6    0    1
 -2      4156      4314      4107      4320      4970      5266      5473      5436      5268      5126
 -1      2807    6    0    1
 -2      4095      4160      3147      4264      5198      5197      5199      5474      5476      5475
 -1      2808    6    0    1
 -2      4106      1754      4263      4296      5157      5192      5193      5333      5293      5095
 -1      2809    6    0    1
 -2      4125      4164      2988      4238      5443      5477      5459      5302      5446      5460
 -1      2810    6    0    1
 -2      2322      4122      4191      4249      5478      5479      5480      5481      5483      5482
 -1      2811    6    0    1
 -2      3085      3025      3027      4111      3776      4005      3989      5250      4661      4660
 -1      2812    6    0    1
 -2      1741       657      4171      4212      5484      5485      5486      5487      5489      5488
 -1      2813    6    0    1
 -2      3089      2977      4112      4335      3840      5329      5327      5490      5162      5350
 -1      2814    6    0    1
 -2      2346      2303      4206      4225      2672      5307      4686      5018      5491      5020
 -1      2815    6    0    1
 -2      3151      4140      3041      4270      5492      5237      3916      5493      5242      5240
 -1      2816    6    0    1
 -2      2280      4099      2333      4209      5169      5170      2503      5494      5496      5495
 -1      2817    6    0    1
 -2      2283      2284      4096      4210      2570      5345      5344      5497      5499      5498
 -1      2818    6    0    1
 -2      2299      2300      4100      4213      2641      5222      5065      5500      4710      5391
 -1      2819    6    0    1
 -2      4155      4182       491      4359      4364      5501      5502      4367      4368      5503
 -1      2820    6    0    1
 -2      2108      4218      2277      4235      5429      5504      5505      5430      5377      5506
 -1      2821    6    0    1
 -2      4147      4241      4188      4310      5507      5467      5447      5449      5469      5049
 -1      2822    6    0    1
 -2      2292      2329      4112      4199      2620      5414      5508      5509      5413      5287
 -1      2823    6    0    1
 -2      3095      4184      4112      4208      5457      5458      5328      5510      5512      5511
 -1      2824    6    0    1
 -2      2925      3100      3113      1123      3666      3670      3669      4468      4451      4546
 -1      2825    6    0    1
 -2      2962      4101      3061      4195      5166      5167      3795      5513      5321      5320
 -1      2826    6    0    1
 -2      1744      4149      4271      4339      5514      5212      5515      5516      5518      5517
 -1      2827    6    0    1
 -2      3008      4141      2897      4194      5173      4748      3529      5174      4752      4751
 -1      2828    6    0    1
 -2      3064      4162      4290      4319      5519      5131      4696      5013      5133      5015
 -1      2829    6    0    1
 -2      2921      1118      2920      2922      4463      4581      3634      3641      4492      3642
 -1      2830    6    0    1
 -2      2716      4193      2732      4224      5520      5402      2846      5521      5401      5400
 -1      2831    6    0    1
 -2      4125      4288      4209      4315      5306      5394      4389      4391      5522      4390
 -1      2832    6    0    1
 -2      2331      4098      4210      4283      5118      5265      5263      5214      5215      5523
 -1      2833    6    0    1
 -2      1117      1141      3052      1138      1227      4478      4734      1228      1230      4481
 -1      2834    6    0    1
 -2      2950      3061      4101      4215      3575      5167      5165      5524      5526      5525
 -1      2835    6    0    1
 -2      2922      3091      1143      2925      3647      4509      4493      3653      3655      4466
 -1      2836    6    0    1
 -2        78      2996      2990      2992      4853      3950      4548      4430      3949      3948
 -1      2837    6    0    1
 -2      3085      4111      3027      4194      5250      4660      3989      5249      4862      4861
 -1      2838    6    0    1
 -2      2733      4128      2722      4196      5527      4488      2841      5528      4630      4628
 -1      2839    6    0    1
 -2      3048      3051        72      3105      4050      4587      4376      4051      3650      4375
 -1      2840    6    0    1
 -2      3055      4116      2953      4178      5529      4778      3807      5530      5532      5531
 -1      2841    6    0    1
 -2      1714      4119      1724      4231      5175      5437      2092      5533      5535      5534
 -1      2842    6    0    1
 -2      3027      3008      4141      4340      3433      5173      4996      4865      5536      4997
 -1      2843    6    0    1
 -2      2716      2893      4193      4224      5537      5538      5520      5521      5539      5401
 -1      2844    6    0    1
 -2      4111      4199      2295      4213      5540      5541      5542      5543      5545      5544
 -1      2845    6    0    1
 -2      2299      4100      4166      4213      5065      5068      5069      5500      5391      5546
 -1      2846    6    0    1
 -2      1122      3068       255       256      4892      4826      1194      1195      4827       265
 -1      2847    6    0    1
 -2      2975      4204      4144      4260      5547      5548      5549      5550      5552      5551
 -1      2848    6    0    1
 -2      1697      4185      4106      4202      5553      5554      5158      5555      5557      5556
 -1      2849    6    0    1
 -2      2998      1134      2999      1121      5153      5558      3965      5064      1249      5038
 -1      2850    6    0    1
 -2      1685      4198      4107      4287      5559      5560      4849      5561      5562      4700
 -1      2851    6    0    1
 -2      3078      1133      2999      4329      4572      5039      3372      4574      4513      5563
 -1      2852    6    0    1
 -2      1310      1289      3104      4140      1509      5564      5565      5455      5567      5566
 -1      2853    6    0    1
 -2      2317      2316      4104      4227      2531      5330      5331      5568      5385      5569
 -1      2854    6    0    1
 -2      4126      4208      4145      4252      4473      5570      5571      4665      4646      5572
 -1      2855    6    0    1
 -2      4102      4158       626      4262      4370      5573      5574      5575      5577      5576
 -1      2856    6    0    1
 -2      4134      4182      4104      4337      4959      4609      5578      4961      4814      4815
 -1      2857    6    0    1
 -2      2298      4111      2295      4213      5579      5542      2634      5580      5543      5544
 -1      2858    6    0    1
 -2      2332      2317      4104      4205      2695      5331      5045      5581      5583      5582
 -1      2859    6    0    1
 -2      4098      4151      4200      4251      4986      5584      4678      4956      5300      4705
 -1      2860    6    0    1
 -2      1130        72      1117      3051      1169      1165      1170      4586      4587      4783
 -1      2861    6    0    1
 -2      3114      3068      3155      1122      4085      4087      4086      4893      4892      4877
 -1      2862    6    0    1
 -2      3102      4177      2966      4228      4835      4873      3867      5077      4380      4874
 -1      2863    6    0    1
 -2      2300      4100      4213      4251      5222      5391      4710      4713      5393      4715
 -1      2864    6    0    1
 -2      1708      4118      1745      4245      5585      5463      2077      5586      5464      5465
 -1      2865    6    0    1
 -2      3122      4285      4148      4288      5587      5588      5589      5590      5280      5591
 -1      2866    6    0    1
 -2      4116      2953      4178      4186      4778      5531      5532      5592      5594      5593
 -1      2867    6    0    1
 -2      2295      4111      2298      4354      5542      5579      2634      5595      5597      5596
 -1      2868    6    0    1
 -2      3061      4147      4101      4324      5319      5318      5167      5598      5600      5599
 -1      2869    6    0    1
 -2      2914      2917      3073      4182      3613      3615      3607      4521      4363      4890
 -1      2870    6    0    1
 -2       615      3080      3082      4148      5601      3188      4978      4979      5602      4384
 -1      2871    6    0    1
 -2      1141      3113      1129      1123      4545      4727      1258      1259      4546      1202
 -1      2872    6    0    1
 -2      3025      4111      3085      4208      4661      5250      3776      5603      5251      5252
 -1      2873    6    0    1
 -2      3118      3082      4110      4257      3398      4381      5604      5605      4982      4953
 -1      2874    6    0    1
 -2      3079       633      2877      4292      5606      4944      3227      5607      4945      4946
 -1      2875    6    0    1
 -2      4111      4184      4194      4208      5608      5609      4862      5251      5512      5253
 -1      2876    6    0    1
 -2      3091      1130      3051      2921      4575      4586      3648      3646      4514      3649
 -1      2877    6    0    1
 -2      2320      4157      2321      4236      4914      5282      2515      4915      4916      5281
 -1      2878    6    0    1
 -2      4100      2301      4166      4206      5066      5067      5068      5610      5612      5611
 -1      2879    6    0    1
 -2      3114      3113      3069      1129      4059      4089      4084      4654      4727      4639
 -1      2880    6    0    1
 -2      3141      4178      4119      4193      5613      5614      5615      5616      4503      5617
 -1      2881    6    0    1
 -2      2348      4284      2345      4286      4763      5618      2529      4764      4765      5619
 -1      2882    6    0    1
 -2       622       625       508       665       715      5072      4846       787       922      4797
 -1      2883    6    0    1
 -2      4204      4221      4123      4266      5081      5620      5621      5082      5083      5622
 -1      2884    6    0    1
 -2      4147      4195      4104      4233      5143      5256      5448      4990      5146      4742
 -1      2885    6    0    1
 -2      1697      4185      4202      4304      5553      5557      5555      5623      5625      5624
 -1      2886    6    0    1
 -2      2319      4157      4120      4205      5035      4913      5034      5626      5628      5627
 -1      2887    6    0    1
 -2      3034      2894      4094      4239      3517      5358      5629      5630      5359      4887
 -1      2888    6    0    1
 -2      1324      4232      1285      4327      5631      5632      1614      5633      5635      5634
 -1      2889    6    0    1
 -2      4112      4208      4126      4250      5511      4473      5636      5349      4843      4841
 -1      2890    6    0    1
 -2      4112      4250      4142      4335      5349      5160      5637      5350      5163      5164
 -1      2891    6    0    1
 -2      2941      4109      4179      4291      5203      5638      5639      5204      5205      5640
 -1      2892    6    0    1
 -2      3022      4152      3025      4252      5641      4662      4004      5642      5644      5643
 -1      2893    6    0    1
 -2      2990       496      2989      4164      5062      5104      3474      5351      4958      5645
 -1      2894    6    0    1
 -2      2265      4191      1314      4249      5646      5647      5648      5649      5482      5650
 -1      2895    6    0    1
 -2      3093      4156      4115      4320      5651      5652      5653      5654      5436      5655
 -1      2896    6    0    1
 -2      1289      3104      4140      4279      5564      5566      5567      5656      5658      5657
 -1      2897    6    0    1
 -2      1705      4171      4094      4212      5659      5660      5661      5662      5488      5663
 -1      2898    6    0    1
 -2      3093      4115      4260      4320      5653      5664      5665      5654      5655      5666
 -1      2899    6    0    1
 -2      2975      4115      3093      4269      5667      5653      3906      5668      5670      5669
 -1      2900    6    0    1
 -2      2296      4199      4131      4213      5671      5672      4746      4747      5545      4711
 -1      2901    6    0    1
 -2      3116      1310      3104      4140      5451      5565      3306      5454      5455      5566
 -1      2902    6    0    1
 -2      2977      4250      4142      4341      5161      5160      5159      5673      5675      5674
 -1      2903    6    0    1
 -2      2966      3101      3130      4177      3870      3419      3864      4873      5006      4372
 -1      2904    6    0    1
 -2      4092      4224      3011      4268      4963      5676      5388      4966      4967      5390
 -1      2905    6    0    1
 -2      2986      4238      2987      4288      5303      5677      3893      5304      5305      5678
 -1      2906    6    0    1
 -2      2894       610      4219      4239      5679      5016      5357      5359      5017      4889
 -1      2907    6    0    1
 -2      3102      4228      2966      4298      5077      4874      3867      4975      5078      5680
 -1      2908    6    0    1
 -2      4245      4301      4118      4309      5681      5682      5464      5683      5685      5684
 -1      2909    6    0    1
 -2       660      4110       658      4294      4401      4951       906      4446      4447      5686
 -1      2910    6    0    1
 -2      1757      4202      4106      4263      5687      5556      5156      5191      5688      5193
 -1      2911    6    0    1
 -2      1324      4286      4232      4327      5689      5690      5631      5633      5432      5635
 -1      2912    6    0    1
 -2      4127      4138      1010      4290      4817      5691      4756      4461      4733      5692
 -1      2913    6    0    1
 -2      1317      1326      4191      4286      1562      5693      5694      5695      5431      4981
 -1      2914    6    0    1
 -2      1284      1323      1307      4268      1609      1608      1446      5088      4965      5696
 -1      2915    6    0    1
 -2       622       508        78      3140      4846       519      5697      4848      4470      4547
 -1      2916    6    0    1
 -2      3140        78       676      2996      4547      5698      5699      3203      4853      5700
 -1      2917    6    0    1
 -2      4095      4247      4220      4287      5701      5184      5702      5703      5189      5187
 -1      2918    6    0    1
 -2      2713      4128      1664      4274      5704      5705      5706      5707      5709      5708
 -1      2919    6    0    1
 -2      2279      4117      4209      4211      5710      4393      4637      4636      4395      4387
 -1      2920    6    0    1
 -2      1015      4162      4127      4290      5711      5132      5149      5712      5131      4461
 -1      2921    6    0    1
 -2      2990      2989      2885      4164      3474      3472      3475      5351      5645      4800
 -1      2922    6    0    1
 -2      2977      3095      4112      4250      3911      5328      5329      5161      5713      5349
 -1      2923    6    0    1
 -2      3046      3048      3047      4330      4043      4042      3411      5037      5029      5714
 -1      2924    6    0    1
 -2      2926      2928      2929      4321      3671      3674      3673      4648      5715      4682
 -1      2925    6    0    1
 -2      2728      2738      4094      4219      2838      5716      5099      5100      5717      4884
 -1      2926    6    0    1
 -2      1697      4106      1757      4202      5158      5156      2047      5555      5556      5687
 -1      2927    6    0    1
 -2      4117      2954      4190      4288      5278      4830      5314      5279      4833      4834
 -1      2928    6    0    1
 -2      2351      2335      4230      4283      2689      5224      5718      5719      5127      5225
 -1      2929    6    0    1
 -2      1127      1120        77      2992      1185      1184      1180      4796      4431      4672
 -1      2930    6    0    1
 -2      3102      3099      4146      4298      3988      5089      4837      4975      5720      4977
 -1      2931    6    0    1
 -2      2949      4174      4109      4291      5721      5722      5202      5206      5723      5205
 -1      2932    6    0    1
 -2      1732      4220      4135      4332      5724      5725      5726      5727      5729      5728
 -1      2933    6    0    1
 -2      2959      2977      4142      4341      3838      5159      5730      5731      5673      5674
 -1      2934    6    0    1
 -2      3035      4114      4181      4256      5732      5733      5734      5735      5000      5736
 -1      2935    6    0    1
 -2      2284      4096      4163      4241      5345      5737      5738      5379      5378      5739
 -1      2936    6    0    1
 -2      1694      1689      4103      4304      2014      4725      4775      5740      5742      5741
 -1      2937    6    0    1
 -2      2933      4138      4197      4347      5743      5744      5745      5746      5748      5747
 -1      2938    6    0    1
 -2      2336      4131      4183      4251      5316      5749      5750      5317      4714      4703
 -1      2939    6    0    1
 -2      3105      2921      3051      4359      3635      3649      3650      4362      4495      4653
 -1      2940    6    0    1
 -2      2957      2941      4109      4203      3748      5203      5387      5751      5753      5752
 -1      2941    6    0    1
 -2      4111      4213      2298      4354      5543      5580      5579      5597      5754      5596
 -1      2942    6    0    1
 -2      4161      4163      4097      4210      5755      4706      5756      5757      4754      5292
 -1      2943    6    0    1
 -2      2944      4107      2942      4302      5123      5122      3752      5758      5760      5759
 -1      2944    6    0    1
 -2       644      1125      2868      4329      5040      5308      5761      5762      4512      5309
 -1      2945    6    0    1
 -2      1682      4135      1732      4220      5763      5726      1969      5764      5725      5724
 -1      2946    6    0    1
 -2      2959      4142      2977      4335      5730      5159      3838      5765      5164      5162
 -1      2947    6    0    1
 -2      2134      4093      2126      4217      5766      5767      2250      5768      5770      5769
 -1      2948    6    0    1
 -2      2728      4094      2738      4212      5099      5716      2838      5771      5663      5772
 -1      2949    6    0    1
 -2      2932      4139      4197      4321      5058      5773      5774      5059      5060      5190
 -1      2950    6    0    1
 -2      3093      4115      2975      4260      5653      5667      3906      5665      5664      5550
 -1      2951    6    0    1
 -2      4112      4145      4126      4208      5288      5571      5636      5511      5570      4473
 -1      2952    6    0    1
 -2      2989      4164       496      4238      5645      4958      5104      5102      5446      5103
 -1      2953    6    0    1
 -2      1700      4149      4109      4245      5775      5776      5312      5777      5248      5778
 -1      2954    6    0    1
 -2      2726      4176      4150      4258      5779      5780      5781      5782      5784      5783
 -1      2955    6    0    1
 -2      4102      4262       626      4292      5575      5576      5574      4657      5786      5785
 -1      2956    6    0    1
 -2      2986      4288      4148      4308      5304      5591      5787      5788      5790      5789
 -1      2957    6    0    1
 -2      4144      4204      4115      4260      5548      5791      5792      5551      5552      5664
 -1      2958    6    0    1
 -2      1318      2884      1136      4348      5793      5794      4883      5795      5796      4585
 -1      2959    6    0    1
 -2      4099      2912      4233      4325      5369      5370      4995      5424      5422      5797
 -1      2960    6    0    1
 -2      3150      2985      4091      4264      3938      5798      4408      4633      5799      4635
 -1      2961    6    0    1
 -2      1330      1314      4191      4249      1572      5647      5800      5801      5650      5482
 -1      2962    6    0    1
 -2      1018      4255      4138      4299      5802      5803      5804      5805      5807      5806
 -1      2963    6    0    1
 -2      2975      4115      4204      4260      5667      5791      5547      5550      5664      5552
 -1      2964    6    0    1
 -2      4129      4172      1702      4271      5808      5809      5209      5211      5810      5210
 -1      2965    6    0    1
 -2      2951      4098      4151      4256      4928      4986      4985      5811      5813      5812
 -1      2966    6    0    1
 -2      1708      4118      4245      4301      5585      5464      5586      5814      5682      5681
 -1      2967    6    0    1
 -2      2286      4216      4097      4334      5815      5816      4707      5419      5817      5421
 -1      2968    6    0    1
 -2      1721      4221      4265      4266      5818      5080      5819      5820      5083      5084
 -1      2969    6    0    1
 -2      1010      4138      4127      4299      5691      4817      4756      4758      5806      4760
 -1      2970    6    0    1
 -2      3001      4307      2993      4345      5821      4517      3954      5822      5071      4544
 -1      2971    6    0    1
 -2      2983      4118      2982      4338      5823      5824      3829      4555      5141      5825
 -1      2972    6    0    1
 -2      1664      4128      2713      4276      5705      5704      5706      5826      5828      5827
 -1      2973    6    0    1
 -2      3027      4111      4152      4340      4660      4663      4664      4865      4863      5829
 -1      2974    6    0    1
 -2      2957      4109      2949      4244      5387      5202      3749      5830      5832      5831
 -1      2975    6    0    1
 -2      2114      2108      2277      4235      2194      5505      5833      5834      5430      5506
 -1      2976    6    0    1
 -2      2737      4150      2726      4176      5835      5781      2859      5836      5780      5779
 -1      2977    6    0    1
 -2      3149      4176      4108      4237      5362      5361      5360      5837      4524      5838
 -1      2978    6    0    1
 -2      2875       608      3077      4158      5839      5840      3221      5841      5842      4619
 -1      2979    6    0    1
 -2      1724      4231      4119      4246      5534      5535      5437      5843      5845      5844
 -1      2980    6    0    1
 -2      4118      4203      4133      4264      5140      5846      5847      5139      4553      5848
 -1      2981    6    0    1
 -2      3141      3142      4178      4193      3879      5257      5613      5616      5258      4503
 -1      2982    6    0    1
 -2      4126      4191      1326      4286      4897      5693      4983      4766      4981      5431
 -1      2983    6    0    1
 -2      3034      4094      4167      4239      5629      5849      5850      5630      4887      5851
 -1      2984    6    0    1
 -2      1287      4327      3088      4328      4935      5852      5853      4936      4937      5854
 -1      2985    6    0    1
 -2      2295      4199      4111      4354      5541      5540      5542      5595      5855      5597
 -1      2986    6    0    1
 -2      3147      4264      4160      4302      5475      5476      5197      5856      5858      5857
 -1      2987    6    0    1
 -2      3103      4167      4091      4239      5859      4592      4407      5354      5851      5356
 -1      2988    6    0    1
 -2      3025      3022      3027      4152      4004      4000      4005      4662      5641      4664
 -1      2989    6    0    1
 -2      4104      2332      4205      4310      5045      5581      5582      5050      5048      5860
 -1      2990    6    0    1
 -2      2286      4163      4097      4216      4690      4706      4707      5815      5861      5816
 -1      2991    6    0    1
 -2      2734      4128      2713      4274      5341      5704      2832      5862      5709      5707
 -1      2992    6    0    1
 -2      3051      3049      1117      3052      4049      4858      4783      4053      4052      4734
 -1      2993    6    0    1
 -2      4136      4190      4117      4209      4829      5314      5863      5864      5865      4393
 -1      2994    6    0    1
 -2      2901      4184      4194      4222      5866      5609      4870      4871      5867      4806
 -1      2995    6    0    1
 -2      2313      2345      4145      4286      2527      5868      5022      5025      5619      5027
 -1      2996    6    0    1
 -2       674      4094       649      4212      5869      4886       944      5870      5663      5871
 -1      2997    6    0    1
 -2      2986      4148      3122      4308      5787      5589      3379      5788      5789      5872
 -1      2998    6    0    1
 -2      1685      1686      4198      4287      1983      5873      5559      5561      5874      5562
 -1      2999    6    0    1
 -2       673       648      4093      4217       938      5875      5876      5877      5878      5770
 -1      3000    6    0    1
 -2      1685      1683      1686      4287      1982      1984      1983      5561      5879      5874
 -1      3001    6    0    1
 -2      2975      4204      4115      4269      5547      5791      5667      5668      5880      5670
 -1      3002    6    0    1
 -2      1323      4092      1349      4201      4964      5881      1613      5882      5884      5883
 -1      3003    6    0    1
 -2      4106      4202      4185      4304      5556      5557      5554      5885      5624      5625
 -1      3004    6    0    1
 -2      2970      4124      3014      4259      5886      5887      3535      5888      5890      5889
 -1      3005    6    0    1
 -2      2988      4164      4125      4308      5477      5443      5459      5891      5893      5892
 -1      3006    6    0    1
 -2      4099      4188      2333      4326      5336      5334      5170      5894      5896      5895
 -1      3007    6    0    1
 -2      1323      1349      4092      4224      1613      5881      4964      4962      5897      4963
 -1      3008    6    0    1
 -2      2319      2321      2320      4157      2702      2515      2701      5035      5282      4914
 -1      3009    6    0    1
 -2      1348      4218      4113      4286      5898      5372      5899      5900      5901      5026
 -1      3010    6    0    1
 -2      2324      2322      4122      4191      2493      5478      5902      5903      5480      5479
 -1      3011    6    0    1
 -2      1744      4149      1702      4271      5514      5207      2070      5515      5212      5210
 -1      3012    6    0    1
 -2       649      4094       674      4219      4886      5869       944      4885      4884      5904
 -1      3013    6    0    1
 -2       673      4093       648      4214      5876      5875       938      5905      5907      5906
 -1      3014    6    0    1
 -2      2126      4093      2134      4313      5767      5766      2250      5908      5910      5909
 -1      3015    6    0    1
 -2       649      4094      4171      4212      4886      5660      5911      5871      5663      5488
 -1      3016    6    0    1
 -2      3155      1136      2884      4348      5001      5794      3468      4681      4585      5796
 -1      3017    6    0    1
 -2       627      3077       608      4158      5002      5840       816      5003      4619      5842
 -1      3018    6    0    1
 -2      2295      4199      2296      4213      5541      5671      2616      5544      5545      4747
 -1      3019    6    0    1
 -2       654      4114      4230      4257      5395      5912      5913      5182      5396      5914
 -1      3020    6    0    1
 -2      1330      4191      4122      4249      5800      5479      5915      5801      5482      5483
 -1      3021    6    0    1
 -2       504      4182      4155      4188      5916      4364      5917      5918      5226      5352
 -1      3022    6    0    1
 -2       650      4239      4207      4352      5919      5355      5920      5921      5923      5922
 -1      3023    6    0    1
 -2       255      1017       256      4305      1070      1069       265      4668      5924      4670
 -1      3024    6    0    1
 -2      2287      4097      4183      4334      4773      4708      4774      5420      5421      5925
 -1      3025    6    0    1
 -2      2983      2982      4118      4244      3829      5824      5823      5926      5928      5927
 -1      3026    6    0    1
 -2      4115      4175      1690      4189      4808      4925      4924      5929      5931      5930
 -1      3027    6    0    1
 -2      1134      2994      2998      2999      5134      3964      5153      5558      3966      3965
 -1      3028    6    0    1
 -2      2306      4188      4099      4241      5335      5336      5168      5397      5467      5399
 -1      3029    6    0    1
 -2      2712      4150      2737      4274      5932      5835      2828      5933      5935      5934
 -1      3030    6    0    1
 -2      2985      4264      2983      4338      5799      4552      3928      5936      4557      4555
 -1      3031    6    0    1
 -2      3067      3068      3069       256      3403      4082      4081      4844      4827      4845
 -1      3032    6    0    1
 -2      2895      2882      2118      4137      3328      5937      5938      5939      5941      5940
 -1      3033    6    0    1
 -2       649      4171       657      4212      5911      5485       891      5871      5488      5489
 -1      3034    6    0    1
 -2      2283      2284      2282      4272      2570      2569      2564      5346      5347      5434
 -1      3035    6    0    1
 -2      2938      4260      4103      4320      5942      5943      5944      5945      5666      5946
 -1      3036    6    0    1
 -2      2284      4163      4096      4210      5738      5737      5345      5499      4754      5498
 -1      3037    6    0    1
 -2      2902      2951      3040      4222      3543      3555      3554      5947      4926      5137
 -1      3038    6    0    1
 -2       261      1121      3000       262      1212      4768      4769       271      1213      4795
 -1      3039    6    0    1
 -2      3079       616       633      4292      5948       822      5606      5607      5949      4945
 -1      3040    6    0    1
 -2      2887       263       675      4281      5244      5950      5951      5952      5954      5953
 -1      3041    6    0    1
 -2      4232      4286      4113      4327      5690      5026      5955      5635      5432      5956
 -1      3042    6    0    1
 -2      4139      4197      4138      4347      5773      5744      5957      5958      5747      5748
 -1      3043    6    0    1
 -2      1705      1741      4171      4212      1917      5486      5659      5662      5487      5488
 -1      3044    6    0    1
 -2      2715      3110      2727      4196      5959      5416      2818      5960      5417      5259
 -1      3045    6    0    1
 -2      2884      3155      1318      1136      3468      5044      5793      5794      5001      4883
 -1      3046    6    0    1
 -2      4110      4211      2335      4294      5111      5112      5110      4447      5962      5961
 -1      3047    6    0    1
 -2      3117      4129      2965      4292      4973      5011      3858      5963      4947      5171
 -1      3048    6    0    1
 -2      2348      1317      4191      4286      5964      5694      4898      4764      5695      4981
 -1      3049    6    0    1
 -2      4176      4258      3107      4323      5784      5965      5966      5364      5968      5967
 -1      3050    6    0    1
 -2       649      4171      4094      4239      5911      5660      4886      4888      5969      4887
 -1      3051    6    0    1
 -2      3095      4208      4112      4250      5510      5511      5328      5713      4843      5349
 -1      3052    6    0    1
 -2      2998      3002      3096      1128      3971      3678      3968      4872      4427      4435
 -1      3053    6    0    1
 -2      1706      1700      4109      4245      2057      5312      5051      5970      5777      5778
 -1      3054    6    0    1
 -2      1306      1324      1285      4327      1615      1614      1521      5070      5633      5634
 -1      3055    6    0    1
 -2      2907      4243      2909      4324      5971      5972      3577      5973      5975      5974
 -1      3056    6    0    1
 -2      4102      4228      4129      4292      4379      4624      5976      4657      5172      4947
 -1      3057    6    0    1
 -2       661      4129       633      4292      5977      4942       972      5978      4947      4945
 -1      3058    6    0    1
 -2      4092      4178      4132      4268      4498      5979      5980      4966      5982      5981
 -1      3059    6    0    1
 -2      3117      4129      4242      4244      4973      5441      5983      4974      4625      5984
 -1      3060    6    0    1
 -2      4151      4194      4131      4222      4674      5985      5986      4805      4806      5987
 -1      3061    6    0    1
 -2      2115      4113      4235      4317      5374      5375      5376      5988      5990      5989
 -1      3062    6    0    1
 -2      2316      4188      4104      4227      5381      5046      5330      5385      5231      5569
 -1      3063    6    0    1
 -2      2894       631       610      4239      5991       837      5679      5359      5243      5017
 -1      3064    6    0    1
 -2      4124      4093      4240      4289      4818      5992      4611      4602      4688      5993
 -1      3065    6    0    1
 -2      4099      4190      2910      4325      4994      4988      4993      5424      5994      5423
 -1      3066    6    0    1
 -2      2986      3122      4148      4288      3379      5589      5787      5304      5590      5591
 -1      3067    6    0    1
 -2      2909      4243      4096      4324      5972      5995      5996      5974      5975      5997
 -1      3068    6    0    1
 -2      2933      4197      4139      4347      5745      5773      5998      5746      5747      5958
 -1      3069    6    0    1
 -2      2348      2325      2345      4284      2498      2709      2529      4763      5255      5618
 -1      3070    6    0    1
 -2      2333      4209      4099      4326      5495      5496      5170      5895      5999      5894
 -1      3071    6    0    1
 -2      4118      4264      4301      4338      5139      6000      5682      5141      4557      6001
 -1      3072    6    0    1
 -2      2265      1314      2353      4249      5648      6002      2441      5649      5650      6003
 -1      3073    6    0    1
 -2      2968      4119      3141      4178      6004      5615      3878      6005      5614      5613
 -1      3074    6    0    1
 -2      1287      1306      3088      4327      1518      6006      5853      4935      5070      5852
 -1      3075    6    0    1
 -2      4105      4189      4169      4349      6007      6008      6009      6010      6012      6011
 -1      3076    6    0    1
 -2      3115      4270      4120      4337      6013      5241      6014      6015      6017      6016
 -1      3077    6    0    1
 -2      4097      4215      2904      4335      6018      6019      6020      6021      6023      6022
 -1      3078    6    0    1
 -2      2294      4143      2283      4272      4529      6024      2566      4530      4531      5346
 -1      3079    6    0    1
 -2      1284      3011      4224      4268      6025      5676      5087      5088      5390      4967
 -1      3080    6    0    1
 -2      2320      4236      4159      4311      4915      6026      6027      6028      6030      6029
 -1      3081    6    0    1
 -2      2728      4196      4094      4276      5098      5097      5099      6031      6033      6032
 -1      3082    6    0    1
 -2      4099      4190      4136      4209      4994      4829      6034      5496      5865      5864
 -1      3083    6    0    1
 -2      1730      4180      4150      4332      5310      6035      6036      5311      5179      6037
 -1      3084    6    0    1
 -2      2725      2712      2737      4274      2784      2828      2827      6038      5933      5934
 -1      3085    6    0    1
 -2      4161      4097      4183      4210      5756      4708      6039      5757      5292      4755
 -1      3086    6    0    1
 -2      1690      1691      4115      4265      2004      4971      4924      6040      6042      6041
 -1      3087    6    0    1
 -2      2716      2893      2723      4193      5537      6043      2800      5520      5538      6044
 -1      3088    6    0    1
 -2      2114      2115      2108      4235      2230      2229      2194      5834      5376      5430
 -1      3089    6    0    1
 -2       675       263       623      4281      5950      6045       810      5953      5954      6046
 -1      3090    6    0    1
 -2      2988      4125      2986      4308      5459      5301      3375      5891      5892      5788
 -1      3091    6    0    1
 -2      3041      4120      3115      4270      5239      6014      4032      5240      5241      6013
 -1      3092    6    0    1
 -2      2265      1277      1314      4191      6047      1544      5648      5646      6048      5647
 -1      3093    6    0    1
 -2      2910      4147      2908      4190      4989      6049      3581      4988      4987      6050
 -1      3094    6    0    1
 -2      2347      2304      2305      4153      2512      2669      2676      5269      5147      5270
 -1      3095    6    0    1
 -2      3063      4138      3058      4290      6051      4732      4067      6052      4733      4460
 -1      3096    6    0    1
 -2      2990        77      2992      2991      4620      4672      3948      3945      4525      3947
 -1      3097    6    0    1
 -2      2993      3094      3001      4345      3962      3640      3954      4544      4535      5822
 -1      3098    6    0    1
 -2       676       622        78      3140       789      5697      5698      5699      4848      4547
 -1      3099    6    0    1
 -2      4149      4228      4174      4244      5274      6053      6054      5275      4626      6055
 -1      3100    6    0    1
 -2      4097      4161      2904      4215      5756      6056      6020      6018      6057      6019
 -1      3101    6    0    1
 -2      1686      4133      4198      4287      6058      6059      5873      5874      6060      5562
 -1      3102    6    0    1
 -2      3035      3017      4114      4256      3392      6061      5732      5735      6062      5000
 -1      3103    6    0    1
 -2      2722      2718      3028      4176      2812      6063      4486      4489      6064      4491
 -1      3104    6    0    1
 -2      4116      4178      3055      4303      5532      5530      5529      6065      6067      6066
 -1      3105    6    0    1
 -2      4109      1706      4245      4309      5051      5970      5778      6068      6069      5683
 -1      3106    6    0    1
 -2       604      4172       661      4271      6070      6071       910      6072      5810      6073
 -1      3107    6    0    1
 -2      4118      4242      2982      4338      6074      6075      5824      5141      6076      5825
 -1      3108    6    0    1
 -2      4207      4239      4091      4352      5355      5356      4411      5922      5923      6077
 -1      3109    6    0    1
 -2      4096      4190      2909      4324      6078      6079      5996      5997      6080      5974
 -1      3110    6    0    1
 -2      2965      4102      3130      4292      6081      4371      3863      5171      4657      5120
 -1      3111    6    0    1
 -2      1306      1326      4286      4327      1625      5431      6082      5070      4934      5432
 -1      3112    6    0    1
 -2       644      3078      2868      1125      5041      3209      5761      5040      4573      5308
 -1      3113    6    0    1
 -2      3128      3078      2887       263      3488      3212      3486      5007      5371      5244
 -1      3114    6    0    1
 -2      1323      4268      4092      4282      4965      4966      4964      6083      6085      6084
 -1      3115    6    0    1
 -2      2734      2722      2733      4128      2858      2841      2834      5341      4488      5527
 -1      3116    6    0    1
 -2      1725      4130      1019      4263      5091      6086      6087      5093      5092      6088
 -1      3117    6    0    1
 -2      1706      4185      1698      4198      5053      5054      2058      5325      4896      6089
 -1      3118    6    0    1
 -2      1011      4146      4139      4263      5295      5057      5296      6090      6092      6091
 -1      3119    6    0    1
 -2      3102      2966      3013      4298      3867      3861      3868      4975      5680      6093
 -1      3120    6    0    1
 -2      2320      4120      4236      4311      4912      4917      4915      6028      6094      6030
 -1      3121    6    0    1
 -2       238      4255      1018      4299      6095      5802      1050      6096      5807      5805
 -1      3122    6    0    1
 -2      2918      4300      2920      4359      6097      5220      3631      6098      5196      4631
 -1      3123    6    0    1
 -2      3062      4138      2933      4347      6099      5743      3706      6100      5748      5746
 -1      3124    6    0    1
 -2      2347      4153      4200      4331      5269      5273      5271      6101      6103      6102
 -1      3125    6    0    1
 -2      2715      2727      2728      4196      2818      2844      2843      5960      5259      5098
 -1      3126    6    0    1
 -2      2942      4179      4107      4320      6104      6105      5122      5124      6106      5126
 -1      3127    6    0    1
 -2      4116      4246      1723      4275      6107      6108      6109      6110      6112      6111
 -1      3128    6    0    1
 -2      4117      4190      4136      4288      5314      4829      5863      5279      4834      4832
 -1      3129    6    0    1
 -2      4143      4210      2283      4272      6113      5497      6024      4531      6114      5346
 -1      3130    6    0    1
 -2      3082      2973      3118      4110      3898      3896      3398      4381      5261      5604
 -1      3131    6    0    1
 -2      2715      2890      3110      4196      6115      3368      5959      5960      6116      5417
 -1      3132    6    0    1
 -2      3038      4147      2911      4233      5144      6117      3598      5145      4990      6118
 -1      3133    6    0    1
 -2      1708      1745      4118      4172      2077      5463      5585      6119      5462      5461
 -1      3134    6    0    1
 -2      2911      4147      2910      4233      6117      4989      3584      6118      4990      4991
 -1      3135    6    0    1
 -2      2917      4155      2916      4300      4365      6120      3614      5195      5194      6121
 -1      3136    6    0    1
 -2      1702      4172      4129      4245      5809      5808      5209      5247      5466      5246
 -1      3137    6    0    1
 -2      2971      2954      4285      4288      3811      5277      6122      6123      4833      5280
 -1      3138    6    0    1
 -2      1134      1127      1139      2994      1242      1236      1251      5134      4878      4948
 -1      3139    6    0    1
 -2      3041      3115      4120      4337      4032      6014      5239      6124      6015      6016
 -1      3140    6    0    1
 -2      2875      3077      3130      4158      3221      3418      3417      5841      4619      4369
 -1      3141    6    0    1
 -2      3029      4196      3036      4237      6125      5130      4011      6126      4671      4876
 -1      3142    6    0    1
 -2      1703      4301      4245      4309      6127      5681      6128      6129      5685      5683
 -1      3143    6    0    1
 -2      3014      2970      3016      4124      3535      3885      3884      5887      5886      4610
 -1      3144    6    0    1
 -2      3141      3010      3142      4193      3990      3993      3879      5616      4502      5258
 -1      3145    6    0    1
 -2      4169      4189      4105      4304      6008      6007      6009      6130      6132      6131
 -1      3146    6    0    1
 -2      4174      4228      2963      4244      6053      4623      6133      6055      4626      4627
 -1      3147    6    0    1
 -2      4161      4222      3040      4346      6134      5137      6135      6136      4931      5138
 -1      3148    6    0    1
 -2      4120      4195      3041      4337      6137      6138      5239      6016      6139      6124
 -1      3149    6    0    1
 -2      1686      4198      4133      4309      5873      6059      6058      6140      6142      6141
 -1      3150    6    0    1
 -2      3095      3097      4208      4250      3912      4617      5510      5713      4842      4843
 -1      3151    6    0    1
 -2      4124      4240      4093      4350      4611      5992      4818      5367      5368      6143
 -1      3152    6    0    1
 -2      2931      4146      2932      4321      6144      5056      3692      6145      5061      5059
 -1      3153    6    0    1
 -2      1719      4221      4123      4293      6146      5620      6147      6148      6150      6149
 -1      3154    6    0    1
 -2      3061      4101      4215      4324      5167      5525      5526      5598      5599      6151
 -1      3155    6    0    1
 -2      2734      2713      2725      4274      2832      2787      2833      5862      5707      6038
 -1      3156    6    0    1
 -2      4115      4156      3093      4269      5652      5651      5653      5670      4781      5669
 -1      3157    6    0    1
 -2      2297      2329      4199      4284      2623      5413      5470      5472      5415      5291
 -1      3158    6    0    1
 -2      4116      4221      4275      4293      6152      5234      6110      6153      6150      6154
 -1      3159    6    0    1
 -2      3124      3155      3068      1122      3470      4087      3405      4729      4877      4892
 -1      3160    6    0    1
 -2      2873      3124      3068       255      3279      3405      3404      4667      4767      4826
 -1      3161    6    0    1
 -2      1021       258      4197      4321      1079      5074      6155      6156      4649      5190
 -1      3162    6    0    1
 -2      3089      4112      4184      4335      5327      5458      5456      5490      5350      6157
 -1      3163    6    0    1
 -2      4159      4236      4120      4311      6026      4917      6158      6029      6030      6094
 -1      3164    6    0    1
 -2      1329      4223      4123      4234      6159      6160      6161      6162      6164      6163
 -1      3165    6    0    1
 -2      4120      3041      4195      4254      5239      6138      6137      5426      5427      6165
 -1      3166    6    0    1
 -2      1686      4133      1729      4309      6058      6166      1985      6140      6141      6167
 -1      3167    6    0    1
 -2      1010      1015       237      4127      1049      1045      1047      4756      5149      4757
 -1      3168    6    0    1
 -2      1668      1741       657      4171      1779      5484      6168      6169      5486      5485
 -1      3169    6    0    1
 -2      3010      3011      4092      4224      3515      5388      4500      6170      5676      4963
 -1      3170    6    0    1
 -2      2933      3062      3063      4138      3706      3709      3708      5743      6099      6051
 -1      3171    6    0    1
 -2      4178      4193      4092      4231      4503      4501      4498      6171      6173      6172
 -1      3172    6    0    1
 -2      4104      3039      4195      4337      4605      5294      5256      4815      4813      6139
 -1      3173    6    0    1
 -2      3061      4147      3038      4195      5319      5144      3600      5320      5143      5142
 -1      3174    6    0    1
 -2      3014      4124      4151      4259      5887      6174      6175      5889      5890      4790
 -1      3175    6    0    1
 -2      1351       255      2873      4305      6176      4667      6177      6178      4668      4669
 -1      3176    6    0    1
 -2      3014      4124      3016      4256      5887      4610      3884      6179      4716      4717
 -1      3177    6    0    1
 -2      2993      1127      2992      2994      4576      4796      3952      3956      4878      3957
 -1      3178    6    0    1
 -2      1661      4150      2712      4274      6180      5932      6181      6182      5935      5933
 -1      3179    6    0    1
 -2      1701      4149      1744      4339      6183      5514      2069      6184      5518      5516
 -1      3180    6    0    1
 -2      2876      1291      3116      4140      6185      5452      3303      6186      5453      5454
 -1      3181    6    0    1
 -2      4091      4301      4264      4338      6187      6000      4635      6188      6001      4557
 -1      3182    6    0    1
 -2      3130      4102      2965      4228      4371      6081      3863      4378      4379      5012
 -1      3183    6    0    1
 -2      4182      4188      4104      4233      5226      5046      4609      4652      5353      4742
 -1      3184    6    0    1
 -2      4104      4205      2317      4227      5582      5583      5331      5569      6189      5568
 -1      3185    6    0    1
 -2      3014      4151      4124      4256      6175      6174      5887      6179      5812      4716
 -1      3186    6    0    1
 -2      1758      4105      4299      4333      6190      6191      6192      6193      6195      6194
 -1      3187    6    0    1
 -2      4140      4249      1334      4279      6196      6197      6198      5657      6200      6199
 -1      3188    6    0    1
 -2      1661      2712      2725      4274      6181      2784      6201      6182      5933      6038
 -1      3189    6    0    1
 -2      2904      4161      4097      4222      6056      5756      6020      6202      6134      6203
 -1      3190    6    0    1
 -2      2908      4190      4147      4324      6050      4987      6049      6204      6080      5600
 -1      3191    6    0    1
 -2      3062      3058      4138      4248      3835      4732      6099      6205      4457      4731
 -1      3192    6    0    1
 -2      2305      4124      2302      4251      5407      6206      2670      5408      5409      6207
 -1      3193    6    0    1
 -2      2115      4113      2132      4218      5374      6208      2232      5373      5372      6209
 -1      3194    6    0    1
 -2      1689      4189      4103      4304      6210      6211      4725      5742      6132      5741
 -1      3195    6    0    1
 -2      2303      2346      2363      4225      2672      2675      2674      5491      5018      6212
 -1      3196    6    0    1
 -2      4098      4183      2288      4210      4676      4641      4677      5265      4755      5264
 -1      3197    6    0    1
 -2      4101      4195      2962      4254      5321      5513      5166      5412      6165      5411
 -1      3198    6    0    1
 -2      2304      2302      4124      4206      2668      6206      4600      4598      6213      4599
 -1      3199    6    0    1
 -2      2975      2979      4144      4204      3842      6214      5549      5547      6215      5548
 -1      3200    6    0    1
 -2      1698      4185      1700      4296      5054      5313      2056      6216      6218      6217
 -1      3201    6    0    1
 -2      1731      1661      2725      4274      1863      6201      6219      6220      6182      6038
 -1      3202    6    0    1
 -2      2941      4179      4109      4203      5639      5638      5203      5753      6221      5752
 -1      3203    6    0    1
 -2       600      1668       657      4171      6222      6168       851      6223      6169      5485
 -1      3204    6    0    1
 -2      2909      4190      4096      4243      6079      6078      5996      5972      6224      5995
 -1      3205    6    0    1
 -2      1680      4274      4108      4332      6225      6226      6227      6228      6230      6229
 -1      3206    6    0    1
 -2      1666      4172       604      4271      6231      6070      6232      6233      5810      6072
 -1      3207    6    0    1
 -2      4105      4255      1758      4299      6234      6235      6190      6191      5807      6192
 -1      3208    6    0    1
 -2      4144      4204      2979      4353      5548      6215      6214      6236      6238      6237
 -1      3209    6    0    1
 -2      4102      4149      4129      4228      6239      5208      5976      4379      5274      4624
 -1      3210    6    0    1
 -2      4121      4266      1333      4278      6240      6241      6242      6243      6245      6244
 -1      3211    6    0    1
 -2      2105      2895      2118      4137      6246      5938      2172      6247      5939      5940
 -1      3212    6    0    1
 -2      2726      2737      2736      4150      2859      2829      2855      5781      5835      6248
 -1      3213    6    0    1
 -2       658      4230      4110      4257      6249      5223      4951      4954      5914      4953
 -1      3214    6    0    1
 -2      3010      4092      4193      4224      4500      4501      4502      6170      4963      5401
 -1      3215    6    0    1
 -2      2346      4217      2363      4225      6250      6251      2675      5018      6252      6212
 -1      3216    6    0    1
 -2      2726      4150      2736      4258      5781      6248      2855      5782      5783      6253
 -1      3217    6    0    1
 -2      4108      4323      3149      4355      5365      5363      5360      6254      6256      6255
 -1      3218    6    0    1
 -2      2335      4110      2337      4230      5110      6257      2710      5224      5223      6258
 -1      3219    6    0    1
 -2      2876      1291      4140      4270      6185      5453      6186      6259      6260      5242
 -1      3220    6    0    1
 -2       661      4172      4129      4271      6071      5808      5977      6073      5810      5211
 -1      3221    6    0    1
 -2       613      2872       635      4257      6261      6262       769      5181      6263      5183
 -1      3222    6    0    1
 -2      1329      4266      4123      4273      6264      5622      6161      6265      6267      6266
 -1      3223    6    0    1
 -2       650      4207       653      4352      5920      6268       954      5921      5922      6269
 -1      3224    6    0    1
 -2       263      4281      2887      4351      5954      5952      5244      5009      6270      5245
 -1      3225    6    0    1
 -2      2713      1664      1731      4274      5706      1866      6271      5707      5708      6220
 -1      3226    6    0    1
 -2      4091      4247      4301      4352      4593      6272      6187      6077      6274      6273
 -1      3227    6    0    1
 -2      2322      4191      2265      4249      5480      5646      2494      5481      5482      5649
 -1      3228    6    0    1
 -2      2983      4118      4203      4244      5823      5140      4554      5926      5927      6275
 -1      3229    6    0    1
 -2      2973      4110      4148      4285      5261      4386      5262      6276      6277      5588
 -1      3230    6    0    1
 -2      2713      1731      2725      4274      6271      6219      2787      5707      6220      6038
 -1      3231    6    0    1
 -2      2872      4253       635      4257      6278      5217      6262      6263      5219      5183
 -1      3232    6    0    1
 -2      3017      4253      4114      4256      6279      4998      6061      6062      4718      5000
 -1      3233    6    0    1
 -2      3147      3148      4160      4237      4025      6280      5197      5200      6281      5201
 -1      3234    6    0    1
 -2      2894      3030      4094      4219      3519      6282      5358      5357      6283      4884
 -1      3235    6    0    1
 -2      2106      4141      3037      4340      6284      6285      6286      6287      4997      6288
 -1      3236    6    0    1
 -2      1011      1023      4146      4263      1058      6289      5295      6090      6290      6092
 -1      3237    6    0    1
 -2      3030      3034      2894      4094      3518      3517      3519      6282      5629      5358
 -1      3238    6    0    1
 -2      3010      4193      2893      4224      4502      5538      3514      6170      5401      5539
 -1      3239    6    0    1
 -2      4103      4185      1694      4304      4825      4823      4775      5741      5625      5740
 -1      3240    6    0    1
 -2      3034      4094      3030      4167      5629      6282      3518      5850      5849      6291
 -1      3241    6    0    1
 -2      2985      3106      2983      4264      3931      3930      3928      5799      4785      4552
 -1      3242    6    0    1
 -2      2979      4121      4344      4353      6292      6293      6294      6237      6296      6295
 -1      3243    6    0    1
 -2      1326      4191      4126      4328      5693      4897      4983      4938      6297      4984
 -1      3244    6    0    1
 -2      4148      4288      4125      4308      5591      5306      6298      5789      5790      5892
 -1      3245    6    0    1
 -2      1689      4175      4103      4189      4726      4720      4725      6210      5931      6211
 -1      3246    6    0    1
 -2      2954      4190      2955      4285      4830      6299      3588      5277      5315      6300
 -1      3247    6    0    1
 -2      3108      4119      2968      4323      6301      6004      3871      6302      6304      6303
 -1      3248    6    0    1
 -2      2337      4110      2335      4294      6257      5110      2710      6305      4447      5961
 -1      3249    6    0    1
 -2      4189      4260      4169      4349      6306      6307      6008      6012      6308      6011
 -1      3250    6    0    1
 -2      4113      4145      2313      4235      5023      5022      5024      5375      6310      6309
 -1      3251    6    0    1
 -2      4118      2982      4242      4244      5824      6075      6074      5927      5928      5984
 -1      3252    6    0    1
 -2      3081      4223      4123      4303      6311      6160      6312      6313      6315      6314
 -1      3253    6    0    1
 -2      4094      4171      1705      4187      5660      5659      5661      6316      4421      6317
 -1      3254    6    0    1
 -2       502       494      4316      4359       559      5337      4879      4745      5339      4419
 -1      3255    6    0    1
 -2      4093      4214      2134      4313      5907      6318      5766      5910      6319      5909
 -1      3256    6    0    1
 -2      4148      4285      4211      4288      5588      6320      6321      5591      5280      6322
 -1      3257    6    0    1
 -2      2320      2319      4120      4311      2701      5034      4912      6028      6323      6094
 -1      3258    6    0    1
 -2      4105      4202      1758      4255      6324      6325      6190      6234      6326      6235
 -1      3259    6    0    1
 -2      4104      4188      4182      4227      5046      5226      4609      5569      5231      5229
 -1      3260    6    0    1
 -2      2959      2976      2977      4341      3836      3839      3838      5731      6327      5673
 -1      3261    6    0    1
 -2      1016      4177      4158      4351      6328      4374      6329      6330      6332      6331
 -1      3262    6    0    1
 -2      2949      4109      4174      4244      5202      5722      5721      5831      5832      6055
 -1      3263    6    0    1
 -2        78      1145      2996      4329      1154      6333      4853      4432      6334      4854
 -1      3264    6    0    1
 -2      4130      4228      4177      4298      6335      4380      6336      6337      5078      4976
 -1      3265    6    0    1
 -2      1724      4246      4119      4332      5843      5844      5437      5438      6338      5180
 -1      3266    6    0    1
 -2      2301      4206      4100      4251      5612      5610      5066      5425      6339      5393
 -1      3267    6    0    1
 -2      2269      4236      2321      4249      6340      5281      2514      6341      5285      5283
 -1      3268    6    0    1
 -2      3062      4248      4138      4347      6205      4731      6099      6100      6342      5748
 -1      3269    6    0    1
 -2      4137      4259      2897      4261      6343      5298      6344      6345      5382      4792
 -1      3270    6    0    1
 -2      3118      4257      4110      4285      5605      4953      5604      6346      6347      6277
 -1      3271    6    0    1
 -2      2309      4200      4098      4283      4933      4678      4932      5213      6348      5215
 -1      3272    6    0    1
 -2      4106      4291      3072      4357      6349      6350      6351      6352      6354      6353
 -1      3273    6    0    1
 -2      1134      2999      1121      1133      5558      5038      1249      1250      5039      1217
 -1      3274    6    0    1
 -2      1729      4133      1686      4287      6166      6058      1985      6355      6060      5874
 -1      3275    6    0    1
 -2      2115      2132      4113      4317      2232      6208      5374      5988      6356      5990
 -1      3276    6    0    1
 -2      2942      2944      2943      4320      3752      3751      3744      5124      5125      6357
 -1      3277    6    0    1
 -2      1329      1311      4223      4234      1633      6358      6159      6162      6359      6164
 -1      3278    6    0    1
 -2      2310      4283      2364      4331      6360      6361      2688      6362      6364      6363
 -1      3279    6    0    1
 -2       675      2887       629       263      5951      6365       805      5950      5244      6366
 -1      3280    6    0    1
 -2       654      4230       658      4257      5913      6249       959      5182      5914      4954
 -1      3281    6    0    1
 -2      3066      3067      4290      4305      3399      6367      6368      6369      4980      6370
 -1      3282    6    0    1
 -2      2876      3116      3151      4140      3303      3424      3423      6186      5454      5492
 -1      3283    6    0    1
 -2      2986      4125      4288      4308      5301      5306      5304      5788      5892      5790
 -1      3284    6    0    1
 -2      2986      2988      2987      4238      3375      3939      3893      5303      5460      5677
 -1      3285    6    0    1
 -2      2364      4283      4230      4331      6361      5225      6371      6363      6364      6372
 -1      3286    6    0    1
 -2      4127      4229      1675      4277      5152      6373      6374      6375      6377      6376
 -1      3287    6    0    1
 -2       502      4316       499      4330      4879      6378       556      5030      5031      6379
 -1      3288    6    0    1
 -2      4119      4186      2968      4323      6380      6381      6004      6304      6382      6303
 -1      3289    6    0    1
 -2      2943      2944      4156      4320      3751      5435      6383      6357      5125      5436
 -1      3290    6    0    1
 -2      4131      4194      4184      4222      5985      5609      6384      5987      4806      5867
 -1      3291    6    0    1
 -2      1128      1139      2998      1121      1247      4855      4872      1214      1248      5064
 -1      3292    6    0    1
 -2      2919      2920      4300      4345      3632      5220      6385      6386      4684      5235
 -1      3293    6    0    1
 -2      1011      4197      4139      4321      6387      5773      5296      5297      5190      5060
 -1      3294    6    0    1
 -2      2716      2723      2732      4193      2800      2847      2846      5520      6044      5402
 -1      3295    6    0    1
 -2      1292      1320      2720      4224      1439      6388      6389      6390      6392      6391
 -1      3296    6    0    1
 -2      4118      4264      4133      4301      5139      5848      5847      5682      6000      6393
 -1      3297    6    0    1
 -2      1691      4221      4115      4265      5233      5232      4971      6042      5080      6041
 -1      3298    6    0    1
 -2      4096      2283      4210      4272      5344      5497      5498      5348      5346      6114
 -1      3299    6    0    1
 -2      4151      4183      4131      4251      5299      5749      5986      5300      4703      4714
 -1      3300    6    0    1
 -2      4146      4177      1009      4297      4836      6394      6395      4839      4840      6396
 -1      3301    6    0    1
 -2      2129      4166      2110      4225      6397      6398      2240      6399      6401      6400
 -1      3302    6    0    1
 -2      3121      4123      3081      4234      6402      6312      3387      6403      6163      6404
 -1      3303    6    0    1
 -2      4130      4177      4146      4298      6336      4836      6405      6337      4976      4977
 -1      3304    6    0    1
 -2      3122      2971      4285      4288      3890      6122      5587      5590      6123      5280
 -1      3305    6    0    1
 -2      2110      4166      2328      4225      6398      6406      6407      6400      6401      6408
 -1      3306    6    0    1
 -2      2350      2335      4211      4294      2694      5112      6409      6410      5961      5962
 -1      3307    6    0    1
 -2      2276      4125      2278      4315      6411      6412      2400      6413      4391      6414
 -1      3308    6    0    1
 -2      1329      1276      4266      4273      1567      6415      6264      6265      6416      6267
 -1      3309    6    0    1
 -2       498      4125      4226      4315      5444      6417      6418      6419      4391      6420
 -1      3310    6    0    1
 -2      3117      4242      2982      4244      5983      6075      3429      4974      5984      5928
 -1      3311    6    0    1
 -2      4101      2950      4215      4254      5165      5524      5525      5412      5410      6421
 -1      3312    6    0    1
 -2      3029      3028      3036      4196      3500      3441      4011      6125      4629      5130
 -1      3313    6    0    1
 -2      1738      4275      4221      4293      6422      5234      6423      6424      6154      6150
 -1      3314    6    0    1
 -2      2931      4146      4321      4322      6144      5061      6145      6425      4895      4869
 -1      3315    6    0    1
 -2      4150      4180      4119      4332      6035      5176      6426      6037      5179      5180
 -1      3316    6    0    1
 -2      2267      4173      2116      4235      6427      6428      6429      6430      6432      6431
 -1      3317    6    0    1
 -2      1721      4123      4221      4266      6433      5620      5818      5820      5622      5083
 -1      3318    6    0    1
 -2      3017      3016      4253      4256      3477      4613      6279      6062      4717      4718
 -1      3319    6    0    1
 -2      2304      2302      2305      4124      2668      2670      2669      4600      6206      5407
 -1      3320    6    0    1
 -2      4102      4262      1744      4339      5575      6434      6435      6436      6437      5516
 -1      3321    6    0    1
 -2      1721      4123      1719      4221      6433      6147      1890      5818      5620      6146
 -1      3322    6    0    1
 -2      2944      4107      4302      4314      5123      5760      5758      5267      5266      6438
 -1      3323    6    0    1
 -2      2129      4137      4166      4225      6439      6440      6397      6399      6441      6401
 -1      3324    6    0    1
 -2      2293      4216      4284      4312      6442      6443      6444      6445      6447      6446
 -1      3325    6    0    1
 -2      4123      4223      3081      4234      6160      6311      6312      6163      6164      6404
 -1      3326    6    0    1
 -2      4126      4145      4112      4284      5571      5288      5636      4762      5289      5290
 -1      3327    6    0    1
 -2      4099      4209      2280      4241      5496      5494      5169      5399      6448      5398
 -1      3328    6    0    1
 -2      4113      4218      2313      4286      5372      6449      5024      5026      5901      5025
 -1      3329    6    0    1
 -2       498      4226        47      4315      6418      6450       523      6419      6420      6451
 -1      3330    6    0    1
 -2      2901      4184      2947      4194      5866      6452      3548      4870      5609      6453
 -1      3331    6    0    1
 -2      2897      4137      2896      4259      6344      6454      3459      5298      6343      6455
 -1      3332    6    0    1
 -2      3107      4176      2726      4258      5966      5779      6456      5965      5784      5782
 -1      3333    6    0    1
 -2      4091      4167      3103      4264      4592      5859      4407      4635      6457      4634
 -1      3334    6    0    1
 -2      2893      3009      2723      4193      3350      6458      6043      5538      6459      6044
 -1      3335    6    0    1
 -2      2292      4199      4112      4216      5509      5287      5508      6460      6462      6461
 -1      3336    6    0    1
 -2       661       633      4129      4242       972      4942      5977      6463      5440      5441
 -1      3337    6    0    1
 -2      4211      4285      4117      4288      6320      5276      4395      6322      5280      5279
 -1      3338    6    0    1
 -2       648      4214      4093      4240      5906      5907      5875      6464      6465      5992
 -1      3339    6    0    1
 -2      1667      4132      1316      4282      6466      6467      6468      6469      6471      6470
 -1      3340    6    0    1
 -2      3139      3053      1350      4330      3288      6472      6473      6474      6476      6475
 -1      3341    6    0    1
 -2      1748      1733      4171      4352      2103      4736      4422      6477      6479      6478
 -1      3342    6    0    1
 -2       502       499        71      4330       556       552       554      5030      6379      4563
 -1      3343    6    0    1
 -2      1685      4175      4107      4198      4850      4851      4849      5559      4723      5560
 -1      3344    6    0    1
 -2      4166      4206      2355      4225      5611      6480      6481      6401      5020      6482
 -1      3345    6    0    1
 -2      1758      4202      4105      4333      6325      6324      6190      6193      6483      6195
 -1      3346    6    0    1
 -2      1730      1724      1714      4332      2093      2092      2088      5311      5438      5178
 -1      3347    6    0    1
 -2      1333      4121      4278      4344      6242      6243      6244      6484      6293      6485
 -1      3348    6    0    1
 -2      2975      2979      2960      4144      3842      3841      3783      5549      6214      6486
 -1      3349    6    0    1
 -2      4129      4172       661      4242      5808      6071      5977      5441      6487      6463
 -1      3350    6    0    1
 -2      1692      1726      4247      4356      1965      4908      5185      6488      6490      6489
 -1      3351    6    0    1
 -2      4106      4174      3072      4291      6491      6492      6351      6349      5723      6350
 -1      3352    6    0    1
 -2      2737      4150      4176      4274      5835      5780      5836      5934      5935      6493
 -1      3353    6    0    1
 -2       646      2729      2719      4219      6494      2761      6495      6496      6498      6497
 -1      3354    6    0    1
 -2      3016      4124      2970      4350      4610      5886      3885      5366      5367      6499
 -1      3355    6    0    1
 -2      3062      3058      3063      4138      3835      4067      3709      6099      4732      6051
 -1      3356    6    0    1
 -2       616       661       633      4292       973       972       822      5949      5978      4945
 -1      3357    6    0    1
 -2       654       658       613      4257       959       958       955      5182      4954      5181
 -1      3358    6    0    1
 -2      1329      4234      4123      4266      6162      6163      6161      6264      6500      5622
 -1      3359    6    0    1
 -2      4125      4164       498      4226      5443      5442      5444      6417      6501      6418
 -1      3360    6    0    1
 -2      1719      4123      4273      4293      6147      6266      6502      6148      6149      6503
 -1      3361    6    0    1
 -2      1329      4123      4223      4273      6161      6160      6159      6265      6266      6504
 -1      3362    6    0    1
 -2      1714      4180      4119      4231      5177      5176      5175      5533      6505      5535
 -1      3363    6    0    1
 -2      4094      4212       674      4219      5663      5870      5869      4884      6506      5904
 -1      3364    6    0    1
 -2      1329      1276      1312      4266      1567      1423      1568      6264      6415      6507
 -1      3365    6    0    1
 -2      4098      4256      2951      4346      5813      5811      4928      4930      6508      4929
 -1      3366    6    0    1
 -2      4110      4230       658      4294      5223      6249      4951      4447      6509      5686
 -1      3367    6    0    1
 -2      2312      2114      2277      4235      6510      5833      2457      6511      5834      5506
 -1      3368    6    0    1
 -2      1349      4201      4092      4224      5883      5884      5881      5897      6512      4963
 -1      3369    6    0    1
 -2      2121      1321      1293      4232      6513      1528      6514      6515      6517      6516
 -1      3370    6    0    1
 -2      2738      4212      4094      4219      5772      5663      5716      5717      6506      4884
 -1      3371    6    0    1
 -2      2921      2918      2920      4359      3633      3631      3634      4495      6098      4631
 -1      3372    6    0    1
 -2      2914      2916      2917      4155      3611      3614      3613      4520      6120      4365
 -1      3373    6    0    1
 -2      1334      1289      4140      4279      1637      5567      6198      6199      5656      5657
 -1      3374    6    0    1
 -2      1744      4262      4102      4271      6434      5575      6435      5515      6519      6518
 -1      3375    6    0    1
 -2      2976      4250      2977      4341      6520      5161      3839      6327      5675      5673
 -1      3376    6    0    1
 -2      1291      1335      4140      4270      1648      6521      5453      6260      6522      5242
 -1      3377    6    0    1
 -2      2134      4214      4093      4217      6318      5907      5766      5768      6523      5770
 -1      3378    6    0    1
 -2       673      4093      4214      4217      5876      5907      5905      5877      5770      6523
 -1      3379    6    0    1
 -2      2324      4191      4122      4284      5903      5479      5902      6524      4899      6525
 -1      3380    6    0    1
 -2      1744      1701      1702      4149      2069      2064      2070      5514      6183      5207
 -1      3381    6    0    1
 -2      4205      4310      2326      4336      5860      6526      6527      6528      6530      6529
 -1      3382    6    0    1
 -2      2317      4227      4205      4311      5568      6189      5583      6531      6533      6532
 -1      3383    6    0    1
 -2      2878      2106      3037      4340      6534      6286      3334      6535      6287      6288
 -1      3384    6    0    1
 -2      3149      4176      2981      4323      5362      6536      3440      5363      5364      6537
 -1      3385    6    0    1
 -2      1681      1692      4220      4356      1963      5186      5322      6538      6488      6539
 -1      3386    6    0    1
 -2      4121      4234      1333      4266      6540      6541      6242      6240      6500      6241
 -1      3387    6    0    1
 -2      4121      4265      4204      4266      6542      5079      6543      6240      5084      5082
 -1      3388    6    0    1
 -2      1330      4249      4122      4279      5801      5483      5915      6544      6200      6545
 -1      3389    6    0    1
 -2      4093      4206      4124      4350      4685      4599      4818      6143      6546      5367
 -1      3390    6    0    1
 -2      3141      2968      3108      4119      3878      3871      3465      5615      6004      6301
 -1      3391    6    0    1
 -2      4113      4218      1348      4232      5372      5898      5899      5955      6548      6547
 -1      3392    6    0    1
 -2      1285      4232      3111      4327      5632      6549      6550      5634      5635      6551
 -1      3393    6    0    1
 -2       504       500      4182      4188       539      5228      5916      5918      5227      5226
 -1      3394    6    0    1
 -2      1019      4146      4130      4177      6552      6405      6086      6553      4836      6336
 -1      3395    6    0    1
 -2      2307      4211      4125      4267      4787      4388      4786      6554      6556      6555
 -1      3396    6    0    1
 -2      2973      3118      4110      4285      3896      5604      5261      6276      6346      6277
 -1      3397    6    0    1
 -2      1749      4247      1733      4352      6557      4737      2083      6558      6274      6479
 -1      3398    6    0    1
 -2       496        77        78      2990       572        87       573      5062      4620      4548
 -1      3399    6    0    1
 -2      1722      4265      4121      4266      6559      6542      6560      6561      5084      6240
 -1      3400    6    0    1
 -2      4098      4222      4161      4346      4927      6134      6562      4930      4931      6136
 -1      3401    6    0    1
 -2      4136      4190      4099      4325      4829      4994      6034      6563      5994      5424
 -1      3402    6    0    1
 -2      1708      4245      1703      4301      5586      6128      2075      5814      5681      6127
 -1      3403    6    0    1
 -2      4131      4151      4100      4194      5986      4568      5392      5985      4674      4675
 -1      3404    6    0    1
 -2      1705      1741      1668      4171      1917      1779      1918      5659      5486      6169
 -1      3405    6    0    1
 -2      4187      4247      1726      4356      4425      4908      4907      6564      6489      6490
 -1      3406    6    0    1
 -2       255      1303      3124      1148      6565      6566      4767      1160      6567      4728
 -1      3407    6    0    1
 -2      2720      1320      2730      4224      6388      6568      2768      6391      6392      6569
 -1      3408    6    0    1
 -2      2966      4228      3013      4298      4874      6570      3861      5680      5078      6093
 -1      3409    6    0    1
 -2      2878      2119      2106      4340      6571      2178      6534      6535      6572      6287
 -1      3410    6    0    1
 -2      1721      1719      4123      4266      1890      6147      6433      5820      6573      5622
 -1      3411    6    0    1
 -2      1680      1704      4274      4332      1960      6574      6225      6228      6575      6230
 -1      3412    6    0    1
 -2       614       655       634      4338       963       962       828      6576      6578      6577
 -1      3413    6    0    1
 -2      4121      2979      4204      4353      6292      6215      6543      6296      6237      6238
 -1      3414    6    0    1
 -2      4104      4195      4147      4205      5256      5143      5448      5582      6580      6579
 -1      3415    6    0    1
 -2      3035      4181      4114      4257      5734      5733      5732      6581      6582      5396
 -1      3416    6    0    1
 -2      4112      4284      4216      4312      5290      6443      6461      6583      6446      6447
 -1      3417    6    0    1
 -2      4102      4177      4130      4228      4373      6336      6584      4379      4380      6335
 -1      3418    6    0    1
 -2      1139      2994      2997      2998      4948      3961      4452      4855      3964      3963
 -1      3419    6    0    1
 -2      3056      4123      4204      4303      6585      5621      6586      6587      6314      6588
 -1      3420    6    0    1
 -2      2938      4169      4103      4260      6589      6590      5944      5942      6307      5943
 -1      3421    6    0    1
 -2      2979      2960      4144      4353      3841      6486      6214      6237      6591      6236
 -1      3422    6    0    1
 -2      2987      4238      4136      4288      5677      6592      6593      5678      5305      4832
 -1      3423    6    0    1
 -2      4115      4221      4204      4265      5232      5081      5791      6041      5080      5079
 -1      3424    6    0    1
 -2      3151      2876      4140      4270      3423      6186      5492      5493      6259      5242
 -1      3425    6    0    1
 -2      4124      4153      4114      4200      4922      5340      4999      5406      5273      6594
 -1      3426    6    0    1
 -2      3056      3081      4123      4303      4064      6312      6585      6587      6313      6314
 -1      3427    6    0    1
 -2      2307      4125      2276      4267      4786      6411      2549      6554      6555      6595
 -1      3428    6    0    1
 -2      1284      1307      3011      4268      1446      6596      6025      5088      5696      5390
 -1      3429    6    0    1
 -2      3147      3032      3148      4237      4022      4023      4025      5200      5116      6281
 -1      3430    6    0    1
 -2      1680      4220      4108      4274      6597      6598      6227      6225      6599      6226
 -1      3431    6    0    1
 -2      1748      1705      4171      4187      1919      5659      4422      4420      6317      4421
 -1      3432    6    0    1
 -2      2315      4117      2279      4211      4596      5710      2558      4856      4395      4636
 -1      3433    6    0    1
 -2      1149        70      3053      4348      1150      4918      6600      6601      4399      4919
 -1      3434    6    0    1
 -2      4147      4205      4195      4310      6579      6580      5143      5449      5860      6602
 -1      3435    6    0    1
 -2      3064      3063      3058      4290      4068      4067      4069      4696      6052      4460
 -1      3436    6    0    1
 -2      1708      1745      1703      4245      2077      2073      2075      5586      5465      6128
 -1      3437    6    0    1
 -2      4103      4169      2938      4291      6590      6589      5944      6603      6605      6604
 -1      3438    6    0    1
 -2      4108      4220      1680      4332      6598      6597      6227      6229      5729      6228
 -1      3439    6    0    1
 -2      2276      4226      4125      4315      6606      6417      6411      6413      6420      4391
 -1      3440    6    0    1
 -2       655      4207       634      4338      6607      6608       962      6578      6609      6577
 -1      3441    6    0    1
 -2      4104      4205      4147      4310      5582      6579      5448      5050      5860      5449
 -1      3442    6    0    1
 -2      4119      4193      4178      4231      5617      4503      5614      5535      6173      6171
 -1      3443    6    0    1
 -2      4125      4226      2276      4267      6417      6606      6411      6555      6610      6595
 -1      3444    6    0    1
 -2      2873      1351      1303       255      6177      1478      6611      4667      6176      6565
 -1      3445    6    0    1
 -2      1351      1297       255      4305      1475      6612      6176      6178      6613      4668
 -1      3446    6    0    1
 -2      2336      4183      2308      4251      5750      4640      2602      5317      4703      4704
 -1      3447    6    0    1
 -2      4114      4200      4153      4331      6594      5273      5340      6614      6102      6103
 -1      3448    6    0    1
 -2      2286      2289      4216      4334      2589      6615      5815      5419      6616      5817
 -1      3449    6    0    1
 -2      2331      4210      4143      4283      5263      6113      6617      5214      5523      5129
 -1      3450    6    0    1
 -2       636       613       658      4257       772       958       957      4952      5181      4954
 -1      3451    6    0    1
 -2      3150      3103      2985      4264      3455      3935      3938      4633      4634      5799
 -1      3452    6    0    1
 -2      4092      4132      4178      4231      5980      5979      4498      6172      6618      6171
 -1      3453    6    0    1
 -2      1330      1314      1277      4191      1572      1544      1573      5800      5647      6048
 -1      3454    6    0    1
 -2      1749      4301      4247      4352      6619      6272      6557      6558      6273      6274
 -1      3455    6    0    1
 -2       659       661      4172      4242       911      6071      6620      6621      6463      6487
 -1      3456    6    0    1
 -2      2996      3140        78      2990      3203      4547      4853      3950      3476      4548
 -1      3457    6    0    1
 -2      1690      4115      4189      4265      4924      5929      5930      6040      6041      6622
 -1      3458    6    0    1
 -2      4100      4259      4137      4261      4789      6343      6623      4794      5382      6345
 -1      3459    6    0    1
 -2      3094      2920      2919      4345      3636      3632      3637      4535      4684      6386
 -1      3460    6    0    1
 -2      1328      4191      1326      4328      6624      5693      1629      6625      6297      4938
 -1      3461    6    0    1
 -2      2896      4137      2897      4261      6454      6344      3459      6626      6345      4792
 -1      3462    6    0    1
 -2      1316      4132      1325      4282      6467      6627      1558      6470      6471      6628
 -1      3463    6    0    1
 -2      3149      4237      4108      4355      5837      5838      5360      6255      6629      6254
 -1      3464    6    0    1
 -2      1722      4266      4121      4278      6561      6240      6560      6630      6245      6243
 -1      3465    6    0    1
 -2      2132      4232      4113      4317      6631      5955      6208      6356      6632      5990
 -1      3466    6    0    1
 -2      3078      3128      2999      1133      3488      3974      3372      4572      4772      5039
 -1      3467    6    0    1
 -2      4114      4253       654      4331      4998      5218      5395      6614      6634      6633
 -1      3468    6    0    1
 -2      2326      4157      4205      4336      6635      5628      6527      6529      6636      6528
 -1      3469    6    0    1
 -2      4134      4182      3044      4316      4959      5086      5085      6637      4417      6638
 -1      3470    6    0    1
 -2      2126      4217      4093      4225      5769      5770      5767      6639      6252      5019
 -1      3471    6    0    1
 -2      2307      2278      4125      4315      2548      6412      4786      4788      6414      4391
 -1      3472    6    0    1
 -2      4111      4184      4131      4194      5608      6384      6640      4862      5609      5985
 -1      3473    6    0    1
 -2      2319      4205      4120      4311      5626      5627      5034      6323      6532      6094
 -1      3474    6    0    1
 -2      1702      4172      1666      4271      5809      6231      1907      5210      5810      6233
 -1      3475    6    0    1
 -2      3059      4204      2975      4269      6641      5547      3905      6642      5880      5668
 -1      3476    6    0    1
 -2      3081      3121      3056      4123      3387      4063      4064      6312      6402      6585
 -1      3477    6    0    1
 -2      4106      4130      4263      4298      6643      5092      5193      6644      6337      6645
 -1      3478    6    0    1
 -2      4106      4263      4130      4296      5193      5092      6643      5333      5095      5096
 -1      3479    6    0    1
 -2      2346      4093      4217      4225      4687      5770      6250      5018      5019      6252
 -1      3480    6    0    1
 -2      2981      4176      3107      4323      6536      5966      3437      6537      5364      5967
 -1      3481    6    0    1
 -2       614      4242       655      4338      6646      6647       963      6576      6076      6578
 -1      3482    6    0    1
 -2      4107      4179      2942      4302      6105      6104      5122      5760      6648      5759
 -1      3483    6    0    1
 -2      3085      3027      3008      4194      3989      3433      3540      5249      4861      5174
 -1      3484    6    0    1
 -2      3030      3110      4196      4219      3503      5417      6649      6283      5418      5101
 -1      3485    6    0    1
 -2      1681      1679      1692      4356      1962      1964      1963      6538      6650      6488
 -1      3486    6    0    1
 -2      4122      4191      1330      4279      5479      5800      5915      6545      6651      6544
 -1      3487    6    0    1
 -2      2284      4241      4163      4310      5379      5739      5738      6652      5469      6653
 -1      3488    6    0    1
 -2      1311      3081      4223      4234      6654      6311      6358      6359      6404      6164
 -1      3489    6    0    1
 -2      2296      2291      4131      4199      2617      6655      4746      5671      6656      5672
 -1      3490    6    0    1
 -2      2732      2740      4224      4342      2851      6657      5400      5403      6658      5405
 -1      3491    6    0    1
 -2      4231      4246      1723      4293      5845      6108      6659      6660      6662      6661
 -1      3492    6    0    1
 -2      4139      4146      2932      4357      5057      5056      5058      6663      6665      6664
 -1      3493    6    0    1
 -2      3030      4196      4094      4219      6649      5097      6282      6283      5101      4884
 -1      3494    6    0    1
 -2      2957      4203      4109      4244      5751      5752      5387      5830      6275      5832
 -1      3495    6    0    1
 -2      2363      4217      2342      4225      6251      6666      2537      6212      6252      6667
 -1      3496    6    0    1
 -2      2900      2901      2899      4194      3537      3536      3531      4802      4870      4673
 -1      3497    6    0    1
 -2      2899      3008      2897      4194      3530      3529      3527      4673      5174      4751
 -1      3498    6    0    1
 -2      4106      4185      1697      4296      5554      5553      5158      5333      6218      5332
 -1      3499    6    0    1
 -2      4119      4178      2968      4186      5614      6005      6004      6380      5593      6381
 -1      3500    6    0    1
 -2      2337      4230      4110      4294      6258      5223      6257      6305      6509      4447
 -1      3501    6    0    1
 -2       502        71        72      3048       554        81       555      4743      4656      4376
 -1      3502    6    0    1
 -2      3088      1306      2891      4327      6006      6668      3315      5852      5070      6669
 -1      3503    6    0    1
 -2      4122      2324      4284      4312      5902      6524      6525      6670      6671      6446
 -1      3504    6    0    1
 -2      3012      3010      3011      4268      3991      3515      3992      6672      5389      5390
 -1      3505    6    0    1
 -2      3054      4182      2917      4359      4418      4363      3629      4360      4368      4366
 -1      3506    6    0    1
 -2      3135       614       634      4338      6673       828      6674      6675      6576      6577
 -1      3507    6    0    1
 -2      2999      3000      2998      1121      3970      3969      3965      5038      4768      5064
 -1      3508    6    0    1
 -2      1330      1334      4249      4279      1639      6197      5801      6544      6199      6200
 -1      3509    6    0    1
 -2      4117      4125      4211      4288      4394      4388      4395      5279      5306      6322
 -1      3510    6    0    1
 -2      2302      4124      4206      4251      6206      4599      6213      6207      5409      6339
 -1      3511    6    0    1
 -2      3056      4123      3121      4204      6585      6402      4063      6586      5621      6676
 -1      3512    6    0    1
 -2      3072      4298      4106      4357      6677      6644      6351      6353      6678      6352
 -1      3513    6    0    1
 -2      4116      1723      4246      4293      6109      6108      6107      6153      6661      6662
 -1      3514    6    0    1
 -2      1015      4127      1010      4290      5149      4756      1049      5712      4461      5692
 -1      3515    6    0    1
 -2      2306      2332      4188      4241      2483      5047      5335      5397      5468      5467
 -1      3516    6    0    1
 -2      3134       631      2894      4239      6679      5991      3242      6680      5243      5359
 -1      3517    6    0    1
 -2      4130      4177      4102      4295      6336      4373      6584      6681      6683      6682
 -1      3518    6    0    1
 -2      1333      4234      4121      4344      6541      6540      6242      6484      6684      6293
 -1      3519    6    0    1
 -2      3108      4258      4119      4323      6685      6686      6301      6302      5968      6304
 -1      3520    6    0    1
 -2      3035      3015      3017      4256      3998      3997      3392      5735      6687      6062
 -1      3521    6    0    1
 -2      4147      4163      4096      4310      6688      5737      6689      5449      6653      6690
 -1      3522    6    0    1
 -2      4121      4234      4204      4344      6540      6691      6543      6293      6684      6692
 -1      3523    6    0    1
 -2      3132       635      2872      4253      6693      6262      3182      6694      5217      6278
 -1      3524    6    0    1
 -2      3033      3032      4095      4167      4019      5115      6695      6696      5114      4903
 -1      3525    6    0    1
 -2      4170      4207       655      4338      6697      6607      6698      6699      6609      6578
 -1      3526    6    0    1
 -2      3119      4127      4248      4319      4821      4458      4822      5117      5014      6700
 -1      3527    6    0    1
 -2      4130      4146      1019      4263      6405      6552      6086      5092      6092      6088
 -1      3528    6    0    1
 -2      3003      3000      3004      4351      3976      3978      3977      4911      4909      6701
 -1      3529    6    0    1
 -2      2978      4140      3104      4279      6702      5566      3918      6703      5657      5658
 -1      3530    6    0    1
 -2      4094      4212      2728      4276      5663      5771      5099      6032      6704      6031
 -1      3531    6    0    1
 -2      1750      4304      4202      4333      6705      5624      6706      6707      6708      6483
 -1      3532    6    0    1
 -2      3072      4174      4106      4298      6492      6491      6351      6677      6709      6644
 -1      3533    6    0    1
 -2      3078      2999      2868      4329      3372      3373      3209      4574      5563      5309
 -1      3534    6    0    1
 -2       650      4171      4239      4352      6710      5969      5919      5921      6478      5923
 -1      3535    6    0    1
 -2      4109      4198      1706      4309      5324      5325      5051      6068      6142      6069
 -1      3536    6    0    1
 -2      4157      4236      4140      4249      4916      6711      6712      5284      5285      6196
 -1      3537    6    0    1
 -2      1328      1317      1326      4191      1575      1562      1629      6624      5694      5693
 -1      3538    6    0    1
 -2      4095      4133      4160      4264      6713      6714      5198      5474      5848      5476
 -1      3539    6    0    1
 -2      2278      2276      2307      4125      2400      2549      2548      6412      6411      4786
 -1      3540    6    0    1
 -2      1744      4271      4102      4339      5515      6518      6435      5516      5517      6436
 -1      3541    6    0    1
 -2      1291      1335      1310      4140      1648      1647      1506      5453      6521      5455
 -1      3542    6    0    1
 -2      2301      2355      4166      4206      2664      6481      5067      5612      6480      5611
 -1      3543    6    0    1
 -2       649       600       657      4171       890       851       891      5911      6223      5485
 -1      3544    6    0    1
 -2      1306      1285      2891      4327      1521      6715      6668      5070      5634      6669
 -1      3545    6    0    1
 -2      4146      4263      4130      4298      6092      5092      6405      4977      6645      6337
 -1      3546    6    0    1
 -2      4205      4227      4104      4311      6189      5569      5582      6532      6533      6716
 -1      3547    6    0    1
 -2      1316      4132      1667      4273      6467      6466      6468      6717      6719      6718
 -1      3548    6    0    1
 -2      4101      4310      4205      4336      6720      5860      6721      6722      6530      6528
 -1      3549    6    0    1
 -2      3024      3097      3131      4327      4009      4010      4006      4475      4709      6723
 -1      3550    6    0    1
 -2      4121      4204      4144      4353      6543      5548      6724      6296      6238      6236
 -1      3551    6    0    1
 -2      3017      3035      4114      4257      3392      5732      6061      6725      6581      5396
 -1      3552    6    0    1
 -2      2355      2328      4166      4225      2536      6406      6481      6482      6408      6401
 -1      3553    6    0    1
 -2      4178      4246      4231      4293      6726      5845      6171      6727      6662      6660
 -1      3554    6    0    1
 -2      2734      4176      4128      4274      5342      4490      5341      5862      6493      5709
 -1      3555    6    0    1
 -2      2933      4138      3063      4197      5743      6051      3708      5745      5744      6728
 -1      3556    6    0    1
 -2      1708      4172      4118      4301      6119      5461      5585      5814      6729      5682
 -1      3557    6    0    1
 -2      2886      3016      4240      4253      3479      4612      6730      6731      4613      4614
 -1      3558    6    0    1
 -2      4160      4264      4133      4302      5476      5848      6714      5857      5858      6732
 -1      3559    6    0    1
 -2      4102      4271      4262      4292      6518      6519      5575      4657      6733      5786
 -1      3560    6    0    1
 -2      2294      2283      4143      4210      2566      6024      4529      6734      5497      6113
 -1      3561    6    0    1
 -2      4195      4311      4104      4337      6735      6716      5256      6139      6736      4815
 -1      3562    6    0    1
 -2      4169      4189      4103      4260      6008      6211      6590      6307      6306      5943
 -1      3563    6    0    1
 -2      1758      1750      4202      4333      2048      6706      6325      6193      6707      6483
 -1      3564    6    0    1
 -2      3060      2910      4190      4325      3594      4988      6737      6738      5423      5994
 -1      3565    6    0    1
 -2      2970      4124      4259      4350      5886      5890      5888      6499      5367      6739
 -1      3566    6    0    1
 -2      2320      4159      2318      4311      6027      6740      2541      6028      6029      6741
 -1      3567    6    0    1
 -2      4171      4091      4239      4352      4590      5356      5969      6478      6077      5923
 -1      3568    6    0    1
 -2      2327      2326      4205      4310      2610      6527      6742      6743      6526      5860
 -1      3569    6    0    1
 -2      2965      4228      4102      4292      5012      4379      6081      5171      5172      4657
 -1      3570    6    0    1
 -2      1335      4236      4140      4270      6744      6711      6521      6522      6745      5242
 -1      3571    6    0    1
 -2      2279      4209      4117      4272      4637      4393      5710      6746      6747      4532
 -1      3572    6    0    1
 -2      2908      2909      4190      4324      3576      6079      6050      6204      5974      6080
 -1      3573    6    0    1
 -2       654      4230      4114      4331      5913      5912      5395      6633      6372      6614
 -1      3574    6    0    1
 -2      4195      4205      4104      4311      6580      5582      5256      6735      6532      6716
 -1      3575    6    0    1
 -2      4093      4217       648      4289      5770      5878      5875      4688      6749      6748
 -1      3576    6    0    1
 -2      1719      4123      4266      4273      6147      5622      6573      6502      6266      6267
 -1      3577    6    0    1
 -2      4209      4288      4136      4315      5394      4832      5864      4390      5522      6750
 -1      3578    6    0    1
 -2      2935      2932      4146      4357      3704      5056      6751      6752      6664      6665
 -1      3579    6    0    1
 -2      2324      2265      2322      4191      2492      2494      2493      5903      5646      5480
 -1      3580    6    0    1
 -2      4092      4201      1323      4282      5884      5882      4964      6084      6753      6083
 -1      3581    6    0    1
 -2      4113      4145      4126      4286      5023      5571      6754      5026      5027      4766
 -1      3582    6    0    1
 -2      1686      1729      1707      4309      1985      2000      1997      6140      6167      6755
 -1      3583    6    0    1
 -2      3059      2975      3093      4269      3905      3906      3825      6642      5668      5669
 -1      3584    6    0    1
 -2      1732      1680      4220      4332      1968      6597      5724      5727      6228      5729
 -1      3585    6    0    1
 -2      2947      3025      3085      4208      3777      3776      3550      6756      5603      5252
 -1      3586    6    0    1
 -2      2983      4203      4118      4338      4554      5140      5823      4555      4556      5141
 -1      3587    6    0    1
 -2      2940      4291      4179      4320      6757      5640      6758      6759      6760      6106
 -1      3588    6    0    1
 -2      4111      4152      4145      4252      4663      6761      6762      6763      5644      5572
 -1      3589    6    0    1
 -2      2132      4218      4113      4232      6209      5372      6208      6631      6548      5955
 -1      3590    6    0    1
 -2       609      4214       648      4240      6764      5906       934      6765      6465      6464
 -1      3591    6    0    1
 -2      4147      4195      4101      4310      5143      5321      5318      5449      6602      6720
 -1      3592    6    0    1
 -2      4170       655      4242      4338      6698      6647      6766      6699      6578      6076
 -1      3593    6    0    1
 -2      2901      2947      3085      4194      3548      3550      3539      4870      6453      5249
 -1      3594    6    0    1
 -2      2292      2297      2329      4199      2621      2623      2620      5509      5470      5413
 -1      3595    6    0    1
 -2       263      3078       629      1147      5371      6767      6366      1158      5042      6768
 -1      3596    6    0    1
 -2      4203      4264      3106      4302      4553      4785      4784      6769      5858      6770
 -1      3597    6    0    1
 -2      4120      4311      4195      4337      6094      6735      6137      6016      6736      6139
 -1      3598    6    0    1
 -2      1666       604       638      4271      6232       866      6771      6233      6072      6772
 -1      3599    6    0    1
 -2      2712      1713      2724      4150      6773      6774      2781      5932      6776      6775
 -1      3600    6    0    1
 -2      1729      4133      1707      4309      6166      6777      2000      6167      6141      6755
 -1      3601    6    0    1
 -2      1675      4127      1711      4299      6374      6778      1949      6779      4760      6780
 -1      3602    6    0    1
 -2      1743      4121      1722      4265      6781      6560      2102      6782      6542      6559
 -1      3603    6    0    1
 -2      4204      4234      3152      4344      6691      6783      6784      6692      6684      6785
 -1      3604    6    0    1
 -2      1713      2712      1661      4150      6773      6181      1860      6776      5932      6180
 -1      3605    6    0    1
 -2      1740      1744      4262      4339      1943      6434      6786      6787      5516      6437
 -1      3606    6    0    1
 -2       646       674       618      4219       942       978       844      6496      5904      6788
 -1      3607    6    0    1
 -2      2910      2911      2908      4147      3584      3583      3581      4989      6117      6049
 -1      3608    6    0    1
 -2      1692      4247      1729      4287      5185      6789      1975      5188      5189      6355
 -1      3609    6    0    1
 -2      3030      4167      4094      4196      6291      5849      6282      6649      4902      5097
 -1      3610    6    0    1
 -2      3061      2911      3038      4147      3585      3598      3600      5319      6117      5144
 -1      3611    6    0    1
 -2      2944      4302      4160      4314      5758      5857      6790      5267      6438      6791
 -1      3612    6    0    1
 -2      4120      4205      4195      4311      5627      6580      6137      6094      6532      6735
 -1      3613    6    0    1
 -2      4124      4200      4114      4256      5406      6594      4999      4716      6792      5000
 -1      3614    6    0    1
 -2      1321      2121      2112      4232      6513      2162      6793      6517      6515      6794
 -1      3615    6    0    1
 -2      2346      2342      2363      4217      2546      2537      2675      6250      6666      6251
 -1      3616    6    0    1
 -2      1722      4121      1743      4278      6560      6781      2102      6630      6243      6795
 -1      3617    6    0    1
 -2      1721      4221      1727      4265      5818      6796      2025      5819      5080      6797
 -1      3618    6    0    1
 -2      1276      1663      1312      4266      6798      6799      1423      6415      6800      6507
 -1      3619    6    0    1
 -2      4142      4215      2950      4254      6801      5524      6802      6803      6421      5410
 -1      3620    6    0    1
 -2      2936      3072      4291      4357      3716      6350      6804      6805      6353      6354
 -1      3621    6    0    1
 -2      3006      4281      4158      4351      6806      6807      6808      6809      6270      6331
 -1      3622    6    0    1
 -2      1716      1723      4231      4246      2097      6659      6810      6811      6108      5845
 -1      3623    6    0    1
 -2      1758      4202      1750      4304      6325      6706      2048      6812      5624      6705
 -1      3624    6    0    1
 -2      2905      2904      4215      4335      3557      6019      6813      6814      6022      6023
 -1      3625    6    0    1
 -2      2123      2113      2134      4217      2155      2254      2248      6815      6816      5768
 -1      3626    6    0    1
 -2      2311      4143      2335      4283      6817      5109      2631      6818      5129      5127
 -1      3627    6    0    1
 -2      1010      1018      4138      4299      1052      5804      5691      4758      5805      5806
 -1      3628    6    0    1
 -2      4142      4250      4112      4312      5160      5349      5637      6819      6820      6583
 -1      3629    6    0    1
 -2      2935      2932      3099      4146      3704      3696      3705      6751      5056      5089
 -1      3630    6    0    1
 -2      4198      4203      4179      4302      6821      6221      6822      6823      6769      6648
 -1      3631    6    0    1
 -2      3042      3041      4195      4337      3854      6138      6824      6825      6124      6139
 -1      3632    6    0    1
 -2        78       628       676      2996      6826       792      5698      4853      6827      5700
 -1      3633    6    0    1
 -2       655      4172      4170      4242      6828      6829      6698      6647      6487      6766
 -1      3634    6    0    1
 -2      4100      4151      4131      4251      4568      5986      5392      5393      5300      4714
 -1      3635    6    0    1
 -2      1685      1734      4175      4198      1991      4721      4850      5559      4722      4723
 -1      3636    6    0    1
 -2      4147      4096      4241      4310      6689      5378      5507      5449      6690      5469
 -1      3637    6    0    1
 -2      2105      2895      4137      4313      6246      5939      6247      6830      6832      6831
 -1      3638    6    0    1
 -2      4124      4240      4153      4289      4611      4921      4922      4602      5993      5148
 -1      3639    6    0    1
 -2      4215      4216      4097      4336      6833      5816      6018      6834      6836      6835
 -1      3640    6    0    1
 -2      1715      4201      4092      4282      6837      5884      6838      6839      6753      6084
 -1      3641    6    0    1
 -2      4163      4215      4097      4336      6840      6018      4706      6841      6834      6835
 -1      3642    6    0    1
 -2      4250      4284      4112      4312      6842      5290      5349      6820      6446      6583
 -1      3643    6    0    1
 -2      2913      2914      3073      4233      3601      3607      3606      4741      4651      5119
 -1      3644    6    0    1
 -2      4129      4149      4102      4271      5208      6239      5976      5211      5212      6518
 -1      3645    6    0    1
 -2      1007      4162      1343      4229      6843      6844      6845      6846      6848      6847
 -1      3646    6    0    1
 -2      4203      4302      4198      4309      6769      6823      6821      6849      6850      6142
 -1      3647    6    0    1
 -2      2322      2324      4122      4312      2493      5902      5478      6851      6671      6670
 -1      3648    6    0    1
 -2      2344      2313      4218      4286      2525      6449      6852      6853      5025      5901
 -1      3649    6    0    1
 -2      3117      4129      2877      4242      4973      4943      3428      5983      5441      5439
 -1      3650    6    0    1
 -2      1010       238      1018      4299      1048      1050      1052      4758      6096      5805
 -1      3651    6    0    1
 -2      4103      4179      4175      4198      6854      6855      4720      4724      6822      4723
 -1      3652    6    0    1
 -2      2313      2345      2354      4145      2527      2646      2692      5022      5868      6856
 -1      3653    6    0    1
 -2      2891      1285      3111      4327      6715      6550      3318      6669      5634      6551
 -1      3654    6    0    1
 -2      4111      4145      4208      4252      6762      5570      5251      6763      5572      4646
 -1      3655    6    0    1
 -2      1013      1011      4146      4321      1114      5295      6857      6858      5297      5061
 -1      3656    6    0    1
 -2      3057      3119      4248      4319      4066      4822      6859      6860      5117      6700
 -1      3657    6    0    1
 -2      1292      1349      1320      4224      1650      1612      1439      6390      5897      6392
 -1      3658    6    0    1
 -2      2979      4344      2980      4353      6294      6861      3844      6237      6295      6862
 -1      3659    6    0    1
 -2      2733      2713      4128      4276      2831      5704      5527      6863      5827      5828
 -1      3660    6    0    1
 -2      4105      4144      4189      4349      6864      6865      6007      6010      6866      6012
 -1      3661    6    0    1
 -2      1120      1127      1134      4329      1185      1242      1241      4433      5113      5135
 -1      3662    6    0    1
 -2      4143      4211      4110      4285      4857      5111      5108      6867      6320      6277
 -1      3663    6    0    1
 -2      4117      4211      4143      4285      4395      4857      4528      5276      6320      6867
 -1      3664    6    0    1
 -2      4131      4184      4111      4199      6384      5608      6640      5672      6868      5540
 -1      3665    6    0    1
 -2      2131      4141      4166      4261      6869      6870      6871      6872      4793      6873
 -1      3666    6    0    1
 -2      4122      4284      4250      4312      6525      6842      6874      6670      6446      6820
 -1      3667    6    0    1
 -2      3083      4192      4136      4238      6875      6876      6877      6878      6879      6592
 -1      3668    6    0    1
 -2       603       658      4230      4294       905      6249      6880      6881      5686      6509
 -1      3669    6    0    1
 -2      2118      4137      2882      4261      5940      5941      5937      6882      6345      6883
 -1      3670    6    0    1
 -2      2971      2954      2955      4285      3811      3588      3812      6122      5277      6300
 -1      3671    6    0    1
 -2      2131      4141      2130      4166      6869      6884      2223      6871      6870      6885
 -1      3672    6    0    1
 -2       659      4172       655      4242      6620      6828       964      6621      6487      6647
 -1      3673    6    0    1
 -2      4103      4189      4169      4304      6211      6008      6590      5741      6132      6130
 -1      3674    6    0    1
 -2      2951      2902      4151      4222      3543      6886      4985      4926      5947      4805
 -1      3675    6    0    1
 -2      4120      4205      4157      4254      5627      5628      4913      5426      6888      6887
 -1      3676    6    0    1
 -2      1015      4127      4162      4229      5149      5132      5711      5151      5152      6848
 -1      3677    6    0    1
 -2      1723      1716      4231      4293      2097      6810      6659      6661      6889      6660
 -1      3678    6    0    1
 -2      1293      1321      1348      4232      1528      1617      1653      6516      6517      6547
 -1      3679    6    0    1
 -2       664       626      4262      4292       919      5576      6890      6891      5785      5786
 -1      3680    6    0    1
 -2      4133      4198      4302      4309      6059      6823      6732      6141      6142      6850
 -1      3681    6    0    1
 -2      1715      4092      4201      4342      6838      5884      6837      6892      5450      6893
 -1      3682    6    0    1
 -2      4195      4205      4101      4310      6580      6721      5321      6602      5860      6720
 -1      3683    6    0    1
 -2      4184      4222      2903      4335      5867      6894      6895      6157      6897      6896
 -1      3684    6    0    1
 -2      1677      4128      1664      4276      6898      5705      1896      6899      5828      5826
 -1      3685    6    0    1
 -2      2286      4163      4216      4336      4690      5861      5815      6900      6841      6836
 -1      3686    6    0    1
 -2      1292      2720      4201      4224      6389      6901      6902      6390      6391      6512
 -1      3687    6    0    1
 -2      2130      4141      2131      4261      6884      6869      2223      6903      4793      6872
 -1      3688    6    0    1
 -2      2310      2347      4200      4331      2680      5271      6904      6362      6101      6102
 -1      3689    6    0    1
 -2      2973      4148      3122      4285      5262      5589      3891      6276      5588      5587
 -1      3690    6    0    1
 -2      3080      2973      3082      4148      3899      3898      3188      5602      5262      4384
 -1      3691    6    0    1
 -2      4101      4205      4157      4336      6721      5628      6905      6722      6528      6636
 -1      3692    6    0    1
 -2      1278      1333      4266      4278      1578      6241      6906      6907      6244      6245
 -1      3693    6    0    1
 -2      3063      4197      4138      4318      6728      5744      6051      6908      5076      6909
 -1      3694    6    0    1
 -2      4096      4163      4147      4324      5737      6688      6689      5997      6910      5600
 -1      3695    6    0    1
 -2      2720      2730      2740      4224      2768      2848      2865      6391      6569      6657
 -1      3696    6    0    1
 -2      1721      4265      1722      4266      5819      6559      1894      5820      5084      6561
 -1      3697    6    0    1
 -2      1705      4212      4094      4276      5662      5663      5661      6911      6704      6032
 -1      3698    6    0    1
 -2      2280      4241      4209      4272      5398      6448      5494      6912      5380      6747
 -1      3699    6    0    1
 -2      1727      4221      1691      4265      6796      5233      2016      6797      5080      6042
 -1      3700    6    0    1
 -2      1306      4286      1324      4327      6082      5689      1615      5070      5432      5633
 -1      3701    6    0    1
 -2      3008      2897      4141      4261      3529      4748      5173      6913      4792      4793
 -1      3702    6    0    1
 -2      1019       241      1725      4263      1059      6914      6087      6088      6915      5093
 -1      3703    6    0    1
 -2      2961      4142      2950      4254      6916      6802      3792      6917      6803      5410
 -1      3704    6    0    1
 -2      2322      4249      4157      4312      5481      5284      6918      6851      6920      6919
 -1      3705    6    0    1
 -2      4122      4250      4142      4312      6874      5160      6921      6670      6820      6819
 -1      3706    6    0    1
 -2      3033      4167      4095      4264      6696      4903      6695      6922      6457      5474
 -1      3707    6    0    1
 -2      4126      4145      4113      4327      5571      5023      6754      4476      6923      5956
 -1      3708    6    0    1
 -2      4178      4116      4246      4293      5532      6107      6726      6727      6153      6662
 -1      3709    6    0    1
 -2      4179      4291      4103      4320      5640      6603      6854      6106      6760      5946
 -1      3710    6    0    1
 -2      4178      4132      4268      4303      5979      5981      5982      6067      6925      6924
 -1      3711    6    0    1
 -2      3017      3015      3016      4256      3997      3996      3477      6062      6687      4717
 -1      3712    6    0    1
 -2      4147      4163      4101      4324      6688      6926      5318      5600      6910      5599
 -1      3713    6    0    1
 -2      3057      3154      3119      4319      3923      3386      4066      6860      6927      5117
 -1      3714    6    0    1
 -2      4163      4241      4096      4310      5739      5378      5737      6653      5469      6690
 -1      3715    6    0    1
 -2      4122      4249      4140      4279      5483      6196      6928      6545      6200      5657
 -1      3716    6    0    1
 -2      1311      1288      2871      4234      1455      6929      6930      6359      6932      6931
 -1      3717    6    0    1
 -2       636      3082       613      4257      4383      6933       772      4952      4982      5181
 -1      3718    6    0    1
 -2      2284      2285      4163      4210      2574      4691      5738      5499      4753      4754
 -1      3719    6    0    1
 -2      3103      4207      3150      4239      4409      4410      3455      5354      5355      6934
 -1      3720    6    0    1
 -2      1310      1334      1289      4140      1638      1637      1509      5455      6198      5567
 -1      3721    6    0    1
 -2      4143      4210      4098      4283      6113      5265      6935      5129      5523      5215
 -1      3722    6    0    1
 -2      2296      2295      2291      4199      2616      2615      2617      5671      5541      6656
 -1      3723    6    0    1
 -2      4101      4163      4147      4310      6926      6688      5318      6720      6653      5449
 -1      3724    6    0    1
 -2      2995      4192      3083      4238      6936      6875      3943      6937      6879      6878
 -1      3725    6    0    1
 -2      1316      1325      4132      4273      1558      6627      6467      6717      6938      6719
 -1      3726    6    0    1
 -2      1725      1660      1754      4263      1810      1875      1874      5093      6939      5192
 -1      3727    6    0    1
 -2      4157      4205      4101      4254      5628      6721      6905      6887      6888      5412
 -1      3728    6    0    1
 -2      4109      4174      4149      4296      5722      6054      5776      6940      6942      6941
 -1      3729    6    0    1
 -2      2983      2982      2984      4338      3829      3425      3927      4555      5825      6943
 -1      3730    6    0    1
 -2      1325      4223      4132      4273      6944      6945      6627      6938      6504      6719
 -1      3731    6    0    1
 -2      3121      4204      4123      4234      6676      5621      6402      6403      6691      6163
 -1      3732    6    0    1
 -2      1281      4159      2274      4236      6946      6947      6948      6949      6026      6950
 -1      3733    6    0    1
 -2       503      4238      4192      4307      6951      6879      6952      6953      5105      6954
 -1      3734    6    0    1
 -2      4118      4172      4170      4301      5461      6829      6955      5682      6729      6956
 -1      3735    6    0    1
 -2      2912      2911      2910      4233      3591      3584      3592      5370      6118      4991
 -1      3736    6    0    1
 -2      4109      4185      4174      4296      5055      6957      5722      6940      6218      6942
 -1      3737    6    0    1
 -2      2326      4157      2319      4205      6635      5035      2704      6527      5628      5626
 -1      3738    6    0    1
 -2      4136      4192       490      4238      6876      6958      6959      6592      6879      6960
 -1      3739    6    0    1
 -2      3118      2974      4257      4285      3897      6961      5605      6346      6962      6347
 -1      3740    6    0    1
 -2      4175      4179      4107      4198      6855      6105      4851      4723      6822      5560
 -1      3741    6    0    1
 -2      3043      4134      4306      4337      6963      6964      6965      6966      4961      6967
 -1      3742    6    0    1
 -2      4140      4279      2978      4341      5657      6703      6702      6968      6970      6969
 -1      3743    6    0    1
 -2      2129      4166      4137      4261      6397      6440      6439      6971      6873      6345
 -1      3744    6    0    1
 -2      4114      4253      3017      4257      4998      6279      6061      5396      5219      6725
 -1      3745    6    0    1
 -2      4126      4250      3097      4328      4841      4842      4616      4984      6973      6972
 -1      3746    6    0    1
 -2      4136      4238       490      4315      6592      6960      6959      6750      6975      6974
 -1      3747    6    0    1
 -2      1732      4135      4246      4332      5726      6976      6977      5727      5728      6338
 -1      3748    6    0    1
 -2      2269      2320      2321      4236      2516      2515      2514      6340      4915      5281
 -1      3749    6    0    1
 -2      2900      2951      2902      4151      3544      3543      3542      4803      4985      6886
 -1      3750    6    0    1
 -2      4180      4231      1715      4342      6505      6978      6979      6980      6981      6892
 -1      3751    6    0    1
 -2      3149      3036      4176      4237      3443      4875      5362      5837      4876      4524
 -1      3752    6    0    1
 -2      3147      3033      3032      4095      4021      4019      4022      5199      6695      5115
 -1      3753    6    0    1
 -2       648      4240      4093      4289      6464      5992      5875      6748      5993      4688
 -1      3754    6    0    1
 -2      2307      2279      2278      4315      2554      2500      2548      4788      4638      6414
 -1      3755    6    0    1
 -2      3038      2911      2913      4233      3598      3596      3599      5145      6118      4741
 -1      3756    6    0    1
 -2      3106      4264      3147      4302      4785      5475      3775      6770      5858      5856
 -1      3757    6    0    1
 -2      1734      1689      1685      4175      1995      1994      1991      4721      4726      4850
 -1      3758    6    0    1
 -2      2121      1293      4218      4232      6514      6982      6983      6515      6516      6548
 -1      3759    6    0    1
 -2      2916      4155      2915      4192      6120      6984      3612      6985      6987      6986
 -1      3760    6    0    1
 -2      2350      2337      2335      4294      2524      2710      2694      6410      6305      5961
 -1      3761    6    0    1
 -2      4103      4185      4179      4198      4825      6988      6854      4724      4896      6822
 -1      3762    6    0    1
 -2      3135       634      3090      4338      6674      6989      3233      6675      6577      6990
 -1      3763    6    0    1
 -2      2718      2879      3028      4176      6991      3362      6063      6064      6992      4491
 -1      3764    6    0    1
 -2      2126      4225      4093      4313      6639      5019      5767      5908      6993      5910
 -1      3765    6    0    1
 -2      1688      1732      4135      4246      1980      5726      6994      6995      6977      6976
 -1      3766    6    0    1
 -2      2916      4155      4192      4300      6120      6987      6985      6121      5194      6996
 -1      3767    6    0    1
 -2      2906      2904      4161      4215      3562      6056      6997      6998      6019      6057
 -1      3768    6    0    1
 -2      3153      4279      4250      4341      6999      7000      7001      7002      6970      5675
 -1      3769    6    0    1
 -2      3151      3041      3115      4270      3916      4032      3422      5493      5240      6013
 -1      3770    6    0    1
 -2      1720      4221      1719      4293      7003      6146      2098      7004      6150      6148
 -1      3771    6    0    1
 -2      4163      4097      4216      4336      4706      5816      5861      6841      6835      6836
 -1      3772    6    0    1
 -2      2346      4217      4093      4289      6250      5770      4687      4689      6749      4688
 -1      3773    6    0    1
 -2      2932      4139      2933      4197      5058      5998      3694      5774      5773      5745
 -1      3774    6    0    1
 -2       664      4262      4271      4292      6890      6519      7005      6891      5786      6733
 -1      3775    6    0    1
 -2      4096      4190      4147      4241      6078      4987      6689      5378      7006      5507
 -1      3776    6    0    1
 -2      3116      3104      2978      4140      3306      3918      3917      5454      5566      6702
 -1      3777    6    0    1
 -2      4095      4160      4133      4287      5198      6714      6713      5703      7007      6060
 -1      3778    6    0    1
 -2      4092      4193      4180      4231      4501      7008      7009      6172      6173      6505
 -1      3779    6    0    1
 -2      2320      2318      2319      4311      2541      2696      2701      6028      6741      6323
 -1      3780    6    0    1
 -2      2961      2959      2950      4142      3791      3569      3792      6916      5730      6802
 -1      3781    6    0    1
 -2      2987      4136      2972      4288      6593      4949      3892      5678      4832      4950
 -1      3782    6    0    1
 -2      4230      4283      4114      4331      5225      7010      5912      6372      6364      6614
 -1      3783    6    0    1
 -2      4135      4220      4108      4332      5725      6598      7011      5728      5729      6229
 -1      3784    6    0    1
 -2      4173      4235      2267      4354      6432      6430      6427      7012      7014      7013
 -1      3785    6    0    1
 -2      2944      2946      4160      4302      3753      7015      6790      5758      7016      5857
 -1      3786    6    0    1
 -2      2734      2733      2713      4128      2834      2831      2832      5341      5527      5704
 -1      3787    6    0    1
 -2      4092      4231      1715      4282      6172      6978      6838      6084      7017      6839
 -1      3788    6    0    1
 -2      4110      4257      4230      4283      4953      5914      5223      5128      7018      5225
 -1      3789    6    0    1
 -2      2127      4152      2122      4173      7019      7020      2228      7021      7023      7022
 -1      3790    6    0    1
 -2      2299      4213      4166      4343      5500      5546      5069      7024      7026      7025
 -1      3791    6    0    1
 -2       611      4240      4153      4253      7027      4921      7028      7029      4614      4923
 -1      3792    6    0    1
 -2      2984      2982      4242      4338      3425      6075      7030      6943      5825      6076
 -1      3793    6    0    1
 -2      2299      2296      2300      4213      2640      2642      2641      5500      4747      4710
 -1      3794    6    0    1
 -2      4096      4210      4143      4272      5498      6113      7031      5348      6114      4531
 -1      3795    6    0    1
 -2      4161      4215      4163      4324      6057      6840      5755      7032      6151      6910
 -1      3796    6    0    1
 -2      4148      4211      4125      4288      6321      4388      6298      5591      6322      5306
 -1      3797    6    0    1
 -2      2931      3099      2932      4146      3697      3696      3692      6144      5089      5056
 -1      3798    6    0    1
 -2      3033      4095      3147      4264      6695      5199      4021      6922      5474      5475
 -1      3799    6    0    1
 -2      4095      4247      4187      4356      5701      4425      4939      7033      6489      6564
 -1      3800    6    0    1
 -2      4128      4196      2733      4276      4630      5528      5527      5828      6033      6863
 -1      3801    6    0    1
 -2      4140      4157      4120      4236      6712      4913      5238      6711      4916      4917
 -1      3802    6    0    1
 -2      1699      1698      1700      4296      2052      2056      2055      7034      6216      6217
 -1      3803    6    0    1
 -2      2335      2311      2294      4143      2631      2630      2632      5109      6817      4529
 -1      3804    6    0    1
 -2      4102      4271      4149      4339      6518      5212      6239      6436      5517      5518
 -1      3805    6    0    1
 -2      1682      1732      1680      4220      1969      1968      1966      5764      5724      6597
 -1      3806    6    0    1
 -2       501      2333      4188      4326      7035      5334      7036      7037      5895      5896
 -1      3807    6    0    1
 -2      2932      4197      2930      4321      5774      7038      3691      5059      5190      7039
 -1      3808    6    0    1
 -2      4115      4269      4221      4275      5670      7040      5232      4811      7041      5234
 -1      3809    6    0    1
 -2      2900      4151      2902      4222      4803      6886      3542      4804      4805      5947
 -1      3810    6    0    1
 -2      1327      4223      1325      4273      7042      6944      1624      7043      6504      6938
 -1      3811    6    0    1
 -2       493       496      4238      4307       574      5103      7044      7045      5063      5105
 -1      3812    6    0    1
 -2      1708      4170      4172      4301      7046      6829      6119      5814      6956      6729
 -1      3813    6    0    1
 -2      2985      4091      4264      4338      5798      4635      5799      5936      6188      4557
 -1      3814    6    0    1
 -2      2734      2725      4176      4274      2833      7047      5342      5862      6038      6493
 -1      3815    6    0    1
 -2      4117      4243      4190      4285      7048      6224      5314      5276      7049      5315
 -1      3816    6    0    1
 -2      2129      2131      4166      4261      2244      6871      6397      6971      6872      6873
 -1      3817    6    0    1
 -2      4096      4163      4161      4210      5737      5755      7050      5498      4754      5757
 -1      3818    6    0    1
 -2      4181      4257      4110      4283      6582      4953      7051      7052      7018      5128
 -1      3819    6    0    1
 -2      4122      4249      2322      4312      5483      5481      5478      6670      6920      6851
 -1      3820    6    0    1
 -2      1711      4127      1675      4277      6778      6374      1949      7053      6375      6376
 -1      3821    6    0    1
 -2      1732      1682      1688      4135      1969      1978      1980      5726      5763      6994
 -1      3822    6    0    1
 -2      4147      4190      4099      4241      4987      4994      5033      5507      7006      5399
 -1      3823    6    0    1
 -2      1678      1664      4128      4274      1898      5705      7054      7055      5708      5709
 -1      3824    6    0    1
 -2      1680      4220      4274      4356      6597      6599      6225      7056      6539      7057
 -1      3825    6    0    1
 -2      3037      4141      2106      4261      6285      6284      6286      7058      4793      7059
 -1      3826    6    0    1
 -2      3126      4178      4268      4303      7060      5982      7061      7062      6067      6924
 -1      3827    6    0    1
 -2      2273      2110      2328      4225      7063      6407      2472      7064      6400      6408
 -1      3828    6    0    1
 -2      4097      4222      4184      4335      6203      5867      7065      6021      6897      6157
 -1      3829    6    0    1
 -2      1350      3053      1304      4330      6472      7066      1489      6475      6476      7067
 -1      3830    6    0    1
 -2      2715      2722      2890      4196      2815      7068      6115      5960      4628      6116
 -1      3831    6    0    1
 -2      2737      4176      2725      4274      5836      7047      2827      5934      6493      6038
 -1      3832    6    0    1
 -2      4181      4257      2974      4285      6582      6961      7069      7070      6347      6962
 -1      3833    6    0    1
 -2      2130      4166      4141      4343      6885      6870      6884      7071      7025      7072
 -1      3834    6    0    1
 -2      4106      4185      4169      4304      5554      7073      7074      5885      5625      6130
 -1      3835    6    0    1
 -2      1743      4168      4121      4265      7075      7076      6781      6782      7077      6542
 -1      3836    6    0    1
 -2      4092      1715      4231      4342      6838      6978      6172      5450      6892      6981
 -1      3837    6    0    1
 -2      3124      2873      1303       255      3279      6611      6566      4767      4667      6565
 -1      3838    6    0    1
 -2      1743      4121      4168      4278      6781      7076      7075      6795      6243      7078
 -1      3839    6    0    1
 -2      3020      4214      4240      4350      7079      6465      7080      7081      7082      5368
 -1      3840    6    0    1
 -2      1018      4197      4138      4255      7083      5744      5804      5802      7084      5803
 -1      3841    6    0    1
 -2       611       651      4153      4240       945      7085      7028      7027      7086      4921
 -1      3842    6    0    1
 -2      1734      1698      4185      4198      2040      5054      4824      4722      6089      4896
 -1      3843    6    0    1
 -2      1682      4135      4220      4287      5763      5725      5764      7087      4702      5187
 -1      3844    6    0    1
 -2      2356      2301      2355      4166      2657      2664      2666      5326      5067      6481
 -1      3845    6    0    1
 -2      4150      4180      2736      4258      6035      7088      6248      5783      7089      6253
 -1      3846    6    0    1
 -2      4140      4236      1335      4249      6711      6744      6521      6196      5285      7090
 -1      3847    6    0    1
 -2      2968      4178      2953      4186      6005      5531      3808      6381      5593      5594
 -1      3848    6    0    1
 -2      1721      1727      1722      4265      2025      2101      1894      5819      6797      6559
 -1      3849    6    0    1
 -2      4133      4302      4203      4309      6732      6769      5846      6141      6850      6849
 -1      3850    6    0    1
 -2      1333      4278      1336      4344      6244      7091      1581      6484      6485      7092
 -1      3851    6    0    1
 -2      4115      4156      4269      4275      5652      4781      5670      4811      7093      7041
 -1      3852    6    0    1
 -2      2298      4213      4173      4354      5580      7094      7095      5596      5754      7012
 -1      3853    6    0    1
 -2      4143      4243      4096      4272      7096      5995      7031      4531      7097      5348
 -1      3854    6    0    1
 -2      4146      4297      1009      4322      4839      6396      6395      4895      4891      7098
 -1      3855    6    0    1
 -2      4106      4169      4185      4291      7074      7073      5554      6349      6605      7099
 -1      3856    6    0    1
 -2      1307      3138      3011      4268      7100      3249      6596      5696      7101      5390
 -1      3857    6    0    1
 -2      3153      4250      2976      4341      7001      6520      3909      7002      5675      6327
 -1      3858    6    0    1
 -2      2356      2299      4166      4343      2656      5069      5326      7102      7024      7025
 -1      3859    6    0    1
 -2      4167      4187      4095      4247      4906      4939      4903      4594      4425      5701
 -1      3860    6    0    1
 -2       604       661       638      4271       910       909       866      6072      6073      6772
 -1      3861    6    0    1
 -2      1274      1747      1316      4282      7103      7104      1429      7105      7106      6470
 -1      3862    6    0    1
 -2      2906      4215      4161      4324      6998      6057      6997      7107      6151      7032
 -1      3863    6    0    1
 -2      4223      4268      4132      4303      7108      5981      6945      6315      6924      6925
 -1      3864    6    0    1
 -2      1137      1138      1117      4348      1229      1228      1167      4456      4595      4860
 -1      3865    6    0    1
 -2      4195      4205      4120      4254      6580      5627      6137      6165      6888      5426
 -1      3866    6    0    1
 -2      1335      1334      4140      4249      1586      6198      6521      7090      6197      6196
 -1      3867    6    0    1
 -2      1705      4094      4187      4276      5661      6316      6317      6911      6032      7109
 -1      3868    6    0    1
 -2      3039      3073      3044      4182      3610      4031      4030      4607      4890      5086
 -1      3869    6    0    1
 -2      4145      4199      2297      4354      5286      5470      5471      7110      5855      7111
 -1      3870    6    0    1
 -2      4097      4163      4161      4215      4706      5755      5756      6018      6840      6057
 -1      3871    6    0    1
 -2       491      4300      4155      4359      7112      5194      5502      5503      5196      4367
 -1      3872    6    0    1
 -2      4108      4186      4135      4332      7113      7114      7011      6229      7115      5728
 -1      3873    6    0    1
 -2      1303      1318      3124      1148      1408      4882      6566      6567      4881      4728
 -1      3874    6    0    1
 -2      2312      2267      2116      4235      2460      6429      7116      6511      6430      6431
 -1      3875    6    0    1
 -2      3043      4134      3045      4306      6963      7117      4035      6965      6964      7118
 -1      3876    6    0    1
 -2      4179      4185      4109      4198      6988      5055      5638      6822      4896      5324
 -1      3877    6    0    1
 -2      2336      4183      4131      4334      5750      5749      5316      7119      5925      7120
 -1      3878    6    0    1
 -2       661       659       633      4242       911       961       972      6463      6621      5440
 -1      3879    6    0    1
 -2      4113      4286      4126      4327      5026      4766      6754      5956      5432      4476
 -1      3880    6    0    1
 -2      2722      3028      2890      4196      4486      3365      7068      4628      4629      6116
 -1      3881    6    0    1
 -2      4131      4199      4111      4213      5672      5540      6640      4711      5545      5543
 -1      3882    6    0    1
 -2      4150      4258      4176      4323      5783      5784      5780      7121      5968      5364
 -1      3883    6    0    1
 -2      3086      4260      2938      4320      7122      5942      3733      7123      5666      5945
 -1      3884    6    0    1
 -2      1331      2344      4218      4286      7124      6852      7125      7126      6853      5901
 -1      3885    6    0    1
 -2       491      4155       504      4182      5502      5917       592      5501      4364      5916
 -1      3886    6    0    1
 -2      3014      4151      2898      4259      6175      4567      3534      5889      4790      4791
 -1      3887    6    0    1
 -2       629      2887      3078       263      6365      3212      6767      6366      5244      5371
 -1      3888    6    0    1
 -2      1007      1343      1025      4229      6845      7127      1097      6846      6847      7128
 -1      3889    6    0    1
 -2      4102      4177      4158      4295      4373      4374      4370      6682      6683      7129
 -1      3890    6    0    1
 -2        50       501      2333      4188       532      7035      7130      7131      7036      5334
 -1      3891    6    0    1
 -2      3033      3031      3032      4167      4018      4014      4019      6696      7132      5114
 -1      3892    6    0    1
 -2      2912      2910      3060      4325      3592      3594      3593      5422      5423      6738
 -1      3893    6    0    1
 -2      2955      4190      4243      4285      6299      6224      7133      6300      5315      7049
 -1      3894    6    0    1
 -2      1667      1316      1747      4282      6468      7104      1844      6469      6470      7106
 -1      3895    6    0    1
 -2      4107      4133      4198      4302      7134      6059      5560      5760      6732      6823
 -1      3896    6    0    1
 -2      4144      4260      4189      4349      5551      6306      6865      6866      6308      6012
 -1      3897    6    0    1
 -2      2284      2334      4241      4310      2572      7135      5379      6652      7136      5469
 -1      3898    6    0    1
 -2      2940      3086      2938      4320      3734      3733      3731      6759      7123      5945
 -1      3899    6    0    1
 -2      4136      4238      4125      4288      6592      5302      7137      4832      5305      5306
 -1      3900    6    0    1
 -2      2908      2907      2909      4324      3572      3577      3576      6204      5973      5974
 -1      3901    6    0    1
 -2      1714      1724      1716      4231      2092      2091      2090      5533      5534      6810
 -1      3902    6    0    1
 -2      1019      4130       242      4295      6086      7138      1060      7139      6681      7140
 -1      3903    6    0    1
 -2      2116      2127      2122      4173      2235      2228      2259      6428      7021      7022
 -1      3904    6    0    1
 -2      4126      4252      4145      4327      4665      5572      5571      4476      4647      6923
 -1      3905    6    0    1
 -2      4142      4216      4215      4336      7141      6833      6801      7142      6836      6834
 -1      3906    6    0    1
 -2      2881      3150      4207      4239      3454      4410      7143      7144      6934      5355
 -1      3907    6    0    1
 -2      2879      3036      3028      4176      3442      3441      3362      6992      4875      4491
 -1      3908    6    0    1
 -2      1673      4262      1744      4271      7145      6434      1942      7146      6519      5515
 -1      3909    6    0    1
 -2      2290      2326      4310      4336      2611      6526      7147      7148      6529      6530
 -1      3910    6    0    1
 -2      2869      2986      3122      4308      3377      3379      3378      7149      5788      5872
 -1      3911    6    0    1
 -2      2914      4155      2912      4325      4520      7150      3602      7151      7152      5422
 -1      3912    6    0    1
 -2      1715      4180      1714      4231      6979      5177      1930      6978      6505      5533
 -1      3913    6    0    1
 -2      4154      4248      4127      4319      7153      4458      7154      7155      6700      5014
 -1      3914    6    0    1
 -2      1675      1711      1710      4299      1949      1948      1822      6779      6780      7156
 -1      3915    6    0    1
 -2      2915      2914      2912      4325      3603      3602      3604      7157      7151      5422
 -1      3916    6    0    1
 -2      1702      1745      4172      4245      1909      5462      5809      5247      5465      5466
 -1      3917    6    0    1
 -2      2728      2727      2738      4219      2844      2862      2838      5100      5260      5717
 -1      3918    6    0    1
 -2      1713      2724      4150      4180      6774      6775      6776      7158      7159      6035
 -1      3919    6    0    1
 -2      2912      4155      2914      4233      7150      4520      3602      5370      4650      4651
 -1      3920    6    0    1
 -2       609      3020      4214      4240      7160      7079      6764      6765      7080      6465
 -1      3921    6    0    1
 -2      4093      4240      4214      4350      5992      6465      5907      6143      5368      7082
 -1      3922    6    0    1
 -2      4099      4188      4147      4241      5336      5447      5033      5399      5467      5507
 -1      3923    6    0    1
 -2      3063      3074      4197      4318      3710      7161      6728      6908      7162      5076
 -1      3924    6    0    1
 -2      4230      4257      4114      4283      5914      5396      5912      5225      7018      7010
 -1      3925    6    0    1
 -2      4169      4185      4291      4304      7073      7099      6605      6130      5625      7163
 -1      3926    6    0    1
 -2      2336      4131      2291      4334      5316      6655      2598      7119      7120      7164
 -1      3927    6    0    1
 -2      1666       638      1737      4271      6771      7165      1794      6233      6772      7166
 -1      3928    6    0    1
 -2      4099      4209      4241      4272      5496      6448      5399      7167      6747      5380
 -1      3929    6    0    1
 -2      1726      1692      1679      4356      1965      1964      1954      6490      6488      6650
 -1      3930    6    0    1
 -2      1311      2871      3081      4234      6930      3258      6654      6359      6931      6404
 -1      3931    6    0    1
 -2      2935      4146      4298      4357      6751      4977      7168      6752      6665      6678
 -1      3932    6    0    1
 -2      1013      1011      1023      4146      1114      1058      1115      6857      5295      6289
 -1      3933    6    0    1
 -2        72       494       502      4359       557       559       555      4377      5339      4745
 -1      3934    6    0    1
 -2      2313      4218      4113      4235      6449      5372      5024      6309      5377      5375
 -1      3935    6    0    1
 -2      2967      2968      4186      4323      3809      6381      7169      7170      6303      6382
 -1      3936    6    0    1
 -2      4101      4205      4195      4254      6721      6580      5321      5412      6888      6165
 -1      3937    6    0    1
 -2      2716      2732      2740      4224      2846      2851      2849      5521      5400      6657
 -1      3938    6    0    1
 -2      2915      4155      2914      4325      6984      4520      3603      7157      7152      7151
 -1      3939    6    0    1
 -2      2736      4180      2735      4258      7088      7171      2856      6253      7089      7172
 -1      3940    6    0    1
 -2      4144      4105      4189      4333      6864      6007      6865      7173      6195      7174
 -1      3941    6    0    1
 -2      1713      4150      1730      4180      6776      6036      1883      7158      6035      5310
 -1      3942    6    0    1
 -2       644       629      3078      1147       800      6767      5041      5043      6768      5042
 -1      3943    6    0    1
 -2       655      4170       653      4207      6698      7175       901      6607      6697      6268
 -1      3944    6    0    1
 -2      4134      4104      4311      4337      5578      6716      7176      4961      4815      6736
 -1      3945    6    0    1
 -2      2311      2331      4143      4283      2629      6617      6817      6818      5214      5129
 -1      3946    6    0    1
 -2      2360      2298      4173      4354      2652      7095      7177      7178      5596      7012
 -1      3947    6    0    1
 -2      2740      4201      4224      4342      7179      6512      6657      6658      6893      5405
 -1      3948    6    0    1
 -2      3016      3018      4240      4350      3481      7180      4612      5366      7181      5368
 -1      3949    6    0    1
 -2      2121      2132      2112      4232      2233      2251      2162      6515      6631      6794
 -1      3950    6    0    1
 -2      4155      4233      2912      4325      4650      5370      7150      7152      5797      5422
 -1      3951    6    0    1
 -2      2336      2296      2291      4131      2618      2617      2598      5316      4746      6655
 -1      3952    6    0    1
 -2      1709      4133      1729      4247      7182      6166      2026      7183      7184      6789
 -1      3953    6    0    1
 -2      2904      2905      2903      4335      3557      3556      3551      6022      6814      6896
 -1      3954    6    0    1
 -2      4137      4206      4166      4225      7185      5611      6440      6441      5020      6401
 -1      3955    6    0    1
 -2      1009      4146      1019      4177      6395      6552      1110      6394      4836      6553
 -1      3956    6    0    1
 -2      1279      1335      4236      4249      1585      6744      7186      7187      7090      5285
 -1      3957    6    0    1
 -2      4160      4302      4107      4314      5857      5760      7188      6791      6438      5266
 -1      3958    6    0    1
 -2      2935      4146      3099      4298      6751      5089      3705      7168      4977      5720
 -1      3959    6    0    1
 -2      4138      4248      4105      4347      4731      7189      7190      5748      6342      7191
 -1      3960    6    0    1
 -2      3080       615       630      4148      5601       778      7192      5602      4979      7193
 -1      3961    6    0    1
 -2      4093      4137      4206      4350      7194      7185      4685      6143      7195      6546
 -1      3962    6    0    1
 -2      2111      2134      2126      4217      2247      2250      2246      7196      5768      5769
 -1      3963    6    0    1
 -2      1734      1706      1698      4198      1999      2058      2040      4722      5325      6089
 -1      3964    6    0    1
 -2      4104      4188      4147      4233      5046      5447      5448      4742      5353      4990
 -1      3965    6    0    1
 -2      4105      4202      4304      4333      6324      5624      6131      6195      6483      6708
 -1      3966    6    0    1
 -2      3135      4242       614      4338      7197      6646      6673      6675      6076      6576
 -1      3967    6    0    1
 -2      1681      1692      1729      4287      1963      1975      1974      5323      5188      6355
 -1      3968    6    0    1
 -2      1740      1761      1744      4339      1934      2072      1943      6787      7198      5516
 -1      3969    6    0    1
 -2      1292      4201      1349      4224      6902      5883      1650      6390      6512      5897
 -1      3970    6    0    1
 -2      2113      4214      2134      4217      7199      6318      2254      6816      6523      5768
 -1      3971    6    0    1
 -2      1716      4231      1724      4246      6810      5534      2091      6811      5845      5843
 -1      3972    6    0    1
 -2      2987      3083      4136      4238      3895      6877      6593      5677      6878      6592
 -1      3973    6    0    1
 -2      2323      2322      4157      4312      2705      6918      7200      7201      6851      6919
 -1      3974    6    0    1
 -2      4131      4183      4151      4222      5749      5299      5986      5987      7202      4805
 -1      3975    6    0    1
 -2      4180      4193      4119      4231      7008      5617      5176      6505      6173      5535
 -1      3976    6    0    1
 -2      2900      2898      3014      4151      3532      3534      3533      4803      4567      6175
 -1      3977    6    0    1
 -2      4137      4225      2129      4313      6441      6399      6439      6831      6993      7203
 -1      3978    6    0    1
 -2      2263      2332      2316      4188      2482      2486      2388      7204      5047      5381
 -1      3979    6    0    1
 -2       674      4212       618      4219      5870      7205       978      5904      6506      6788
 -1      3980    6    0    1
 -2      2312      2116      2114      4235      7116      2197      6510      6511      6431      5834
 -1      3981    6    0    1
 -2      1729      4247      4133      4287      6789      7184      6166      6355      5189      6060
 -1      3982    6    0    1
 -2      4095      4187      4128      4356      4939      5021      5216      7033      6564      7206
 -1      3983    6    0    1
 -2      1331      1275      2344      4286      1535      7207      7124      7126      7208      6853
 -1      3984    6    0    1
 -2      2126      2111      4217      4225      2246      7196      5769      6639      7209      6252
 -1      3985    6    0    1
 -2      2720      2740      4201      4224      2865      7179      6901      6391      6657      6512
 -1      3986    6    0    1
 -2      1290      1302      3112      4154      1464      7210      7211      7212      7214      7213
 -1      3987    6    0    1
 -2       490      4315      2266      4326      6974      7215      7216      7217      7219      7218
 -1      3988    6    0    1
 -2      2726      2879      2718      4176      7220      6991      2809      5779      6992      6064
 -1      3989    6    0    1
 -2       675      2887      3078       629      5951      3212      7221       805      6365      6767
 -1      3990    6    0    1
 -2      1323      1284      1349      4224      1609      1611      1613      4962      5087      5897
 -1      3991    6    0    1
 -2       673       656       648      4217       977       886       938      5877      7222      5878
 -1      3992    6    0    1
 -2      2722      2734      2718      4176      2858      2857      2812      4489      5342      6064
 -1      3993    6    0    1
 -2      2356      2357      2299      4343      2481      2650      2656      7102      7223      7024
 -1      3994    6    0    1
 -2      4113      4232      3023      4317      5955      7224      7225      5990      6632      7226
 -1      3995    6    0    1
 -2      2357      4213      2299      4343      7227      5500      2650      7223      7026      7024
 -1      3996    6    0    1
 -2      1019      1725       242      4130      6087      7228      1060      6086      5091      7138
 -1      3997    6    0    1
 -2      2273      2117      2110      4225      7229      2209      7063      7064      7230      6400
 -1      3998    6    0    1
 -2      4175      4179      4103      4320      6855      6854      4720      7231      6106      5946
 -1      3999    6    0    1
 -2      2126      2129      4225      4313      2218      6399      6639      5908      7203      6993
 -1      4000    6    0    1
 -2      2277      4218      2313      4235      5504      6449      2552      5506      5377      6309
 -1      4001    6    0    1
 -2      4135      4156      4116      4314      7232      4777      7233      7234      4970      7235
 -1      4002    6    0    1
 -2      3024      3095      3097      4208      4008      3912      4009      4472      5510      4617
 -1      4003    6    0    1
 -2      3088      4126      3097      4328      7236      4616      4090      5854      4984      6972
 -1      4004    6    0    1
 -2      4161      4163      4096      4324      5755      5737      7050      7032      6910      5997
 -1      4005    6    0    1
 -2      2298      2295      2296      4213      2634      2616      2635      5580      5544      4747
 -1      4006    6    0    1
 -2      1705      1674      4212      4276      1946      7237      5662      6911      7238      6704
 -1      4007    6    0    1
 -2        77       496       493      4307       572       574       570      4519      5063      7045
 -1      4008    6    0    1
 -2      1758      4299      1712      4333      6192      7239      1904      6193      6194      7240
 -1      4009    6    0    1
 -2      4107      4179      4175      4320      6105      6855      4851      5126      6106      7231
 -1      4010    6    0    1
 -2      4221      4269      4116      4275      7040      4780      6152      5234      7041      6110
 -1      4011    6    0    1
 -2       610       649       674      4219       939       944       943      5016      4885      5904
 -1      4012    6    0    1
 -2      4145      4152      4111      4354      6761      4663      6762      7110      7241      5597
 -1      4013    6    0    1
 -2      1145       628      2996      4329      7242      6827      6333      6334      7243      4854
 -1      4014    6    0    1
 -2      1671      1725      1753      4130      1807      1933      1932      7244      5091      7245
 -1      4015    6    0    1
 -2      2949      4174      2963      4244      5721      6133      3787      5831      6055      4627
 -1      4016    6    0    1
 -2      1293      1348      4218      4232      1653      5898      6982      6516      6547      6548
 -1      4017    6    0    1
 -2      1689      1690      4175      4189      2002      4925      4726      6210      5930      5931
 -1      4018    6    0    1
 -2      4099      4190      4209      4272      4994      5865      5496      7167      7246      6747
 -1      4019    6    0    1
 -2      2337       603      4230      4294      7247      6880      6258      6305      6881      6509
 -1      4020    6    0    1
 -2      2297      4145      2345      4284      5471      5868      2645      5472      5289      5618
 -1      4021    6    0    1
 -2      2916      2915      3075      4192      3612      3617      3616      6985      6986      7248
 -1      4022    6    0    1
 -2      4134      4159      4306      4337      7249      7250      6964      4961      7251      6967
 -1      4023    6    0    1
 -2      2266      4315      4209      4326      7215      4390      7252      7218      7219      5999
 -1      4024    6    0    1
 -2      3107      2879      2726      4176      3359      7220      6456      5966      6992      5779
 -1      4025    6    0    1
 -2       503       490      4192      4238       587      6958      6952      6951      6960      6879
 -1      4026    6    0    1
 -2      2869      3122      4148      4308      3378      5589      7253      7149      5872      5789
 -1      4027    6    0    1
 -2      4270      4306      4159      4337      7254      7250      7255      6017      6967      7251
 -1      4028    6    0    1
 -2      2357      4173      2298      4213      7256      7095      2649      7227      7094      5580
 -1      4029    6    0    1
 -2      2290      2326      2327      4310      2611      2610      2609      7147      6526      6743
 -1      4030    6    0    1
 -2      2875      3130      3101      4158      3417      3419      3414      5841      4369      5005
 -1      4031    6    0    1
 -2      2728      2738      2714      4212      2838      2837      2835      5771      5772      7257
 -1      4032    6    0    1
 -2      4117      4243      4143      4272      7048      7096      4528      4532      7097      4531
 -1      4033    6    0    1
 -2      4149      4174      4109      4244      6054      5722      5776      5275      6055      5832
 -1      4034    6    0    1
 -2      3023      4232      4113      4327      7224      5955      7225      7258      5635      5956
 -1      4035    6    0    1
 -2      4099      4147      4188      4233      5033      5447      5336      4995      4990      5353
 -1      4036    6    0    1
 -2      4135      4156      4107      4275      7232      5473      4697      4740      7093      4739
 -1      4037    6    0    1
 -2      4095      4133      4247      4287      6713      7184      5701      5703      6060      5189
 -1      4038    6    0    1
 -2      2286      4216      2340      4336      5815      7259      2591      6900      6836      7260
 -1      4039    6    0    1
 -2      2274      4159      2320      4236      6947      6027      2540      6950      6026      4915
 -1      4040    6    0    1
 -2      2289      2286      2287      4334      2589      2584      2590      6616      5419      5420
 -1      4041    6    0    1
 -2      4138      4105      4255      4347      7190      6234      5803      5748      7191      7261
 -1      4042    6    0    1
 -2      4107      4198      4179      4302      5560      6822      6105      5760      6823      6648
 -1      4043    6    0    1
 -2      4117      4209      4190      4272      4393      5865      5314      4532      6747      7246
 -1      4044    6    0    1
 -2      1315      2349      1279      4236      7262      7263      1550      7264      7265      7186
 -1      4045    6    0    1
 -2      1689      1693      4189      4304      2012      7266      6210      5742      7267      6132
 -1      4046    6    0    1
 -2      2941      2939      2949      4291      3737      3739      3738      5204      7268      5206
 -1      4047    6    0    1
 -2      4133      4264      4203      4302      5848      4553      5846      6732      5858      6769
 -1      4048    6    0    1
 -2       678       644      2868      4329       802      5761      7269      7270      5762      5309
 -1      4049    6    0    1
 -2      2294      2283      2281      4272      2566      2565      2567      4530      5346      4782
 -1      4050    6    0    1
 -2      2295      2298      2352      4354      2634      2638      2637      5595      5596      7271
 -1      4051    6    0    1
 -2      1014      4158      1016      4177      7272      6329      1099      7273      4374      6328
 -1      4052    6    0    1
 -2      4107      4198      4133      4287      5560      6059      7134      4700      5562      6060
 -1      4053    6    0    1
 -2      3031      4167      3030      4196      7132      6291      4012      7274      4902      6649
 -1      4054    6    0    1
 -2      4092      4231      4180      4342      6172      6505      7009      5450      6981      6980
 -1      4055    6    0    1
 -2       674       649       657      4212       944       891       980      5870      5871      5489
 -1      4056    6    0    1
 -2      1660      1757      1754      4263      1876      1878      1875      6939      5191      5192
 -1      4057    6    0    1
 -2       630      2869      4148      4308      7275      7253      7193      7276      7149      5789
 -1      4058    6    0    1
 -2      4199      4216      2292      4334      6462      6460      5509      7277      5817      7278
 -1      4059    6    0    1
 -2      1676      1664      2713      4276      1869      5706      7279      7280      5826      5827
 -1      4060    6    0    1
 -2      4179      4198      4109      4203      6822      5324      5638      6221      6821      5752
 -1      4061    6    0    1
 -2      4138      4255      4139      4347      5803      7281      5957      5748      7261      5958
 -1      4062    6    0    1
 -2      2351      2335      2337      4230      2689      2710      2487      5718      5224      6258
 -1      4063    6    0    1
 -2      2736      4150      2724      4180      6248      6775      2826      7088      6035      7159
 -1      4064    6    0    1
 -2       628        78      1145      2996      6826      1154      7242      6827      4853      6333
 -1      4065    6    0    1
 -2      4132      4231      1718      4293      6618      7282      7283      7284      6660      7285
 -1      4066    6    0    1
 -2      4119      4231      4178      4246      5535      6171      5614      5844      5845      6726
 -1      4067    6    0    1
 -2      1709      1707      1729      4133      2081      2000      2026      7182      6777      6166
 -1      4068    6    0    1
 -2      1332      1323      1349      4201      1561      1613      1652      7286      5882      5883
 -1      4069    6    0    1
 -2      2902      3040      4161      4222      3554      6135      7287      5947      5137      6134
 -1      4070    6    0    1
 -2      2294      4143      2331      4210      4529      6617      2578      6734      6113      5263
 -1      4071    6    0    1
 -2      4134      4165      3045      4306      7288      7289      7117      6964      7290      7118
 -1      4072    6    0    1
 -2      1011      4255      1728      4263      7291      7292      7293      6090      7295      7294
 -1      4073    6    0    1
 -2      2125      2107      2889      4152      2184      7296      7297      7298      7300      7299
 -1      4074    6    0    1
 -2      4135      4116      4186      4314      7233      5592      7114      7234      7235      7301
 -1      4075    6    0    1
 -2      1353      1318      1319      4348      1482      1407      1486      7302      5795      7303
 -1      4076    6    0    1
 -2      2889      2107      3021      4152      7296      7304      3340      7299      7300      7305
 -1      4077    6    0    1
 -2      3092      2944      2946      4160      3763      3753      3764      7306      6790      7015
 -1      4078    6    0    1
 -2      2964      2963      4174      4228      3788      6133      7307      7308      4623      6053
 -1      4079    6    0    1
 -2      1008      4197       258      4318      7309      5074      1075      7310      5076      4540
 -1      4080    6    0    1
 -2       673       648       609      4214       938       934       936      5905      5906      6764
 -1      4081    6    0    1
 -2      1335      1279      1334      4249      1585      1582      1586      7090      7187      6197
 -1      4082    6    0    1
 -2      1703      1707      4301      4309      2074      7311      6127      6129      6755      5685
 -1      4083    6    0    1
 -2      3087      4179      2941      4203      7312      5639      3747      7313      6221      5753
 -1      4084    6    0    1
 -2      1664      1677      1678      4128      1896      1899      1898      5705      6898      7054
 -1      4085    6    0    1
 -2      2916      4192      3075      4300      6985      7248      3616      6121      6996      7314
 -1      4086    6    0    1
 -2      4137      4313      2896      4350      6831      7315      6454      7195      7317      7316
 -1      4087    6    0    1
 -2      2357      2360      2298      4173      2653      2652      2649      7256      7177      7095
 -1      4088    6    0    1
 -2      4168      4248      4144      4333      7318      7319      7320      7321      7322      7173
 -1      4089    6    0    1
 -2      1323      1325      4268      4282      1559      7323      4965      6083      6628      6085
 -1      4090    6    0    1
 -2       678       643       644      4329       797       881       802      7270      7324      5762
 -1      4091    6    0    1
 -2      3056      4204      4269      4303      6586      5880      7325      6587      6588      7326
 -1      4092    6    0    1
 -2      3088      4327      4126      4328      5852      4476      7236      5854      4937      4984
 -1      4093    6    0    1
 -2       652       654      4253      4331       896      5218      7327      7328      6633      6634
 -1      4094    6    0    1
 -2      4143      4210      4243      4346      6113      7329      7096      7330      7332      7331
 -1      4095    6    0    1
 -2      3043      3044      4134      4337      4029      5085      6963      6966      5236      4961
 -1      4096    6    0    1
 -2      3045      4134      3044      4316      7117      5085      4036      7333      6637      6638
 -1      4097    6    0    1
 -2      4175      4189      4115      4260      5931      5929      4808      7334      6306      5664
 -1      4098    6    0    1
 -2      4112      4199      4145      4208      5287      5286      5288      5511      7335      5570
 -1      4099    6    0    1
 -2      2115      4235      2122      4317      5376      7336      2257      5988      5989      7337
 -1      4100    6    0    1
 -2      4147      4190      4096      4324      4987      6078      6689      5600      6080      5997
 -1      4101    6    0    1
 -2      2887      3004      3128      4351      3485      3487      3486      5245      6701      5008
 -1      4102    6    0    1
 -2      2294      2311      2331      4143      2630      2629      2578      4529      6817      6617
 -1      4103    6    0    1
 -2      1671      4130      1753      4339      7244      7245      1932      7338      7340      7339
 -1      4104    6    0    1
 -2      4111      4199      4184      4208      5540      6868      5608      5251      7335      5512
 -1      4105    6    0    1
 -2      1709      1707      4133      4301      2081      6777      7182      7341      7311      6393
 -1      4106    6    0    1
 -2      2896      2882      2895      4137      3456      3328      3457      6454      5941      5939
 -1      4107    6    0    1
 -2      2130      4173      4141      4340      7342      7343      6884      7344      7345      4997
 -1      4108    6    0    1
 -2      3124      2873      1351      1303      3279      6177      7346      6566      6611      1478
 -1      4109    6    0    1
 -2      2978      4254      4140      4341      7347      5428      6702      6969      7348      6968
 -1      4110    6    0    1
 -2      1697      4202      1696      4304      5555      7349      2036      5623      5624      7350
 -1      4111    6    0    1
 -2      2322      2265      2353      4249      2494      2441      2495      5481      5649      6003
 -1      4112    6    0    1
 -2      4109      4185      4179      4291      5055      6988      5638      5205      7099      5640
 -1      4113    6    0    1
 -2      4103      4291      4185      4304      6603      7099      4825      5741      7163      5625
 -1      4114    6    0    1
 -2      2266      4209      2333      4326      7252      5495      2394      7218      5999      5895
 -1      4115    6    0    1
 -2      1727      1721      1691      4221      2025      2022      2016      6796      5818      5233
 -1      4116    6    0    1
 -2      4169      4291      4103      4304      6605      6603      6590      6130      7163      5741
 -1      4117    6    0    1
 -2       611      2886      4240      4253      7351      6730      7027      7029      6731      4614
 -1      4118    6    0    1
 -2      2361      4159      1342      4280      7352      7353      7354      7355      7357      7356
 -1      4119    6    0    1
 -2      4127      4168      1711      4299      7358      7359      6778      4760      7360      6780
 -1      4120    6    0    1
 -2      2313      4145      2354      4235      5022      6856      2692      6309      6310      7361
 -1      4121    6    0    1
 -2      2116      2122      2114      4235      2259      2258      2197      6431      7336      5834
 -1      4122    6    0    1
 -2      4134      4165      4280      4358      7288      7362      7363      7364      7366      7365
 -1      4123    6    0    1
 -2      4132      4268      1325      4282      5981      7323      6627      6471      6085      6628
 -1      4124    6    0    1
 -2      4132      4223      1325      4268      6945      6944      6627      5981      7108      7323
 -1      4125    6    0    1
 -2      2108      2115      2132      4218      2229      2232      2231      5429      5373      6209
 -1      4126    6    0    1
 -2      1274      1316      1325      4282      1429      1558      1557      7105      6470      6628
 -1      4127    6    0    1
 -2      4110      4257      4181      4285      4953      6582      7051      6277      6347      7070
 -1      4128    6    0    1
 -2      4179      4185      4103      4291      6988      4825      6854      5640      7099      6603
 -1      4129    6    0    1
 -2       641      1735       600      4171      7367      7368       854      7369      7370      6223
 -1      4130    6    0    1
 -2       622       665      2885      3140       787      4798      4847      4848      7371      3200
 -1      4131    6    0    1
 -2      4143      4181      4110      4283      7372      7051      5108      5129      7052      5128
 -1      4132    6    0    1
 -2      4161      4243      4210      4346      7373      7329      5757      6136      7331      7332
 -1      4133    6    0    1
 -2      3041      3042      3115      4337      3854      4033      4032      6124      6825      6015
 -1      4134    6    0    1
 -2      1012      4177      4130      4295      7374      6336      7375      7376      6683      6681
 -1      4135    6    0    1
 -2      2268      4153       642      4289      7377      7378      7379      7380      5148      7381
 -1      4136    6    0    1
 -2      2728      2733      4196      4276      2845      5528      5098      6031      6863      6033
 -1      4137    6    0    1
 -2      2975      4144      2948      4260      5549      7382      3784      5550      5551      7383
 -1      4138    6    0    1
 -2      1020       257       256      4318      1072       266      1073      7384      4538      4920
 -1      4139    6    0    1
 -2      4128      4108      4237      4356      7385      5838      4522      7206      7387      7386
 -1      4140    6    0    1
 -2      3019      4313      4214      4350      7388      6319      7389      7390      7317      7082
 -1      4141    6    0    1
 -2      3099      4146      2931      4322      5089      6144      3697      5090      4895      6425
 -1      4142    6    0    1
 -2       608      2875       662      4281      5839      7391       813      7392      7394      7393
 -1      4143    6    0    1
 -2      3112      1302      2870      4154      7210      7395      3267      7213      7214      7396
 -1      4144    6    0    1
 -2      4103      4189      4175      4260      6211      5931      4720      5943      6306      7334
 -1      4145    6    0    1
 -2      3067      3065      4290      4318      4078      7397      6367      4880      7399      7398
 -1      4146    6    0    1
 -2      1690      1727      1691      4265      2017      2016      2004      6040      6797      6042
 -1      4147    6    0    1
 -2      4142      4097      4215      4216      7400      6018      6801      7141      5816      6833
 -1      4148    6    0    1
 -2      4138      4290      3063      4318      4733      6052      6051      6909      7398      6908
 -1      4149    6    0    1
 -2      1725      1753      4130      4296      1933      7245      5091      5094      7401      5096
 -1      4150    6    0    1
 -2       609       632      3020      4240       760      7402      7160      6765      7403      7080
 -1      4151    6    0    1
 -2      2714      4212      1674      4276      7257      7237      7404      7405      6704      7238
 -1      4152    6    0    1
 -2      1333      4234      1329      4266      6541      6162      1634      6241      6500      6264
 -1      4153    6    0    1
 -2      4132      1718      4273      4293      7283      7406      6719      7284      7285      6503
 -1      4154    6    0    1
 -2       489       666       621      4226      7407       718      7408      7409      7411      7410
 -1      4155    6    0    1
 -2      2968      3141      3142      4178      3878      3879      3877      6005      5613      5257
 -1      4156    6    0    1
 -2      2975      2960      2948      4144      3783      3782      3784      5549      6486      7382
 -1      4157    6    0    1
 -2       655       637      4170      4172       897      7412      6698      6828      7413      6829
 -1      4158    6    0    1
 -2      1299      1343      1007      4162      1400      6845      7414      7415      6844      6843
 -1      4159    6    0    1
 -2      1348      1285      1324      4232      1618      1614      1619      6547      5632      5631
 -1      4160    6    0    1
 -2      1135      1125       644      4329      1192      5040      7416      7417      4512      5762
 -1      4161    6    0    1
 -2      4104      4182      4134      4227      4609      4959      5578      5569      5229      7418
 -1      4162    6    0    1
 -2      2352      4199      2295      4354      7419      5541      2637      7271      5855      5595
 -1      4163    6    0    1
 -2      1709      4133      4247      4301      7182      7184      7183      7341      6393      6272
 -1      4164    6    0    1
 -2      3008      4141      3037      4261      5173      6285      3435      6913      4793      7058
 -1      4165    6    0    1
 -2      2262      2328      2120      4166      2469      7420      7421      7422      6406      7423
 -1      4166    6    0    1
 -2      4154      4168      4127      4248      7424      7358      7154      7153      7318      4458
 -1      4167    6    0    1
 -2      2968      3055      2953      4178      3810      3807      3808      6005      5530      5531
 -1      4168    6    0    1
 -2       608       626       627      4158       928       932       816      5842      5573      5003
 -1      4169    6    0    1
 -2      2321      4157      2322      4249      5282      6918      2519      5283      5284      5481
 -1      4170    6    0    1
 -2      4108      4128      4274      4356      7385      5709      6226      7387      7206      7057
 -1      4171    6    0    1
 -2      1304      1149        70      3053      7425      1150      7426      7066      6600      4918
 -1      4172    6    0    1
 -2      4114      4257      4181      4283      5396      6582      5733      7010      7018      7052
 -1      4173    6    0    1
 -2      2903      4184      2901      4222      6895      5866      3546      6894      5867      4871
 -1      4174    6    0    1
 -2      2351      4230      2364      4283      5718      6371      2491      5719      5225      6361
 -1      4175    6    0    1
 -2      4130      4228      4174      4296      6335      6053      7427      5096      7428      6942
 -1      4176    6    0    1
 -2      2884      1318      1353      4348      5793      1482      7429      5796      5795      7302
 -1      4177    6    0    1
 -2      3124      2884      3155      1318      3282      3468      3470      4882      5793      5044
 -1      4178    6    0    1
 -2      3080       630      2869      4148      7192      7275      3191      5602      7193      7253
 -1      4179    6    0    1
 -2      2961      4142      4254      4341      6916      6803      6917      7430      5674      7348
 -1      4180    6    0    1
 -2      4131      4199      2291      4334      5672      6656      6655      7120      7277      7164
 -1      4181    6    0    1
 -2      3041      4140      2978      4254      5237      6702      3850      5427      5428      7347
 -1      4182    6    0    1
 -2      2934      2933      2932      4139      3701      3694      3702      7431      5998      5058
 -1      4183    6    0    1
 -2      3126      4268      4223      4303      7061      7108      7432      7062      6924      6315
 -1      4184    6    0    1
 -2      2352      2297      4199      4354      2636      5470      7419      7271      7111      5855
 -1      4185    6    0    1
 -2      2336      2288      2308      4183      2595      2601      2602      5750      4641      4640
 -1      4186    6    0    1
 -2      2735      4180      4193      4258      7171      7008      7433      7172      7089      7434
 -1      4187    6    0    1
 -2      4174      4228      4149      4296      6053      5274      6054      6942      7428      6941
 -1      4188    6    0    1
 -2      2979      3152      2980      4344      3920      3919      3844      6294      6785      6861
 -1      4189    6    0    1
 -2      4156      4116      4269      4275      4777      4780      4781      7093      6110      7041
 -1      4190    6    0    1
 -2      4105      4144      4248      4333      6864      7319      7189      6195      7173      7322
 -1      4191    6    0    1
 -2      4105      4304      4189      4333      6131      6132      6007      6195      6708      7174
 -1      4192    6    0    1
 -2      4113      3023      4252      4317      7225      7435      7436      5990      7226      7437
 -1      4193    6    0    1
 -2      2328      2110      2120      4166      6407      2206      7420      6406      6398      7423
 -1      4194    6    0    1
 -2      4143      4098      4210      4346      6935      5265      6113      7330      4930      7332
 -1      4195    6    0    1
 -2      4098      4151      4183      4222      4986      5299      4676      4927      4805      7202
 -1      4196    6    0    1
 -2      2721      1676      2713      4276      7438      7279      2790      7439      7280      5827
 -1      4197    6    0    1
 -2      4092      4268      4132      4282      4966      5981      5980      6084      6085      6471
 -1      4198    6    0    1
 -2      2974      4243      4181      4285      7440      7441      7069      6962      7049      7070
 -1      4199    6    0    1
 -2      4130      4149      4228      4296      7442      5274      6335      5096      6941      7428
 -1      4200    6    0    1
 -2      2967      3108      2968      4323      3872      3871      3809      7170      6302      6303
 -1      4201    6    0    1
 -2      4112      4184      4216      4334      5458      7443      6461      7444      7445      5817
 -1      4202    6    0    1
 -2       626       664       627      4292       919       971       932      5785      6891      5004
 -1      4203    6    0    1
 -2      1319      1136      1126      4348      7446      1224      7447      7303      4585      7448
 -1      4204    6    0    1
 -2      4113      4252      3023      4327      7436      7435      7225      5956      4647      7258
 -1      4205    6    0    1
 -2      3087      4179      4203      4302      7312      6221      7313      7449      6648      6769
 -1      4206    6    0    1
 -2      3093      4260      3086      4320      5665      7122      3760      5654      5666      7123
 -1      4207    6    0    1
 -2      1667      4132      1718      4273      6466      7283      1911      6718      6719      7406
 -1      4208    6    0    1
 -2      1149      3053      1304      4348      6600      7066      7425      6601      4919      7450
 -1      4209    6    0    1
 -2      2907      2906      4161      4324      3563      6997      7451      5973      7107      7032
 -1      4210    6    0    1
 -2      1717      1718      4132      4231      1912      7283      7452      7453      7282      6618
 -1      4211    6    0    1
 -2       655       659       637      4172       964       908       897      6828      6620      7413
 -1      4212    6    0    1
 -2      4190      4241      4096      4272      7006      5378      6078      7246      5380      5348
 -1      4213    6    0    1
 -2      1677      4187      4128      4276      7454      5021      6898      6899      7109      5828
 -1      4214    6    0    1
 -2      1719      4266      1663      4273      6573      6800      1891      6502      6267      7455
 -1      4215    6    0    1
 -2      4178      4186      4119      4246      5593      6380      5614      6726      7456      5844
 -1      4216    6    0    1
 -2      4116      4186      4178      4246      5592      5593      5532      6107      7456      6726
 -1      4217    6    0    1
 -2      2870      4154      1302      4319      7396      7214      7395      7457      7155      7458
 -1      4218    6    0    1
 -2      2945      2943      2944      4156      3756      3751      3757      4819      6383      5435
 -1      4219    6    0    1
 -2      3102      3013      3099      4298      3868      3720      3988      4975      6093      5720
 -1      4220    6    0    1
 -2      4108      4135      4186      4355      7011      7114      7113      6254      7460      7459
 -1      4221    6    0    1
 -2      1740      4262      4295      4339      6786      7461      7462      6787      6437      7463
 -1      4222    6    0    1
 -2      1752      4168      4265      4333      7464      7077      7465      7466      7321      7467
 -1      4223    6    0    1
 -2      4101      4215      4142      4254      5525      6801      7468      5412      6421      6803
 -1      4224    6    0    1
 -2      4192      4238      2995      4307      6879      6937      6936      6954      5105      7469
 -1      4225    6    0    1
 -2      1006      1026       668      4158      1042      7470      7471      7472      7474      7473
 -1      4226    6    0    1
 -2      2131      4166      2130      4343      6871      6885      2223      7475      7025      7071
 -1      4227    6    0    1
 -2      4167      4171      4094      4187      4591      5660      5849      4906      4421      6316
 -1      4228    6    0    1
 -2      2361      2341      4159      4280      2379      7476      7352      7355      7477      7357
 -1      4229    6    0    1
 -2      2735      2732      4193      4342      2824      5402      7433      7478      5403      5404
 -1      4230    6    0    1
 -2      4091      4170      4301      4338      7479      6956      6187      6188      6699      6001
 -1      4231    6    0    1
 -2      4108      4274      4220      4356      6226      6599      6598      7387      7057      6539
 -1      4232    6    0    1
 -2      4122      4157      4249      4312      7480      5284      5483      6670      6919      6920
 -1      4233    6    0    1
 -2      1711      4168      4127      4277      7359      7358      6778      7053      7481      6375
 -1      4234    6    0    1
 -2      4168      4248      4154      4353      7318      7153      7424      7482      7484      7483
 -1      4235    6    0    1
 -2       490      2266        49      4326      7216      7485       529      7217      7218      7486
 -1      4236    6    0    1
 -2      2959      4142      2961      4341      5730      6916      3791      5731      5674      7430
 -1      4237    6    0    1
 -2      4096      4143      4210      4243      7031      6113      5498      5995      7096      7329
 -1      4238    6    0    1
 -2      3050      4306      4270      4337      7487      7254      7488      7489      6967      6017
 -1      4239    6    0    1
 -2       603       640      2264      4230       734      7490      7491      6880      7493      7492
 -1      4240    6    0    1
 -2      4112      4216      4184      4335      6461      7443      5458      5350      7494      6157
 -1      4241    6    0    1
 -2      1016      4158      4281      4351      6329      6807      7495      6330      6331      6270
 -1      4242    6    0    1
 -2      2896      2882      4137      4261      3456      5941      6454      6626      6883      6345
 -1      4243    6    0    1
 -2      1661       395      2725      2712      1859      2783      6201      6181      2779      2784
 -1      4244    6    0    1
 -2      2728      4212      2714      4276      5771      7257      2835      6031      6704      7405
 -1      4245    6    0    1
 -2       414      2106      3037      2878      2174      6286      3329      3333      6534      3334
 -1      4246    6    0    1
 -2       612      4207       650      4239      7496      5920       951      7497      5355      5919
 -1      4247    6    0    1
 -2      1731       395      2725      1661      1861      2783      6219      1863      1859      6201
 -1      4248    6    0    1
 -2      4186      4246      4135      4332      7456      6976      7114      7115      6338      5728
 -1      4249    6    0    1
 -2       499      4316      4165      4330      6378      7498      7499      6379      5031      7500
 -1      4250    6    0    1
 -2      2125      4152      2889      4317      7298      7299      7297      7501      7503      7502
 -1      4251    6    0    1
 -2      3043      3044      3045      4134      4029      4036      4035      6963      5085      7117
 -1      4252    6    0    1
 -2       613      3082      2872      4257      6933      3185      6261      5181      4982      6263
 -1      4253    6    0    1
 -2      1279      2349      2269      4236      7263      2447      7504      7186      7265      6340
 -1      4254    6    0    1
 -2       609       648       632      4240       934       933       760      6765      6464      7403
 -1      4255    6    0    1
 -2      3129      3097      4250      4328      3914      4842      7505      7506      6972      6973
 -1      4256    6    0    1
 -2       668      4158      1026      4262      7473      7474      7470      7507      5577      7508
 -1      4257    6    0    1
 -2      2105      2118      2129      4137      2172      2215      2214      6247      5940      6439
 -1      4258    6    0    1
 -2      3089      2959      2977      4335      3570      3838      3840      5490      5765      5162
 -1      4259    6    0    1
 -2      1673      1740      1744      4262      1944      1943      1942      7145      6786      6434
 -1      4260    6    0    1
 -2      2712      1713       394      2724      6773      1856      2780      2781      6774      2776
 -1      4261    6    0    1
 -2      1721      1719      1720      4221      1890      2098      2021      5818      6146      7003
 -1      4262    6    0    1
 -2       648      4217       656      4289      5878      7222       886      6748      6749      7509
 -1      4263    6    0    1
 -2      3089      3095      2947      4184      3780      3779      3560      5456      5457      6452
 -1      4264    6    0    1
 -2      1713       394      1661      2712      1856      1858      1860      6773      2780      6181
 -1      4265    6    0    1
 -2      3010      3009      2893      4193      3513      3350      3514      4502      6459      5538
 -1      4266    6    0    1
 -2      4123      4132      4293      4303      7510      7284      6149      6314      6925      7511
 -1      4267    6    0    1
 -2      2902      4161      2904      4222      7287      6056      3552      5947      6134      6202
 -1      4268    6    0    1
 -2      2121      4218      2132      4232      6983      6209      2233      6515      6548      6631
 -1      4269    6    0    1
 -2      1316      1327      1325      4273      1569      1624      1558      6717      7043      6938
 -1      4270    6    0    1
 -2      4144      4204      4121      4265      5548      6543      6724      7512      5079      6542
 -1      4271    6    0    1
 -2      4115      4204      4144      4265      5791      5548      5792      6041      5079      7512
 -1      4272    6    0    1
 -2      2715      2733      2722      4196      2842      2841      2815      5960      5528      4628
 -1      4273    6    0    1
 -2      4099      4241      4190      4272      5399      7006      4994      7167      5380      7246
 -1      4274    6    0    1
 -2      2878       414      2106      2119      3333      2174      6534      6571      2176      2178
 -1      4275    6    0    1
 -2      4122      4279      4140      4341      6545      5657      6928      7513      6970      6968
 -1      4276    6    0    1
 -2      2269      1279      4236      4249      7504      7186      6340      6341      7187      5285
 -1      4277    6    0    1
 -2      1700      1702      4149      4245      2065      5207      5775      5777      5247      5248
 -1      4278    6    0    1
 -2      4110      4211      4148      4285      5111      6321      4386      6277      6320      5588
 -1      4279    6    0    1
 -2      2973      3122      2971      4285      3891      3890      3816      6276      5587      6122
 -1      4280    6    0    1
 -2      1312      1278      1333      4266      1420      1578      1577      6507      6906      6241
 -1      4281    6    0    1
 -2      2987      3083      2972      4136      3895      3894      3892      6593      6877      4949
 -1      4282    6    0    1
 -2      2115      2114      2122      4235      2230      2258      2257      5376      5834      7336
 -1      4283    6    0    1
 -2      1337      3125      3070      4305      7514      3273      7515      7516      7518      7517
 -1      4284    6    0    1
 -2       653      4207      4170      4352      6268      6697      7175      6269      5922      7519
 -1      4285    6    0    1
 -2      1010      4290      4138      4318      5692      4733      5691      7520      7398      6909
 -1      4286    6    0    1
 -2      4125      4136      4288      4315      7137      4832      5306      4391      6750      5522
 -1      4287    6    0    1
 -2      2118      2895       412      2882      5938      3323      2170      5937      3328      3327
 -1      4288    6    0    1
 -2      2977      3097      3095      4250      3913      3912      3911      5161      4842      5713
 -1      4289    6    0    1
 -2      1312      1333      1329      4266      1577      1634      1568      6507      6241      6264
 -1      4290    6    0    1
 -2      1329      4223      1327      4273      6159      7042      1571      6265      6504      7043
 -1      4291    6    0    1
 -2       651       652       611      4153       949       948       945      7085      7521      7028
 -1      4292    6    0    1
 -2      4141      4173      2130      4343      7343      7342      6884      7072      7522      7071
 -1      4293    6    0    1
 -2      2346      2275      4217      4289      2545      7523      6250      4689      7524      6749
 -1      4294    6    0    1
 -2      2721      2714      1674      4276      2793      7404      7525      7439      7405      7238
 -1      4295    6    0    1
 -2      4139      4263      4146      4357      6091      6092      5057      6663      7526      6665
 -1      4296    6    0    1
 -2      4135      4108      4220      4355      7011      6598      5725      7460      6254      7527
 -1      4297    6    0    1
 -2      4181      4243      2974      4346      7441      7440      7069      7528      7331      7529
 -1      4298    6    0    1
 -2      2320      2274      2318      4159      2540      2542      2541      6027      6947      6740
 -1      4299    6    0    1
 -2      3083      3060      2972      4325      3619      3815      3894      7530      6738      7531
 -1      4300    6    0    1
 -2      2348      1275      1317      4286      7532      1538      5964      4764      7208      5695
 -1      4301    6    0    1
 -2       396      2713      1664      1731      2786      5706      1864      1862      6271      1866
 -1      4302    6    0    1
 -2      2725      2713       396      1731      2787      2786      2782      6219      6271      1862
 -1      4303    6    0    1
 -2      3077      2965      3130      4292      3866      3863      3418      4658      5171      5120
 -1      4304    6    0    1
 -2       608      4158      2875      4281      5842      5841      5839      7392      6807      7394
 -1      4305    6    0    1
 -2      4120      4157      4140      4254      4913      6712      5238      5426      6887      5428
 -1      4306    6    0    1
 -2       665      3133       607      4164      7533      7534       784      4799      7536      7535
 -1      4307    6    0    1
 -2       489       621       506      4226      7408      7537       579      7409      7410      7538
 -1      4308    6    0    1
 -2      2106      4141      2130      4261      6284      6884      2221      7059      4793      6903
 -1      4309    6    0    1
 -2      4135      4220      4160      4355      5725      7539      7540      7460      7527      7541
 -1      4310    6    0    1
 -2       662      2875      3136      4281      7391      3218      7542      7393      7394      7543
 -1      4311    6    0    1
 -2      4175      4260      4115      4320      7334      5664      4808      7231      5666      5655
 -1      4312    6    0    1
 -2      4109      4203      4198      4309      5752      6821      5324      6068      6849      6142
 -1      4313    6    0    1
 -2      4184      4216      4097      4335      7443      5816      7065      6157      7494      6021
 -1      4314    6    0    1
 -2      1719      1663      1751      4273      1891      1838      1892      6502      7455      7544
 -1      4315    6    0    1
 -2      2881      3103      3150      4239      3449      3455      3454      7144      5354      6934
 -1      4316    6    0    1
 -2      3148      4160      4237      4355      6280      5201      6281      7545      7541      6629
 -1      4317    6    0    1
 -2      4173      4213      2357      4343      7094      7227      7256      7522      7026      7223
 -1      4318    6    0    1
 -2      3095      2947      4184      4208      3779      6452      5457      5510      6756      5512
 -1      4319    6    0    1
 -2      1748      1735      1733      4352      1921      2104      2103      6477      7546      6479
 -1      4320    6    0    1
 -2      3083      2972      4136      4325      3894      4949      6877      7530      7531      6563
 -1      4321    6    0    1
 -2      3073      2917      3054      4182      3615      3629      3628      4890      4363      4418
 -1      4322    6    0    1
 -2       652       611      4153      4253       948      7028      7521      7327      7029      4923
 -1      4323    6    0    1
 -2      4095      4128      4237      4356      5216      4522      4904      7033      7206      7386
 -1      4324    6    0    1
 -2       490        48      2266      4315       528      7547      7216      6974      7548      7215
 -1      4325    6    0    1
 -2      3045      4165      4134      4316      7289      7288      7117      7333      7498      6637
 -1      4326    6    0    1
 -2      4136      4209      4117      4288      5864      4393      5863      4832      5394      5279
 -1      4327    6    0    1
 -2       653       650       612      4207       954       951       952      6268      5920      7496
 -1      4328    6    0    1
 -2      1697      1757      1696      4202      2047      2046      2036      5555      5687      7349
 -1      4329    6    0    1
 -2      4180      4193      4092      4342      7008      4501      7009      6980      5404      5450
 -1      4330    6    0    1
 -2      4108      4323      4186      4332      5365      6382      7113      6229      7549      7115
 -1      4331    6    0    1
 -2      4126      4112      4250      4284      5636      5349      4841      4762      5290      6842
 -1      4332    6    0    1
 -2      4181      4098      4256      4283      7550      5813      5736      7052      5215      7551
 -1      4333    6    0    1
 -2      4100      4137      4166      4261      6623      6440      5068      4794      6345      6873
 -1      4334    6    0    1
 -2      3030      3110      2890      4196      3503      3368      3501      6649      5417      6116
 -1      4335    6    0    1
 -2       656      4217      2275      4289      7222      7523      7552      7509      6749      7524
 -1      4336    6    0    1
 -2      2294      2331      2283      4210      2578      2577      2566      6734      5263      5497
 -1      4337    6    0    1
 -2      2733      2715      2728      4196      2842      2843      2845      5528      5960      5098
 -1      4338    6    0    1
 -2      4110      4181      4143      4285      7051      7372      5108      6277      7070      6867
 -1      4339    6    0    1
 -2      3020      3019      4214      4350      3511      7389      7079      7081      7390      7082
 -1      4340    6    0    1
 -2      2723      2883      2717      4193      7553      7554      2803      6044      7556      7555
 -1      4341    6    0    1
 -2      4118      4242      4129      4244      6074      5441      7557      5927      5984      4625
 -1      4342    6    0    1
 -2      3101      3006      2875      4158      3413      3415      3414      5005      6808      5841
 -1      4343    6    0    1
 -2      4100      4166      4141      4261      5068      6870      4749      4794      6873      4793
 -1      4344    6    0    1
 -2      3137       611      2886      4240      7558      7351      3176      7559      7027      6730
 -1      4345    6    0    1
 -2      2116      2267      2330      4173      6429      2463      7560      6428      6427      7561
 -1      4346    6    0    1
 -2      1758      4255      1665      4299      6235      7562      1903      6192      5807      7563
 -1      4347    6    0    1
 -2      4200      4256      4098      4283      6792      5813      4678      6348      7551      5215
 -1      4348    6    0    1
 -2      2293      4284      2324      4312      6444      6524      2625      6445      6446      6671
 -1      4349    6    0    1
 -2       258      1021       259      4321      1079      1078       268      4649      6156      4439
 -1      4350    6    0    1
 -2      3109      4234      1309      4344      7564      7565      7566      7567      6684      7568
 -1      4351    6    0    1
 -2      2735      4193      4180      4342      7433      7008      7171      7478      5404      6980
 -1      4352    6    0    1
 -2      4097      4142      4215      4335      7400      6801      6018      6021      5164      6023
 -1      4353    6    0    1
 -2      1304      3053        70      4330      7066      4918      7426      7067      6476      4562
 -1      4354    6    0    1
 -2       504        51       500      4188       535       537       539      5918      5384      5227
 -1      4355    6    0    1
 -2      2907      2906      2904      4161      3563      3562      3564      7451      6997      6056
 -1      4356    6    0    1
 -2      4169      4260      2938      4349      6307      5942      6589      6011      6308      7569
 -1      4357    6    0    1
 -2      1011      1728       240      4263      7293      7570      1054      6090      7294      7571
 -1      4358    6    0    1
 -2      1738      4221      1720      4293      6423      7003      2024      6424      6150      7004
 -1      4359    6    0    1
 -2      2944      2945      4156      4314      3757      4819      5435      5267      4969      4970
 -1      4360    6    0    1
 -2       599      2268       642      4289      7572      7379       743      7573      7380      7381
 -1      4361    6    0    1
 -2      3101      4177      3005      4351      5006      7574      3985      7575      6332      7576
 -1      4362    6    0    1
 -2      2902      3040      2904      4161      3554      3553      3552      7287      6135      6056
 -1      4363    6    0    1
 -2       599       656      2275      4289       746      7552      7577      7573      7509      7524
 -1      4364    6    0    1
 -2      4096      4210      4161      4243      5498      5757      7050      5995      7329      7373
 -1      4365    6    0    1
 -2      1671      4295      4130      4339      7578      6681      7244      7338      7463      7340
 -1      4366    6    0    1
 -2      1680      4274      1678      4356      6225      7055      1957      7056      7057      7579
 -1      4367    6    0    1
 -2      4138      4197      4139      4255      5744      5773      5957      5803      7084      7281
 -1      4368    6    0    1
 -2      1342      2274      1281      4159      7580      6948      1555      7353      6947      6946
 -1      4369    6    0    1
 -2      2318      4159      2341      4311      6740      7476      2534      6741      6029      7581
 -1      4370    6    0    1
 -2      3109      2871      1309      4234      3261      7582      7566      7564      6931      7565
 -1      4371    6    0    1
 -2      1288      1309      2871      4234      1458      7582      6929      6932      7565      6931
 -1      4372    6    0    1
 -2      2116      2330      2109      4173      7560      7583      2200      6428      7561      7584
 -1      4373    6    0    1
 -2      4093      4206      4137      4225      4685      7185      7194      5019      5020      6441
 -1      4374    6    0    1
 -2      2122      4235      4152      4317      7336      7585      7020      7337      5989      7503
 -1      4375    6    0    1
 -2       661      4271      4129      4292      6073      5211      5977      5978      6733      4947
 -1      4376    6    0    1
 -2      3137       632       611      4240      7586       763      7558      7559      7403      7027
 -1      4377    6    0    1
 -2      2118      2129      4137      4261      2215      6439      5940      6882      6971      6345
 -1      4378    6    0    1
 -2      2321      2323      2322      4157      2706      2705      2519      5282      7200      6918
 -1      4379    6    0    1
 -2       641      1735      4171      4352      7367      7370      7369      7587      7546      6478
 -1      4380    6    0    1
 -2      2735      4193      2717      4258      7433      7555      2853      7172      7434      7588
 -1      4381    6    0    1
 -2      4184      4097      4216      4334      7065      5816      7443      7445      5421      5817
 -1      4382    6    0    1
 -2      1678      4128      1677      4356      7054      6898      1899      7579      7206      7589
 -1      4383    6    0    1
 -2      2130      2127      4173      4340      2239      7021      7342      7344      7590      7345
 -1      4384    6    0    1
 -2      3061      2911      4147      4324      3585      6117      5319      5598      7591      5600
 -1      4385    6    0    1
 -2      1337      3070      4162      4305      7515      7592      7593      7516      7517      7594
 -1      4386    6    0    1
 -2      3008      3037      2897      4261      3435      3460      3529      6913      7058      4792
 -1      4387    6    0    1
 -2      2333      2306      2263      4188      2485      2484      2391      5334      5335      7204
 -1      4388    6    0    1
 -2      4159      4311      4120      4337      6029      6094      6158      7251      6736      6016
 -1      4389    6    0    1
 -2      4134      4311      4159      4337      7176      6029      7249      4961      6736      7251
 -1      4390    6    0    1
 -2      4100      4166      4137      4206      5068      6440      6623      5610      5611      7185
 -1      4391    6    0    1
 -2      1704      4150      1661      4274      7595      6180      1881      6574      5935      6182
 -1      4392    6    0    1
 -2      4124      4251      4151      4259      5409      5300      6174      5890      7596      4790
 -1      4393    6    0    1
 -2      1752      4299      4168      4333      7597      7360      7464      7466      6194      7321
 -1      4394    6    0    1
 -2      3087      2942      4179      4302      3746      6104      7312      7449      5759      6648
 -1      4395    6    0    1
 -2      1667      1717      4132      4282      1913      7452      6466      6469      7598      6471
 -1      4396    6    0    1
 -2      2268      2304      4153      4289      2510      5147      7377      7380      4601      5148
 -1      4397    6    0    1
 -2      4142      4097      4216      4335      7400      5816      7141      5164      6021      7494
 -1      4398    6    0    1
 -2      4114      4181      4256      4283      5733      5736      5000      7010      7052      7551
 -1      4399    6    0    1
 -2      3056      4204      3059      4269      6586      6641      3824      7325      5880      6642
 -1      4400    6    0    1
 -2      1699      1700      4149      4296      2055      5775      7599      7034      6217      6941
 -1      4401    6    0    1
 -2      4102      4295      4262      4339      6682      7461      5575      6436      7463      6437
 -1      4402    6    0    1
 -2      1737      1702      1666      4271      1906      1907      1794      7166      5210      6233
 -1      4403    6    0    1
 -2      1728      4255      4202      4263      7292      6326      7600      7294      7295      5688
 -1      4404    6    0    1
 -2      2879      3149      3036      4176      3439      3443      3442      6992      5362      4875
 -1      4405    6    0    1
 -2      2306      2332      2263      4188      2483      2482      2484      5335      5047      7204
 -1      4406    6    0    1
 -2      3151      2978      3041      4140      3915      3850      3916      5492      6702      5237
 -1      4407    6    0    1
 -2      4134      4104      4227      4311      5578      5569      7418      7176      6716      6533
 -1      4408    6    0    1
 -2      4159      2341      4311      4358      7476      7581      6029      7601      7603      7602
 -1      4409    6    0    1
 -2      2932      2933      2930      4197      3694      3693      3691      5774      5745      7038
 -1      4410    6    0    1
 -2      4108      4176      4128      4237      5361      4490      7385      5838      4524      4522
 -1      4411    6    0    1
 -2      4114      4256      4200      4283      5000      6792      6594      7010      7551      6348
 -1      4412    6    0    1
 -2        78      1120      1145      4329      1183      1186      1154      4432      4433      6334
 -1      4413    6    0    1
 -2      4116      4156      4135      4275      4777      7232      7233      6110      7093      4740
 -1      4414    6    0    1
 -2      2328       434      2262      2120      2468      2464      2469      7420      2202      7421
 -1      4415    6    0    1
 -2      2896      4137      2895      4313      6454      5939      3457      7315      6831      6832
 -1      4416    6    0    1
 -2      3126      4178      3012      4268      7060      5343      3489      7061      5982      6672
 -1      4417    6    0    1
 -2      4161      4183      4098      4210      6039      4676      6562      5757      4755      5265
 -1      4418    6    0    1
 -2      4127      4248      4168      4299      4458      7318      7358      4760      7604      7360
 -1      4419    6    0    1
 -2      4107      4156      4135      4314      5473      7232      4697      5266      4970      7234
 -1      4420    6    0    1
 -2      3123      3114      3155      4348      4060      4086      3469      5155      4680      4681
 -1      4421    6    0    1
 -2      1021      4197      1011      4321      6155      6387      1108      6156      5190      5297
 -1      4422    6    0    1
 -2      1714      1713      1730      4180      1928      1883      2088      5177      7158      5310
 -1      4423    6    0    1
 -2       655       653       634      4207       901       953       962      6607      6268      6608
 -1      4424    6    0    1
 -2      1280      4229      1301      4277      7605      7606      1587      7607      6377      7608
 -1      4425    6    0    1
 -2      3075      4300      4192      4345      7314      6996      7248      7609      5235      7610
 -1      4426    6    0    1
 -2      3076      2951      4256      4346      3798      5811      7611      7612      4929      6508
 -1      4427    6    0    1
 -2      4134      4165       497      4316      7288      7613      7614      6637      7498      7615
 -1      4428    6    0    1
 -2      1705      1668      1748      4171      1918      1920      1919      5659      6169      4422
 -1      4429    6    0    1
 -2      4098      4183      4161      4222      4676      6039      6562      4927      7202      6134
 -1      4430    6    0    1
 -2      4111      4199      4145      4354      5540      5286      6762      5597      5855      7110
 -1      4431    6    0    1
 -2      3149      2879      2981      4176      3439      3438      3440      5362      6992      6536
 -1      4432    6    0    1
 -2      1708      4170      1736      4172      7046      7616      1884      6119      6829      7617
 -1      4433    6    0    1
 -2      1322      4159      1281      4236      7618      6946      1592      7619      6026      6949
 -1      4434    6    0    1
 -2      2883      2717      4193      4258      7554      7555      7556      7620      7588      7434
 -1      4435    6    0    1
 -2       508       625       489      4164      5072      7621       578      4801      5073      7622
 -1      4436    6    0    1
 -2      4142      4250      4122      4341      5160      6874      6921      5674      5675      7513
 -1      4437    6    0    1
 -2      3018      2886      3016      4240      3480      3479      3481      7180      6730      4612
 -1      4438    6    0    1
 -2      1311      1329      1288      4234      1633      1632      1455      6359      6162      6932
 -1      4439    6    0    1
 -2      2328       434      2120      2110      2468      2202      7420      6407      2204      2206
 -1      4440    6    0    1
 -2      2978      4279      3153      4341      6703      6999      3910      6969      6970      7002
 -1      4441    6    0    1
 -2      1282      1337      3070      4162      1470      7515      7623      7624      7593      7592
 -1      4442    6    0    1
 -2      1684      1688      1682      4135      1979      1978      1976      4698      6994      5763
 -1      4443    6    0    1
 -2       492      4182      4134      4316      7625      4959      7626      7627      4417      6637
 -1      4444    6    0    1
 -2      2288      4183      2285      4210      4641      4692      2587      5264      4755      4753
 -1      4445    6    0    1
 -2       432      2116      2267      2330      2196      6429      2458      2462      7560      2463
 -1      4446    6    0    1
 -2      3020       632      3137      4240      7402      7586      3173      7080      7403      7559
 -1      4447    6    0    1
 -2      4134      4182       492      4227      4959      7625      7626      7418      5229      7628
 -1      4448    6    0    1
 -2      3043      3039      3044      4337      4028      4030      4029      6966      4813      5236
 -1      4449    6    0    1
 -2      4129      4172      4118      4245      5808      5461      7557      5246      5466      5464
 -1      4450    6    0    1
 -2      1322      1281      1315      4236      1592      1553      1593      7619      6949      7264
 -1      4451    6    0    1
 -2      1684      1688      4135      4275      1979      6994      4698      4738      7629      4740
 -1      4452    6    0    1
 -2      2311      2335      2351      4283      2631      2689      2686      6818      5127      5719
 -1      4453    6    0    1
 -2      2933      3063      3074      4197      3708      3710      3695      5745      6728      7161
 -1      4454    6    0    1
 -2      1342      2361      2274      4159      7354      2451      7580      7353      7352      6947
 -1      4455    6    0    1
 -2      2895      2118       412      2105      5938      2170      3323      6246      2172      2168
 -1      4456    6    0    1
 -2      1018      1011      4197      4255      1055      6387      7083      5802      7291      7084
 -1      4457    6    0    1
 -2      4111      4141      4173      4340      5032      7343      7630      4863      4997      7345
 -1      4458    6    0    1
 -2       665      2885      3133      4164      4798      3197      7533      4799      4800      7536
 -1      4459    6    0    1
 -2      2284      4163      2290      4310      5738      7631      2581      6652      6653      7147
 -1      4460    6    0    1
 -2      4091      4247      4167      4264      4593      4594      4592      4635      7632      6457
 -1      4461    6    0    1
 -2      2907      4243      4161      4346      5971      7373      7451      7633      7331      6136
 -1      4462    6    0    1
 -2      1019      4130      1012      4177      6086      7375      1064      6553      6336      7374
 -1      4463    6    0    1
 -2      1748      4171      1735      4352      4422      7370      1921      6477      6478      7546
 -1      4464    6    0    1
 -2      2981      2879      3107      4176      3438      3359      3437      6536      6992      5966
 -1      4465    6    0    1
 -2      1022      4177      1016      4351      7634      6328      1092      7635      6332      6330
 -1      4466    6    0    1
 -2      2944      4160      3092      4314      6790      7306      3763      5267      6791      7636
 -1      4467    6    0    1
 -2      1149      1137        70      4348      1164      1163      1150      6601      4456      4399
 -1      4468    6    0    1
 -2      2987      2995      3083      4238      3941      3943      3895      5677      6937      6878
 -1      4469    6    0    1
 -2      4124      4200      4151      4251      5406      5584      6174      5409      4705      5300
 -1      4470    6    0    1
 -2      2109      2116       432      2330      2200      2196      2198      7583      7560      2462
 -1      4471    6    0    1
 -2      4139      4197      1011      4255      5773      6387      5296      7281      7084      7291
 -1      4472    6    0    1
 -2      1339      4154      4277      4319      7637      7638      7639      7640      7155      7641
 -1      4473    6    0    1
 -2      4128      4176      4108      4274      4490      5361      7385      5709      6493      6226
 -1      4474    6    0    1
 -2      3149      4323      2981      4355      5363      6537      3440      6255      6256      7642
 -1      4475    6    0    1
 -2      2951      4151      3014      4256      4985      6175      3545      5811      5812      6179
 -1      4476    6    0    1
 -2      1680      1732      1704      4332      1968      1970      1960      6228      5727      6575
 -1      4477    6    0    1
 -2      4107      4160      4135      4287      7188      7540      4697      4700      7007      4702
 -1      4478    6    0    1
 -2      1301      1343      4162      4229      1657      6844      7643      7606      6847      6848
 -1      4479    6    0    1
 -2      3043      4306      3050      4337      6965      7487      4037      6966      6967      7489
 -1      4480    6    0    1
 -2      1688      4246      4135      4275      6995      6976      6994      7629      6112      4740
 -1      4481    6    0    1
 -2      4103      4260      4175      4320      5943      7334      4720      5946      5666      7231
 -1      4482    6    0    1
 -2        31      2276      2278      4315      2398      2400      2396      7644      6413      6414
 -1      4483    6    0    1
 -2      2287      4183      2336      4334      4774      5750      2594      5420      5925      7119
 -1      4484    6    0    1
 -2      2349      2274      2320      4236      2450      2540      2517      7265      6950      4915
 -1      4485    6    0    1
 -2      1283      3127      1340      4165      7645      7646      1497      7647      7649      7648
 -1      4486    6    0    1
 -2       643      1135       644      4329      7650      7416       881      7324      7417      5762
 -1      4487    6    0    1
 -2      4123      4293      4221      4303      6149      6150      5620      6314      7511      7651
 -1      4488    6    0    1
 -2      4112      4199      4184      4334      5287      6868      5458      7444      7277      7445
 -1      4489    6    0    1
 -2      4250      4279      4122      4341      7000      6545      6874      5675      6970      7513
 -1      4490    6    0    1
 -2      3090       634      4207      4338      6989      6608      7652      6990      6577      6609
 -1      4491    6    0    1
 -2      2936      4291      4169      4357      6804      6605      7653      6805      6354      7654
 -1      4492    6    0    1
 -2      3029      3031      3030      4196      4013      4012      3502      6125      7274      6649
 -1      4493    6    0    1
 -2      4156      4175      4107      4275      7655      4851      5473      7093      4812      4739
 -1      4494    6    0    1
 -2      4151      4251      4100      4259      5300      5393      4568      4790      7596      4789
 -1      4495    6    0    1
 -2      4137      4259      4206      4350      6343      7656      7185      7195      6739      6546
 -1      4496    6    0    1
 -2      4105      4248      4138      4299      7189      4731      7190      6191      7604      5806
 -1      4497    6    0    1
 -2      4138      4248      4127      4299      4731      4458      4817      5806      7604      4760
 -1      4498    6    0    1
 -2      1332      1323      4201      4282      1561      5882      7286      7657      6083      6753
 -1      4499    6    0    1
 -2      3086      3093      2975      4260      3760      3906      3785      7122      5665      5550
 -1      4500    6    0    1
 -2      4170      4207      4091      4352      6697      4411      7479      7519      5922      6077
 -1      4501    6    0    1
 -2      1700      1702      1701      4149      2065      2064      2060      5775      5207      6183
 -1      4502    6    0    1
 -2      4132      4123      4223      4303      7510      6160      6945      6925      6314      6315
 -1      4503    6    0    1
 -2      2344      2271      2313      4286      2432      2526      2525      6853      7658      5025
 -1      4504    6    0    1
 -2      4116      4221      4293      4303      6152      6150      6153      6065      7651      7511
 -1      4505    6    0    1
 -2      2946      2944      2942      4302      3753      3752      3754      7016      5758      5759
 -1      4506    6    0    1
 -2      3117      2877      2982      4242      3428      3427      3429      5983      5439      6075
 -1      4507    6    0    1
 -2      2128      4232      2132      4317      7659      6631      2252      7660      6632      6356
 -1      4508    6    0    1
 -2      4122      4157      4140      4249      7480      6712      6928      5483      5284      6196
 -1      4509    6    0    1
 -2      2932      2934      4139      4357      3702      7431      5058      6664      7661      6663
 -1      4510    6    0    1
 -2      1318      1136      1319      4348      4883      7446      1407      5795      4585      7303
 -1      4511    6    0    1
 -2      2284      2285      2286      4163      2574      2580      2579      5738      4691      4690
 -1      4512    6    0    1
 -2      2933      4139      2934      4347      5998      7431      3701      5746      5958      7662
 -1      4513    6    0    1
 -2      2355      2328      2356      4166      2536      2477      2666      6481      6406      5326
 -1      4514    6    0    1
 -2      2945      3093      4156      4269      3759      5651      4819      4820      5669      4781
 -1      4515    6    0    1
 -2      4118      4172      4129      4242      5461      5808      7557      6074      6487      5441
 -1      4516    6    0    1
 -2      4130      4296      4174      4298      5096      6942      7427      6337      7663      6709
 -1      4517    6    0    1
 -2       489      4164       666      4226      7622      7664      7407      7409      6501      7411
 -1      4518    6    0    1
 -2      2901      2900      2902      4222      3537      3542      3541      4871      4804      5947
 -1      4519    6    0    1
 -2       503       493      4238      4307       571      7044      6951      6953      7045      5105
 -1      4520    6    0    1
 -2      4111      4194      4131      4213      4862      5985      6640      5543      7665      4711
 -1      4521    6    0    1
 -2      1668       600      1735      4171      6222      7368      1782      6169      6223      7370
 -1      4522    6    0    1
 -2      4131      4194      4100      4213      5985      4675      5392      4711      7665      5391
 -1      4523    6    0    1
 -2      2308      4200      2305      4251      4644      5272      2671      4704      4705      5408
 -1      4524    6    0    1
 -2      4156      4175      4115      4320      7655      4808      5652      5436      7231      5655
 -1      4525    6    0    1
 -2      1707      4133      4301      4309      6777      6393      7311      6755      6141      5685
 -1      4526    6    0    1
 -2      4145      4199      4111      4208      5286      5540      6762      5570      7335      5251
 -1      4527    6    0    1
 -2       504       500       494      4182       539       595       591      5916      5228      5338
 -1      4528    6    0    1
 -2       494       491      4182      4359       562      5501      5338      5339      5503      4368
 -1      4529    6    0    1
 -2      2940      2939      4179      4291      3732      7666      6758      6757      7268      5640
 -1      4530    6    0    1
 -2      2290      4310      4163      4336      7147      6653      7631      7148      6530      6841
 -1      4531    6    0    1
 -2      4150      4176      4108      4323      5780      5361      7667      7121      5364      5365
 -1      4532    6    0    1
 -2      2106      2130      2131      4261      2221      2223      2220      7059      6903      6872
 -1      4533    6    0    1
 -2      1312      1746      1278      4266      7668      7669      1420      6507      7670      6906
 -1      4534    6    0    1
 -2      1718      1667      1717      4132      1911      1913      1912      7283      6466      7452
 -1      4535    6    0    1
 -2      4220      4237      4108      4356      7671      5838      6598      6539      7386      7387
 -1      4536    6    0    1
 -2      4202      4347      4169      4357      7672      7673      7674      7675      7676      7654
 -1      4537    6    0    1
 -2      4123      4132      4273      4293      7510      6719      6266      6149      7284      6503
 -1      4538    6    0    1
 -2      1291      1322      1335      4270      1645      1649      1648      6260      7677      6522
 -1      4539    6    0    1
 -2      2872      3017      4253      4257      3394      6279      6278      6263      6725      5219
 -1      4540    6    0    1
 -2      2929      4197      3074      4318      5075      7161      3686      4571      5076      7162
 -1      4541    6    0    1
 -2      2111      2342      4217      4225      7678      6666      7196      7209      6667      6252
 -1      4542    6    0    1
 -2      4124      4206      4251      4259      4599      6339      5409      5890      7656      7596
 -1      4543    6    0    1
 -2      4214      4313      4093      4350      6319      5910      5907      7082      7317      6143
 -1      4544    6    0    1
 -2       603      2264      2337      4230      7491      2413      7247      6880      7492      6258
 -1      4545    6    0    1
 -2      2354      4235      4145      4354      7361      6310      6856      7679      7014      7110
 -1      4546    6    0    1
 -2      3149      2969      4237      4355      3880      7680      5837      6255      7681      6629
 -1      4547    6    0    1
 -2      4117      4190      4243      4272      5314      6224      7048      4532      7246      7097
 -1      4548    6    0    1
 -2      4162      4290      1017      4305      5131      7682      7683      7594      6370      5924
 -1      4549    6    0    1
 -2      1697      1694      4185      4304      2037      4823      5553      5623      5740      5625
 -1      4550    6    0    1
 -2      1708      1703      1707      4301      2075      2074      2076      5814      6127      7311
 -1      4551    6    0    1
 -2      1322      4236      1335      4270      7619      6744      1649      7677      6745      6522
 -1      4552    6    0    1
 -2      2950      2959      2905      4335      3569      3568      3566      7684      5765      6814
 -1      4553    6    0    1
 -2      1009      4297       260      4322      6396      4426      1085      7098      4891      4868
 -1      4554    6    0    1
 -2      2941      4179      2939      4291      5639      7666      3737      5204      5640      7268
 -1      4555    6    0    1
 -2      4141      4166      4100      4213      6870      5068      4749      7685      5546      5391
 -1      4556    6    0    1
 -2      2117      2129      2110      4225      2241      2240      2209      7230      6399      6400
 -1      4557    6    0    1
 -2      2908      4147      2911      4324      6049      6117      3583      6204      5600      7591
 -1      4558    6    0    1
 -2      2957      3087      2941      4203      3750      3747      3748      5751      7313      5753
 -1      4559    6    0    1
 -2       664      4262       606      4271      6890      7686       920      7005      6519      7687
 -1      4560    6    0    1
 -2      4111      4173      4213      4354      7630      7094      5543      5597      7012      5754
 -1      4561    6    0    1
 -2      2736      2724      2735      4180      2826      2820      2856      7088      7159      7171
 -1      4562    6    0    1
 -2      2875      4158      3006      4281      5841      6808      3415      7394      6807      6806
 -1      4563    6    0    1
 -2      2342      2117      2273      4225      7688      7229      2475      6667      7230      7064
 -1      4564    6    0    1
 -2      4174      4228      4130      4298      6053      6335      7427      6709      5078      6337
 -1      4565    6    0    1
 -2       637       604       185      4172       863       862       858      7413      6070      7689
 -1      4566    6    0    1
 -2       660       658       603      4294       906       905       902      4446      5686      6881
 -1      4567    6    0    1
 -2      4150      4274      1704      4332      5935      6574      7595      6037      6230      6575
 -1      4568    6    0    1
 -2      2737      2734      2725      4176      2861      2833      2827      5836      5342      7047
 -1      4569    6    0    1
 -2       490      4192      4136      4326      6958      6876      6959      7217      7691      7690
 -1      4570    6    0    1
 -2      3034      3134      2894      4239      3452      3242      3517      5630      6680      5359
 -1      4571    6    0    1
 -2      4159      4280      2341      4358      7357      7477      7476      7601      7365      7603
 -1      4572    6    0    1
 -2      3061      2908      2911      4324      3574      3583      3585      5598      6204      7591
 -1      4573    6    0    1
 -2      1716      1724      1723      4246      2091      2007      2097      6811      5843      6108
 -1      4574    6    0    1
 -2      2941      2940      2939      4179      3736      3732      3737      5639      6758      7666
 -1      4575    6    0    1
 -2      2723      3009      2883      4193      6458      3353      7553      6044      6459      7556
 -1      4576    6    0    1
 -2      4122      4140      4157      4341      6928      6712      7480      7513      6968      7692
 -1      4577    6    0    1
 -2      2896      2897      2882      4261      3459      3458      3456      6626      4792      6883
 -1      4578    6    0    1
 -2      2950      2905      4215      4335      3566      6813      5524      7684      6814      6023
 -1      4579    6    0    1
 -2      4111      4173      4152      4340      7630      7023      4663      4863      7345      5829
 -1      4580    6    0    1
 -2       496      4164       498      4238      4958      5442       584      5103      5446      5445
 -1      4581    6    0    1
 -2      1339      4277      4154      4278      7639      7638      7637      7693      7695      7694
 -1      4582    6    0    1
 -2      4206      4259      4124      4350      7656      5890      4599      6546      6739      5367
 -1      4583    6    0    1
 -2      1670      4180      1715      4342      7696      6979      1929      7697      6980      6892
 -1      4584    6    0    1
 -2      1019      1012      4130      4295      1064      7375      6086      7139      7376      6681
 -1      4585    6    0    1
 -2      1736      4170       637      4172      7616      7412      7698      7617      6829      7413
 -1      4586    6    0    1
 -2      1738      1720      1723      4293      2024      2100      2009      6424      7004      6661
 -1      4587    6    0    1
 -2      1685      1687      1684      4175      1987      1986      1981      4850      4807      4852
 -1      4588    6    0    1
 -2      2283      2285      2284      4210      2575      2574      2570      5497      4753      5499
 -1      4589    6    0    1
 -2       501      4188      4155      4326      7036      5352      7699      7037      5896      7700
 -1      4590    6    0    1
 -2      2339       599      2275      4289      7701      7577      2425      7702      7573      7524
 -1      4591    6    0    1
 -2       490      4136      4315      4326      6959      6750      6974      7217      7690      7219
 -1      4592    6    0    1
 -2      4118      4301      4170      4338      5682      6956      6955      5141      6001      6699
 -1      4593    6    0    1
 -2      3019      2896      4313      4350      3521      7315      7388      7390      7316      7317
 -1      4594    6    0    1
 -2      4160      4220      4095      4237      7539      5702      5198      5201      7671      4904
 -1      4595    6    0    1
 -2      4181      4243      4143      4285      7441      7096      7372      7070      7049      6867
 -1      4596    6    0    1
 -2      4115      4175      4156      4275      4808      7655      5652      4811      4812      7093
 -1      4597    6    0    1
 -2       637      1662       602      4170      7703      7704       860      7412      7706      7705
 -1      4598    6    0    1
 -2      2129      2131      2110      4166      2244      2243      2240      6397      6871      6398
 -1      4599    6    0    1
 -2      4145      4235      4152      4354      6310      7585      6761      7110      7014      7241
 -1      4600    6    0    1
 -2      2111      2117      2342      4225      2212      7688      7678      7209      7230      6667
 -1      4601    6    0    1
 -2      1715      1672      4201      4282      1939      7707      6837      6839      7708      6753
 -1      4602    6    0    1
 -2      2304      2303      2302      4206      2667      2663      2668      4598      5307      6213
 -1      4603    6    0    1
 -2       656      2275       101       599      7552      2423       745       746      7577       741
 -1      4604    6    0    1
 -2      1336      1339      4154      4278      1644      7637      7709      7091      7693      7694
 -1      4605    6    0    1
 -2      1009       261       260      4297      1084       270      1085      6396      4415      4426
 -1      4606    6    0    1
 -2      4120      4270      4159      4337      5241      7255      6158      6016      6017      7251
 -1      4607    6    0    1
 -2      2287      2336      2291      4334      2594      2598      2597      5420      7119      7164
 -1      4608    6    0    1
 -2      1717      4231      4132      4282      7453      6618      7452      7598      7017      6471
 -1      4609    6    0    1
 -2      2896      4259      4137      4350      6455      6343      6454      7316      6739      7195
 -1      4610    6    0    1
 -2      4129      4118      4244      4245      7557      5927      4625      5246      5464      7710
 -1      4611    6    0    1
 -2      3153      2978      3104      4279      3910      3918      3446      6999      6703      5658
 -1      4612    6    0    1
 -2      4133      4287      4160      4302      6060      7007      6714      6732      7711      5857
 -1      4613    6    0    1
 -2      2735      2723      2717      4193      2852      2803      2853      7433      6044      7555
 -1      4614    6    0    1
 -2      1687      1684      4175      4275      1986      4852      4807      4810      4738      4812
 -1      4615    6    0    1
 -2      1011      4139      4255      4263      5296      7281      7291      6090      6091      7295
 -1      4616    6    0    1
 -2      4152      4235      4145      4252      7585      6310      6761      5644      7712      5572
 -1      4617    6    0    1
 -2      3129      4250      3153      4279      7505      7001      3448      7713      7000      6999
 -1      4618    6    0    1
 -2      2344      1275      2271      4286      7207      7714      2432      6853      7208      7658
 -1      4619    6    0    1
 -2      4106      4169      4202      4304      7074      7674      5556      5885      6130      5624
 -1      4620    6    0    1
 -2      1694      1693      1689      4304      2013      2012      2014      5740      7267      5742
 -1      4621    6    0    1
 -2      2311      2309      2331      4283      2684      2603      2629      6818      5213      5214
 -1      4622    6    0    1
 -2      4161      4210      4098      4346      5757      5265      6562      6136      7332      4930
 -1      4623    6    0    1
 -2      2915      4192      4155      4325      6986      6987      6984      7157      7715      7152
 -1      4624    6    0    1
 -2      4118      4203      4244      4309      5140      6275      5927      5684      6849      7716
 -1      4625    6    0    1
 -2       660       647       615      4148       969       966       967      4402      7717      4979
 -1      4626    6    0    1
 -2      4145      4252      4113      4327      5572      7436      5023      6923      4647      5956
 -1      4627    6    0    1
 -2      4118      4244      4245      4309      5927      7710      5464      5684      7716      5683
 -1      4628    6    0    1
 -2       640       601      2264      4331       737      7718      7490      7719      7721      7720
 -1      4629    6    0    1
 -2      2325      4191      2324      4284      5254      5903      2497      5255      4899      6524
 -1      4630    6    0    1
 -2      2983      4203      2957      4244      4554      5751      3828      5926      6275      5830
 -1      4631    6    0    1
 -2      2962      3061      3038      4195      3795      3600      3853      5513      5320      5142
 -1      4632    6    0    1
 -2      1743      4168      4277      4278      7075      7481      7722      6795      7078      7695
 -1      4633    6    0    1
 -2       187       606      1673      4271       868      7723      1795      7724      7687      7146
 -1      4634    6    0    1
 -2        49        48      2266       490        58      7547      7485       529       528      7216
 -1      4635    6    0    1
 -2      4248      4347      3062      4349      6342      6100      6205      7725      7727      7726
 -1      4636    6    0    1
 -2      1758      1712      1750      4333      1904      2087      2048      6193      7240      6707
 -1      4637    6    0    1
 -2      4094      4171      4167      4239      5660      4591      5849      4887      5969      5851
 -1      4638    6    0    1
 -2      1011       239      1728      4255      1053      7728      7293      7291      7729      7292
 -1      4639    6    0    1
 -2      4167      4187      4094      4196      4906      6316      5849      4902      4940      5097
 -1      4640    6    0    1
 -2      4159      4270      1322      4306      7255      7677      7618      7250      7254      7730
 -1      4641    6    0    1
 -2      4119      4180      4150      4258      5176      6035      6426      6686      7089      5783
 -1      4642    6    0    1
 -2      1699      4149      1701      4296      7599      6183      2059      7034      6941      7731
 -1      4643    6    0    1
 -2       263      1024       623      4281      1033      7732      6045      5954      7733      6046
 -1      4644    6    0    1
 -2      2105      4137      2129      4313      6247      6439      2214      6830      6831      7203
 -1      4645    6    0    1
 -2      3026      3023      4232      4317      3498      7224      7734      7735      7226      6632
 -1      4646    6    0    1
 -2      4129      4244      4149      4245      4625      5275      5208      5246      7710      5248
 -1      4647    6    0    1
 -2      4123      4221      4269      4303      5620      7040      7736      6314      7651      7326
 -1      4648    6    0    1
 -2      4139      4347      4202      4357      5958      7672      7737      6663      7676      7675
 -1      4649    6    0    1
 -2      1697      4185      1698      4296      5553      5054      2038      5332      6218      6216
 -1      4650    6    0    1
 -2      2290      4163      2286      4336      7631      4690      2582      7148      6841      6900
 -1      4651    6    0    1
 -2      1696      1758      1750      4304      2049      2048      2035      7350      6812      6705
 -1      4652    6    0    1
 -2      4167      4247      4095      4264      4594      5701      4903      6457      7632      5474
 -1      4653    6    0    1
 -2      3115      3050      4270      4337      3420      7488      6013      6015      7489      6017
 -1      4654    6    0    1
 -2      4123      4221      4204      4269      5620      5081      5621      7736      7040      5880
 -1      4655    6    0    1
 -2      2307      2315      2279      4211      2559      2558      2554      4787      4856      4636
 -1      4656    6    0    1
 -2      2948      2938      4260      4349      3727      5942      7383      7738      7569      6308
 -1      4657    6    0    1
 -2      2297      2354      2345      4145      2647      2646      2645      5471      6856      5868
 -1      4658    6    0    1
 -2      4100      4251      4206      4259      5393      6339      5610      4789      7596      7656
 -1      4659    6    0    1
 -2      2332      4241      2334      4310      5468      7135      2681      5048      5469      7136
 -1      4660    6    0    1
 -2      2890       454      2722      2715      3364      2811      7068      6115      2813      2815
 -1      4661    6    0    1
 -2      3153      3129      2976      4250      3448      3908      3909      7001      7505      6520
 -1      4662    6    0    1
 -2      4102      4130      4295      4339      6584      6681      6682      6436      7340      7463
 -1      4663    6    0    1
 -2      2953      2952      4186      4314      3767      7739      5594      4968      7740      7301
 -1      4664    6    0    1
 -2       642      4153       651      4289      7378      7085       883      7381      5148      7741
 -1      4665    6    0    1
 -2      4116      4269      4221      4303      4780      7040      6152      6065      7326      7651
 -1      4666    6    0    1
 -2      4128      1678      4274      4356      7054      7055      5709      7206      7579      7057
 -1      4667    6    0    1
 -2      4096      4243      4190      4272      5995      6224      6078      5348      7097      7246
 -1      4668    6    0    1
 -2      1019       242      1012      4295      1060      1062      1064      7139      7140      7376
 -1      4669    6    0    1
 -2      3129      3088      3097      4328      3445      4090      3914      7506      5854      6972
 -1      4670    6    0    1
 -2      4119      4186      4323      4332      6380      6382      6304      5180      7115      7549
 -1      4671    6    0    1
 -2       606      4262      1673      4271      7686      7145      7723      7687      6519      7146
 -1      4672    6    0    1
 -2      1704      1730      1661      4150      1880      1879      1881      7595      6036      6180
 -1      4673    6    0    1
 -2       220      1710      1665      4299      1817      1819      1815      7742      7156      7563
 -1      4674    6    0    1
 -2      4131      4184      4097      4222      6384      7065      7743      5987      5867      6203
 -1      4675    6    0    1
 -2      2958      4248      3062      4349      7744      6205      3730      7745      7725      7726
 -1      4676    6    0    1
 -2      2723      2735      2732      4193      2852      2824      2847      6044      7433      5402
 -1      4677    6    0    1
 -2      2939      2940      2938      4291      3732      3731      3723      7268      6757      6604
 -1      4678    6    0    1
 -2      3006      3101      3005      4351      3413      3985      3984      6809      7575      7576
 -1      4679    6    0    1
 -2      2310      2351      2364      4283      2685      2491      2688      6360      5719      6361
 -1      4680    6    0    1
 -2      4125      4211      4148      4267      4388      6321      6298      6555      6556      7746
 -1      4681    6    0    1
 -2      4109      4149      4244      4245      5776      5275      5832      5778      5248      7710
 -1      4682    6    0    1
 -2      4167      4171      4091      4239      4591      4590      4592      5851      5969      5356
 -1      4683    6    0    1
 -2      2271      2345      2313      4286      2528      2527      2526      7658      5619      5025
 -1      4684    6    0    1
 -2      4139      4106      4263      4357      7747      5193      6091      6663      6352      7526
 -1      4685    6    0    1
 -2      2328      2273       435      2110      2472      2471      2467      6407      7063      2205
 -1      4686    6    0    1
 -2      4123      4269      4204      4303      7736      5880      5621      6314      7326      6588
 -1      4687    6    0    1
 -2      2264       601      2338      4331      7718      7748      2416      7720      7721      7749
 -1      4688    6    0    1
 -2      4111      4173      4141      4213      7630      7343      5032      5543      7094      7685
 -1      4689    6    0    1
 -2      1674      1676      2721      4276      1872      7438      7525      7238      7280      7439
 -1      4690    6    0    1
 -2      1701      4296      4149      4339      7731      6941      6183      6184      7750      5518
 -1      4691    6    0    1
 -2      4161      4183      4097      4222      6039      4708      5756      6134      7202      6203
 -1      4692    6    0    1
 -2      4119      4246      4186      4332      5844      7456      6380      5180      6338      7115
 -1      4693    6    0    1
 -2       647       630       615      4148       965       778       966      7717      7193      4979
 -1      4694    6    0    1
 -2       640      2264      4230      4331      7490      7492      7493      7719      7720      6372
 -1      4695    6    0    1
 -2      4097      4183      4131      4222      4708      5749      7743      6203      7202      5987
 -1      4696    6    0    1
 -2      1334      1310      1335      4140      1638      1647      1586      6198      5455      6521
 -1      4697    6    0    1
 -2      1719      4273      1718      4293      6502      7406      1916      6148      6503      7285
 -1      4698    6    0    1
 -2      1746      1278      4266      4278      7669      6906      7670      7751      6907      6245
 -1      4699    6    0    1
 -2       636       615       126      3082       775       774       770      4383      4978      3184
 -1      4700    6    0    1
 -2      1291      3116      1310       331      5452      5451      1506      1501      3301      1505
 -1      4701    6    0    1
 -2      2284      2290      2334      4310      2581      2583      2572      6652      7147      7136
 -1      4702    6    0    1
 -2      4151      4200      4124      4256      5584      5406      6174      5812      6792      4716
 -1      4703    6    0    1
 -2      2908      2909      2910      4190      3576      3582      3581      6050      6079      4988
 -1      4704    6    0    1
 -2      2969      3149      2981      4355      3880      3440      3874      7681      6255      7642
 -1      4705    6    0    1
 -2      1704      1730      4150      4332      1880      6036      7595      6575      5311      6037
 -1      4706    6    0    1
 -2      2986      2987      2972      4288      3893      3892      3888      5304      5678      4950
 -1      4707    6    0    1
 -2      4092      4224      4201      4342      4963      6512      5884      5450      5405      6893
 -1      4708    6    0    1
 -2      2339      2268       599      4289      2422      7572      7701      7702      7380      7573
 -1      4709    6    0    1
 -2      2271      2348      2345      4286      2435      2529      2528      7658      4764      5619
 -1      4710    6    0    1
 -2      1689      1690      1687      4175      2002      2001      1993      4726      4925      4807
 -1      4711    6    0    1
 -2      3112      2870      3154      4154      3267      3385      3384      7213      7396      7752
 -1      4712    6    0    1
 -2      3072      2935      4298      4357      3717      7168      6677      6353      6752      6678
 -1      4713    6    0    1
 -2      4122      4250      4191      4328      6874      7753      5479      7754      6973      6297
 -1      4714    6    0    1
 -2      2951      2900      3014      4151      3544      3533      3545      4985      4803      6175
 -1      4715    6    0    1
 -2      3024      3025      4208      4252      4003      5603      4472      4645      5643      4646
 -1      4716    6    0    1
 -2      2958      4349      2960      4353      7745      7755      3781      7756      7757      6591
 -1      4717    6    0    1
 -2       668       624      1006      4158       873      7758      7471      7473      7759      7472
 -1      4718    6    0    1
 -2      1730      1713      1661      4150      1883      1860      1879      6036      6776      6180
 -1      4719    6    0    1
 -2      4128      4187      1677      4356      5021      7454      6898      7206      6564      7589
 -1      4720    6    0    1
 -2       649       650      4171      4239       889      6710      5911      4888      5919      5969
 -1      4721    6    0    1
 -2      1699      1697      1698      4296      2051      2038      2052      7034      5332      6216
 -1      4722    6    0    1
 -2       182       600       641      1735       849       854       853      1780      7368      7367
 -1      4723    6    0    1
 -2      2286      2289      2340      4216      2589      2592      2591      5815      6615      7259
 -1      4724    6    0    1
 -2      4122      4279      4250      4328      6545      7000      6874      7754      7760      6973
 -1      4725    6    0    1
 -2      2318      2274      2341      4159      2542      2543      2534      6740      6947      7476
 -1      4726    6    0    1
 -2      2890       454      3028      2722      3364      3360      3365      7068      2811      4486
 -1      4727    6    0    1
 -2      1752      4265      1695      4333      7465      7761      2044      7466      7467      7762
 -1      4728    6    0    1
 -2       640      4230       654      4331      7493      5913       893      7719      6372      6633
 -1      4729    6    0    1
 -2      4125      4238      4136      4315      5302      6592      7137      4391      6975      6750
 -1      4730    6    0    1
 -2      2916      2914      2915      4155      3611      3603      3612      6120      4520      6984
 -1      4731    6    0    1
 -2      2942      2941      3087      4179      3742      3747      3746      6104      5639      7312
 -1      4732    6    0    1
 -2      1330      4279      4191      4328      6544      6651      5800      7763      7760      6297
 -1      4733    6    0    1
 -2      3093      2943      4156      4320      3758      6383      5651      5654      6357      5436
 -1      4734    6    0    1
 -2      4122      4191      4279      4328      5479      6651      6545      7754      6297      7760
 -1      4735    6    0    1
 -2      3126      3142      3012      4178      3995      3994      3489      7060      5257      5343
 -1      4736    6    0    1
 -2      1289      1334      1330      4279      1637      1639      1636      5656      6199      6544
 -1      4737    6    0    1
 -2       498        47       505      4315       523       525       527      6419      6451      7764
 -1      4738    6    0    1
 -2       397      2713      1676      1664      2785      7279      1867      1865      5706      1869
 -1      4739    6    0    1
 -2      4158      4177      1014      4295      4374      7273      7272      7129      6683      7765
 -1      4740    6    0    1
 -2      1662       637      1736      4170      7703      7698      1788      7706      7412      7616
 -1      4741    6    0    1
 -2      4095      4220      4160      4287      5702      7539      5198      5703      5187      7007
 -1      4742    6    0    1
 -2      1280      1301      1339      4277      1587      1590      1589      7607      7608      7639
 -1      4743    6    0    1
 -2      1310       332      3104      1289      1504      3304      5565      1509      1508      5564
 -1      4744    6    0    1
 -2      2966      3102      3101      4177      3867      3869      3870      4873      4835      5006
 -1      4745    6    0    1
 -2      1314      1330      1334      4249      1572      1639      1583      5650      5801      6197
 -1      4746    6    0    1
 -2       431      2267      2116      2312      2459      6429      2195      2455      2460      7116
 -1      4747    6    0    1
 -2      1670      1714      1715      4180      1927      1930      1929      7696      5177      6979
 -1      4748    6    0    1
 -2      4091      4207      4170      4338      4411      6697      7479      6188      6609      6699
 -1      4749    6    0    1
 -2       647      4148       660      4294      7717      4402       969      7766      4448      4446
 -1      4750    6    0    1
 -2      2361      2341      2274      4159      2379      2543      2451      7352      7476      6947
 -1      4751    6    0    1
 -2      1288      1309       317      2871      1458      1457      1453      6929      7582      3257
 -1      4752    6    0    1
 -2      3019      2892      4214      4313      3510      7767      7389      7388      7768      6319
 -1      4753    6    0    1
 -2      4163      4215      4101      4324      6840      5525      6926      6910      6151      5599
 -1      4754    6    0    1
 -2        97      2264       603       640      2411      7491       729       733      7490       734
 -1      4755    6    0    1
 -2      2326      2321      2319      4157      2703      2702      2704      6635      5282      5035
 -1      4756    6    0    1
 -2      4131      4183      4097      4334      5749      4708      7743      7120      5925      5421
 -1      4757    6    0    1
 -2      3027      4152      3021      4340      4664      7305      3436      4865      5829      7769
 -1      4758    6    0    1
 -2      4098      4200      4151      4256      4678      5584      4986      5813      6792      5812
 -1      4759    6    0    1
 -2       647       630      4148      4308       965      7193      7717      7770      7276      5789
 -1      4760    6    0    1
 -2      3084      2974      4243      4346      3820      7440      7771      7772      7529      7331
 -1      4761    6    0    1
 -2      2118      2131      2129      4261      2219      2244      2215      6882      6872      6971
 -1      4762    6    0    1
 -2      4170      4172      4118      4242      6829      5461      6955      6766      6487      6074
 -1      4763    6    0    1
 -2      1329      1311      1327      4223      1633      1622      1571      6159      6358      7042
 -1      4764    6    0    1
 -2      2898      2897      2896      4259      3522      3459      3523      4791      5298      6455
 -1      4765    6    0    1
 -2      4170      4301      1749      4352      6956      6619      7773      7519      6273      6558
 -1      4766    6    0    1
 -2      3092      3147      3148      4160      3773      4025      3882      7306      5197      6280
 -1      4767    6    0    1
 -2       638       606       187      4271       869       868       864      6772      7687      7724
 -1      4768    6    0    1
 -2       503       493       490      4238       571       586       587      6951      7044      6960
 -1      4769    6    0    1
 -2      2327      4205      2332      4310      6742      5581      2700      6743      5860      5048
 -1      4770    6    0    1
 -2      4152      4173      2127      4340      7023      7021      7019      5829      7345      7590
 -1      4771    6    0    1
 -2      3147      4160      2946      4302      5197      7015      3774      5856      5857      7016
 -1      4772    6    0    1
 -2      4097      4184      4131      4334      7065      6384      7743      5421      7445      7120
 -1      4773    6    0    1
 -2      1016      4281       263      4351      7495      5954      1090      6330      6270      5009
 -1      4774    6    0    1
 -2      3104      3116       332      1310      3306      3302      3304      5565      5451      1504
 -1      4775    6    0    1
 -2      2317      4205      2319      4311      5583      5626      2697      6531      6532      6323
 -1      4776    6    0    1
 -2      2125      2122      2107      4152      2226      2227      2184      7298      7020      7300
 -1      4777    6    0    1
 -2      1718      4231      1716      4293      7282      6810      2095      7285      6660      6889
 -1      4778    6    0    1
 -2       637       185      1736      4172       858      1787      7698      7413      7689      7617
 -1      4779    6    0    1
 -2      2268      2304      2347      4153      2510      2512      2511      7377      5147      5269
 -1      4780    6    0    1
 -2      2266        48        30      4315      7547       482      2393      7215      7548      7774
 -1      4781    6    0    1
 -2      1696      4202      1758      4304      7349      6325      2049      7350      5624      6812
 -1      4782    6    0    1
 -2      1309       317      2871      3109      1457      3257      7582      7566      3259      3261
 -1      4783    6    0    1
 -2      1021       258      1008      4197      1079      1075      1080      6155      5074      7309
 -1      4784    6    0    1
 -2      2712      2724      2736      4150      2781      2826      2825      5932      6775      6248
 -1      4785    6    0    1
 -2        99       601       642      4331       735       740       739      7775      7721      7776
 -1      4786    6    0    1
 -2      3044      4182      3054      4316      5086      4418      4041      6638      4417      4416
 -1      4787    6    0    1
 -2      2953      2945      2952      4314      3766      3761      3767      4968      4969      7740
 -1      4788    6    0    1
 -2      1336      4278      4154      4344      7091      7694      7709      7092      6485      7777
 -1      4789    6    0    1
 -2      3015      3014      3016      4256      3797      3884      3996      6687      6179      4717
 -1      4790    6    0    1
 -2      3084      4243      2907      4346      7771      5971      3579      7772      7331      7633
 -1      4791    6    0    1
 -2      1018      1008      4138      4197      1105      7778      5804      7083      7309      5744
 -1      4792    6    0    1
 -2      4178      4293      4132      4303      6727      7284      5979      6067      7511      6925
 -1      4793    6    0    1
 -2      4134       497      4165      4358      7614      7613      7288      7364      7779      7366
 -1      4794    6    0    1
 -2      4142      4157      4101      4254      7780      6905      7468      6803      6887      5412
 -1      4795    6    0    1
 -2      4169      4105      4202      4304      6009      6324      7674      6130      6131      5624
 -1      4796    6    0    1
 -2      2273      2342       436      2117      2475      2474      2470      7229      7688      2208
 -1      4797    6    0    1
 -2      1340      3127      2874      4165      7646      3294      7781      7648      7649      7782
 -1      4798    6    0    1
 -2      1301      1343      1299      4162      1657      1400      1597      7643      6844      7415
 -1      4799    6    0    1
 -2      1277      2348      1317      4191      7783      5964      1541      6048      4898      5694
 -1      4800    6    0    1
 -2      4204      4234      4121      4266      6691      6540      6543      5082      6500      6240
 -1      4801    6    0    1
 -2      4123      4234      4204      4266      6163      6691      5621      5622      6500      5082
 -1      4802    6    0    1
 -2      4144      2960      4349      4353      6486      7755      6866      6236      6591      7757
 -1      4803    6    0    1
 -2        99      2338       601      4331      2415      7748       735      7775      7749      7721
 -1      4804    6    0    1
 -2      3033      3103      4167      4264      3934      5859      6696      6922      4634      6457
 -1      4805    6    0    1
 -2      4152      4235      4173      4354      7585      6432      7023      7241      7014      7012
 -1      4806    6    0    1
 -2      4132      4231      4092      4282      6618      6172      5980      6471      7017      6084
 -1      4807    6    0    1
 -2      4101      4215      4163      4336      5525      6840      6926      6722      6834      6841
 -1      4808    6    0    1
 -2      4109      4244      4203      4309      5832      6275      5752      6068      7716      6849
 -1      4809    6    0    1
 -2      3059      3056      3121      4204      3824      4063      3922      6641      6586      6676
 -1      4810    6    0    1
 -2      1666      1702      1745      4172      1907      1909      1908      6231      5809      5462
 -1      4811    6    0    1
 -2      2115      2128      2132      4317      2261      2252      2232      5988      7660      6356
 -1      4812    6    0    1
 -2      2339       101      2275       599      2421      2423      2425      7701       741      7577
 -1      4813    6    0    1
 -2      4109      4245      4244      4309      5778      7710      5832      6068      5683      7716
 -1      4814    6    0    1
 -2      2108      2277       430      2114      5505      2452      2190      2194      5833      2192
 -1      4815    6    0    1
 -2      1753      4296      1701      4339      7401      7731      2062      7339      7750      6184
 -1      4816    6    0    1
 -2      2354      4145      2297      4354      6856      5471      2647      7679      7110      7111
 -1      4817    6    0    1
 -2      2945      2956      3093      4269      3768      3770      3759      4820      5154      5669
 -1      4818    6    0    1
 -2      1739      1715      4201      4342      1931      6837      7784      7785      6892      6893
 -1      4819    6    0    1
 -2       604       638       186      1666       866       865       861      6232      6771      1790
 -1      4820    6    0    1
 -2      1753      4130      4296      4339      7245      5096      7401      7339      7340      7750
 -1      4821    6    0    1
 -2      1328      1330      4191      4328      1576      5800      6624      6625      7763      6297
 -1      4822    6    0    1
 -2      2117       435      2273      2110      2207      2471      7229      2209      2205      7063
 -1      4823    6    0    1
 -2      4165      4316      3046      4330      7498      5036      7786      7500      5031      5037
 -1      4824    6    0    1
 -2      3111      4232      3023      4327      6549      7224      3504      6551      5635      7258
 -1      4825    6    0    1
 -2      4122      4191      4250      4284      5479      7753      6874      6525      4899      6842
 -1      4826    6    0    1
 -2      1752      4168      1743      4265      7464      7075      2043      7465      7077      6782
 -1      4827    6    0    1
 -2      2310      2364      2347      4331      2688      2687      2680      6362      6363      6101
 -1      4828    6    0    1
 -2      4132      4223      4123      4273      6945      6160      7510      6719      6504      6266
 -1      4829    6    0    1
 -2      1694      1734      1698      4185      2015      2040      2039      4823      4824      5054
 -1      4830    6    0    1
 -2      2904      2903      2902      4222      3551      3547      3552      6202      6894      5947
 -1      4831    6    0    1
 -2       642      4153      2268      4331      7378      7377      7379      7776      6103      7787
 -1      4832    6    0    1
 -2      1010      4138      1008      4318      5691      7778      1104      7520      6909      7310
 -1      4833    6    0    1
 -2      1019      4146      1023      4263      6552      6289      1061      6088      6092      6290
 -1      4834    6    0    1
 -2      2122      4152      2125      4317      7020      7298      2226      7337      7503      7501
 -1      4835    6    0    1
 -2      2329      2297      2345      4284      2623      2645      2644      5415      5472      5618
 -1      4836    6    0    1
 -2      2875       137      3077       608      3217      3219      3221      5839       811      5840
 -1      4837    6    0    1
 -2      4154      4168      4121      4278      7424      7076      7788      7694      7078      6243
 -1      4838    6    0    1
 -2      2737      2712      2736      4150      2828      2825      2829      5835      5932      6248
 -1      4839    6    0    1
 -2      4112      4216      4199      4334      6461      6462      5287      7444      5817      7277
 -1      4840    6    0    1
 -2      4160      4220      4135      4287      7539      5725      7540      7007      5187      4702
 -1      4841    6    0    1
 -2      4107      4135      4160      4314      4697      7540      7188      5266      7234      6791
 -1      4842    6    0    1
 -2      3061      4215      2906      4324      5526      6998      3573      5598      6151      7107
 -1      4843    6    0    1
 -2      2889       416      3021      2107      3339      3335      3340      7296      2180      7304
 -1      4844    6    0    1
 -2       431      2116      2114      2312      2195      2197      2193      2455      7116      6510
 -1      4845    6    0    1
 -2       393      2724      1713      4180      2777      6774      1855      7789      7159      7158
 -1      4846    6    0    1
 -2      2869      2988      2986      4308      3376      3375      3377      7149      5891      5788
 -1      4847    6    0    1
 -2      3044      3073      3054      4182      4031      3628      4041      5086      4890      4418
 -1      4848    6    0    1
 -2      4106      4202      4169      4357      5556      7674      7074      6352      7675      7654
 -1      4849    6    0    1
 -2      1708      1736      1745      4172      1884      1910      2077      6119      7617      5462
 -1      4850    6    0    1
 -2      1748      1726      1705      4187      2079      1956      1919      4420      4907      6317
 -1      4851    6    0    1
 -2      2125       416      2889      2107      2182      3339      7297      2184      2180      7296
 -1      4852    6    0    1
 -2      1305      1322      4270      4306      1646      7677      7790      7791      7730      7254
 -1      4853    6    0    1
 -2       604       659       661      4172       907       911       910      6070      6620      6071
 -1      4854    6    0    1
 -2      1670       393      1713      4180      1853      1855      1857      7696      7789      7158
 -1      4855    6    0    1
 -2      2721      2713      1676       397      2790      7279      7438      2789      2785      1867
 -1      4856    6    0    1
 -2      1691      4221      1738      4275      5233      6423      2005      4972      5234      6422
 -1      4857    6    0    1
 -2      1677      1664      1676      4276      1896      1869      1897      6899      5826      7280
 -1      4858    6    0    1
 -2      4130      4102      4228      4339      6584      4379      6335      7340      6436      7792
 -1      4859    6    0    1
 -2      2930      4197      2929      4321      7038      5075      3681      7039      5190      4682
 -1      4860    6    0    1
 -2       614       659       655      4242       960       964       963      6646      6621      6647
 -1      4861    6    0    1
 -2      3064      4162      3066      4290      5519      7793      4075      4696      5131      6368
 -1      4862    6    0    1
 -2      2958      4248      4349      4353      7744      7725      7745      7756      7484      7757
 -1      4863    6    0    1
 -2      1701      1699      1700      4149      2059      2055      2060      6183      7599      5775
 -1      4864    6    0    1
 -2      2355      2273      2328      4225      2535      2472      2536      6482      7064      6408
 -1      4865    6    0    1
 -2      4157      4312      4122      4341      6919      6670      7480      7692      7794      7513
 -1      4866    6    0    1
 -2      1753      1699      1701      4296      2061      2059      2062      7401      7034      7731
 -1      4867    6    0    1
 -2      4115      4204      4221      4269      5791      5081      5232      5670      5880      7040
 -1      4868    6    0    1
 -2      3041      2962      4195      4254      3847      5513      6138      5427      5411      6165
 -1      4869    6    0    1
 -2      4142      4312      4157      4341      6819      6919      7780      5674      7794      7692
 -1      4870    6    0    1
 -2      4129      4271      4102      4292      5211      6518      5976      4947      6733      4657
 -1      4871    6    0    1
 -2      2306      2334      2332      4241      2573      2681      2483      5397      7135      5468
 -1      4872    6    0    1
 -2       627      3077       137       608      5002      3219       815       816      5840       811
 -1      4873    6    0    1
 -2      4121      4144      4168      4353      6724      7320      7076      6296      6236      7482
 -1      4874    6    0    1
 -2      3132      2872      3017      4253      3182      3394      3395      6694      6278      6279
 -1      4875    6    0    1
 -2      1711      4168      1752      4299      7359      7464      2086      6780      7360      7597
 -1      4876    6    0    1
 -2      2960      2948      4144      4349      3782      7382      6486      7755      7738      6866
 -1      4877    6    0    1
 -2      1686      1706      4198      4309      1998      5325      5873      6140      6069      6142
 -1      4878    6    0    1
 -2      3149      2969      3148      4237      3880      3881      3883      5837      7680      6281
 -1      4879    6    0    1
 -2      3135       633       614      4242      7795       825      6673      7197      5440      6646
 -1      4880    6    0    1
 -2      2324      2293      2329      4284      2625      2619      2628      6524      6444      5415
 -1      4881    6    0    1
 -2      2870      3154      4154      4319      3385      7752      7396      7457      6927      7155
 -1      4882    6    0    1
 -2      4169      4202      4105      4347      7674      6324      6009      7673      7672      7191
 -1      4883    6    0    1
 -2      2936      2938      4169      4291      3722      6589      7653      6804      6604      6605
 -1      4884    6    0    1
 -2      1333      1278      1336      4278      1578      1579      1581      6244      6907      7091
 -1      4885    6    0    1
 -2      3148      4237      2969      4355      6281      7680      3881      7545      6629      7681
 -1      4886    6    0    1
 -2       614       141      3135       634       823      3229      6673       828       827      6674
 -1      4887    6    0    1
 -2      2890      3110       455      2715      3368      3367      3363      6115      5959      2814
 -1      4888    6    0    1
 -2      4136      4192      3083      4325      6876      6875      6877      6563      7715      7530
 -1      4889    6    0    1
 -2      2950      2906      3061      4215      3567      3573      3575      5524      6998      5526
 -1      4890    6    0    1
 -2      2989      2988      4164      4238      3471      5477      5645      5102      5460      5446
 -1      4891    6    0    1
 -2       642       100      2268       599       738      2418      7379       743       742      7572
 -1      4892    6    0    1
 -2       647      4148      4267      4308      7717      7746      7796      7770      5789      7797
 -1      4893    6    0    1
 -2      3075      4192      2995      4307      7248      6936      3967      7798      6954      7469
 -1      4894    6    0    1
 -2      3122      2973      3080      4148      3891      3899      3381      5589      5262      5602
 -1      4895    6    0    1
 -2      3092      4160      3148      4355      7306      6280      3882      7799      7541      7545
 -1      4896    6    0    1
 -2      2111       436      2342      2117      2210      2474      7678      2212      2208      7688
 -1      4897    6    0    1
 -2      3060      2910      2954      4190      3594      3586      3595      6737      4988      4830
 -1      4898    6    0    1
 -2      4101      4157      4142      4336      6905      7780      7468      6722      6636      7142
 -1      4899    6    0    1
 -2       496       508       489      4164       575       578       583      4958      4801      7622
 -1      4900    6    0    1
 -2      1725      1754      1753      4296      1874      2063      1933      5094      5293      7401
 -1      4901    6    0    1
 -2      4119      4193      4180      4258      5617      7008      5176      6686      7434      7089
 -1      4902    6    0    1
 -2      4169      4291      4106      4357      6605      6349      7074      7654      6354      6352
 -1      4903    6    0    1
 -2      2282      2284      2334      4241      2569      2572      2571      5433      5379      7135
 -1      4904    6    0    1
 -2       652       654       635      4253       896       956       947      7327      5218      5217
 -1      4905    6    0    1
 -2      3115      3043      3050      4337      4034      4037      3420      6015      6966      7489
 -1      4906    6    0    1
 -2      2906      2905      2904      4215      3561      3557      3562      6998      6813      6019
 -1      4907    6    0    1
 -2      2939      4174      2949      4291      7800      5721      3739      7268      5723      5206
 -1      4908    6    0    1
 -2       505       490      4238      4315       530      6960      7801      7764      6974      6975
 -1      4909    6    0    1
 -2      4163      4310      4101      4336      6653      6720      6926      6841      6530      6722
 -1      4910    6    0    1
 -2      1703      4245      1706      4309      6128      5970      2068      6129      5683      6069
 -1      4911    6    0    1
 -2      4108      4176      4150      4274      5361      5780      7667      6226      6493      5935
 -1      4912    6    0    1
 -2      2962      3042      3041      4195      3851      3854      3847      5513      6824      6138
 -1      4913    6    0    1
 -2      2266      2280      2333      4209      2501      2503      2394      7252      5494      5495
 -1      4914    6    0    1
 -2      1019      1023       241      4263      1061      1057      1059      6088      6290      6915
 -1      4915    6    0    1
 -2      1705      4187      1677      4276      6317      7454      1951      6911      7109      6899
 -1      4916    6    0    1
 -2      2939      3072      2949      4174      3725      3740      3739      7800      6492      5721
 -1      4917    6    0    1
 -2      2943      2945      3093      4156      3756      3759      3758      6383      4819      5651
 -1      4918    6    0    1
 -2      3133       607      4164      4308      7534      7535      7536      7802      7803      5893
 -1      4919    6    0    1
 -2      4139      4106      4202      4263      7747      5556      7737      6091      5193      5688
 -1      4920    6    0    1
 -2       497      4165       499      4316      7613      7499       581      7615      7498      6378
 -1      4921    6    0    1
 -2      2338      2264        98       601      2416      2412      2414      7748      7718       736
 -1      4922    6    0    1
 -2       604      1666       185      4172      6232      1789       862      6070      6231      7689
 -1      4923    6    0    1
 -2      3076      4256      4181      4346      7611      5736      7804      7612      6508      7528
 -1      4924    6    0    1
 -2      2324      2325      2265      4191      2497      2496      2492      5903      5254      5646
 -1      4925    6    0    1
 -2      4101      4142      4215      4336      7468      6801      5525      6722      7142      6834
 -1      4926    6    0    1
 -2      4127      4229      4277      4319      5152      6377      6375      5014      7805      7641
 -1      4927    6    0    1
 -2      3046      3054      3048      4316      4040      4044      4043      5036      4416      5028
 -1      4928    6    0    1
 -2      4144      4248      4168      4353      7319      7318      7320      6236      7484      7482
 -1      4929    6    0    1
 -2      1331       373      2344      1275      1530      2428      7124      1535      1534      7207
 -1      4930    6    0    1
 -2      1673      1737       187      4271      1797      1793      1795      7146      7166      7724
 -1      4931    6    0    1
 -2       398      2721      2714      1674      2788      2793      2792      1870      7525      7404
 -1      4932    6    0    1
 -2       497      4280      4165      4358      7806      7362      7613      7779      7365      7366
 -1      4933    6    0    1
 -2      1682      4220      1681      4287      5764      5322      1967      7087      5187      5323
 -1      4934    6    0    1
 -2      1712      1758      1665      4299      1904      1903      1901      7239      6192      7563
 -1      4935    6    0    1
 -2      2282      4241      2280      4272      5433      5398      2560      5434      5380      6912
 -1      4936    6    0    1
 -2      4112      4142      4216      4335      5637      7141      6461      5350      5164      7494
 -1      4937    6    0    1
 -2      2939      3072      4174      4291      3725      6492      7800      7268      6350      5723
 -1      4938    6    0    1
 -2      2340      2290      2286      4336      2593      2582      2591      7260      7148      6900
 -1      4939    6    0    1
 -2      3067      3065      3066      4290      4078      4074      3399      6367      7397      6368
 -1      4940    6    0    1
 -2      3042      4195      3039      4337      6824      5294      4026      6825      6139      4813
 -1      4941    6    0    1
 -2      4140      4236      4120      4270      6711      4917      5238      5242      6745      5241
 -1      4942    6    0    1
 -2       140      3135       633       614      3228      7795       820       824      6673       825
 -1      4943    6    0    1
 -2       489       498      4164      4226       585      5442      7622      7409      6418      6501
 -1      4944    6    0    1
 -2      4118      4170      4242      4338      6955      6766      6074      5141      6699      6076
 -1      4945    6    0    1
 -2      2127      2107      2122      4152      2225      2227      2228      7019      7300      7020
 -1      4946    6    0    1
 -2      2961      4254      2978      4341      6917      7347      3849      7430      7348      6969
 -1      4947    6    0    1
 -2       239       240      1011      1728       249      1054      1053      7728      7570      7293
 -1      4948    6    0    1
 -2      1311      1288       316      2871      1455      1454      1450      6930      6929      3256
 -1      4949    6    0    1
 -2       640        98      2264       601       732      2412      7490       737       736      7718
 -1      4950    6    0    1
 -2      2893      2716      2723       449      5537      2800      6043      3345      2796      2798
 -1      4951    6    0    1
 -2      4155      4188      4099      4326      5352      5336      7807      7700      5896      5894
 -1      4952    6    0    1
 -2      2272      4227      2317      4311      7808      5568      2530      7809      6533      6531
 -1      4953    6    0    1
 -2      3133      4164      2988      4308      7536      5477      3380      7802      5893      5891
 -1      4954    6    0    1
 -2       255      1297      1027      4305      6612      7810      1037      4668      6613      7811
 -1      4955    6    0    1
 -2       667       605      2343      4267       723      7812      7813      7814      7816      7815
 -1      4956    6    0    1
 -2       492      4134       497      4316      7626      7614       545      7627      6637      7615
 -1      4957    6    0    1
 -2      3121      3081      2871      4234      3387      3258      3388      6403      6404      6931
 -1      4958    6    0    1
 -2      2939      2936      3072      4291      3724      3716      3725      7268      6804      6350
 -1      4959    6    0    1
 -2      3018      3020      4240      4350      3999      7080      7180      7181      7081      5368
 -1      4960    6    0    1
 -2      1342      4159      1338      4280      7353      7817      1596      7356      7357      7818
 -1      4961    6    0    1
 -2      2903      2947      2901      4184      3549      3548      3546      6895      6452      5866
 -1      4962    6    0    1
 -2      4189      4304      1693      4333      6132      7267      7266      7174      6708      7819
 -1      4963    6    0    1
 -2      4141      4194      4111      4213      4752      4862      5032      7685      7665      5543
 -1      4964    6    0    1
 -2      4100      4194      4141      4213      4675      4752      4749      5391      7665      7685
 -1      4965    6    0    1
 -2      2114      2277       430      2312      5833      2452      2192      6510      2457      2456
 -1      4966    6    0    1
 -2       449      2723      2893      3009      2798      6043      3345      3349      6458      3350
 -1      4967    6    0    1
 -2       652      4253      4153      4331      7327      4923      7521      7328      6634      6103
 -1      4968    6    0    1
 -2      1752      1712      4299      4333      2085      7239      7597      7466      7240      6194
 -1      4969    6    0    1
 -2      3092      2946      3147      4160      3764      3774      3773      7306      7015      5197
 -1      4970    6    0    1
 -2      4121      4168      4154      4353      7076      7424      7788      6296      7482      7483
 -1      4971    6    0    1
 -2      3026      2128       417      4317      7820      2185      3342      7735      7660      7821
 -1      4972    6    0    1
 -2       417      2128      2125      4317      2185      2187      2183      7821      7660      7501
 -1      4973    6    0    1
 -2      1663      1746      1312      4266      1835      7668      6799      6800      7670      6507
 -1      4974    6    0    1
 -2      4250      4279      3129      4328      7000      7713      7505      6973      7760      7506
 -1      4975    6    0    1
 -2      4247      4264      4091      4301      7632      4635      4593      6272      6000      6187
 -1      4976    6    0    1
 -2      1717      1716      1718      4231      2094      2095      1912      7453      6810      7282
 -1      4977    6    0    1
 -2       640       654       601      4331       893       892       737      7719      6633      7721
 -1      4978    6    0    1
 -2      2131      2130      2120      4343      2223      2238      2242      7475      7071      7822
 -1      4979    6    0    1
 -2      4192      4307      3075      4345      6954      7798      7248      7610      5071      7609
 -1      4980    6    0    1
 -2      4113      4145      4235      4252      5023      6310      5375      7436      5572      7712
 -1      4981    6    0    1
 -2      1297      1303      1351       255      1375      1478      1475      6612      6565      6176
 -1      4982    6    0    1
 -2       629       623       675       263       712       810       805      6366      6045      5950
 -1      4983    6    0    1
 -2      4098      4181      4143      4283      7550      7372      6935      5215      7052      5129
 -1      4984    6    0    1
 -2      2726      2879       452      2718      7220      3358      2805      2809      6991      2807
 -1      4985    6    0    1
 -2      2332      2327      2317      4205      2700      2699      2695      5581      6742      5583
 -1      4986    6    0    1
 -2      1013       260      4321      4322      1081      4441      6858      7823      4868      4869
 -1      4987    6    0    1
 -2       287      1280      1313      4277      1409      1414      1413      7824      7607      7825
 -1      4988    6    0    1
 -2       393      1670      2711      4180      1853      7826      2773      7789      7696      7827
 -1      4989    6    0    1
 -2      1338      4159      1322      4306      7817      7618      1595      7828      7250      7730
 -1      4990    6    0    1
 -2      4112      4216      4142      4312      6461      7141      5637      6583      6447      6819
 -1      4991    6    0    1
 -2      4186      4323      4108      4355      6382      5365      7113      7459      6256      6254
 -1      4992    6    0    1
 -2       667      2343      4226      4267      7813      7829      7830      7814      7815      6610
 -1      4993    6    0    1
 -2      3065      3063      4290      4318      4071      6052      7397      7399      6908      7398
 -1      4994    6    0    1
 -2       393      2711      2724      4180      2773      2778      2777      7789      7827      7159
 -1      4995    6    0    1
 -2      2319      2327      2326      4205      2698      2610      2704      5626      6742      6527
 -1      4996    6    0    1
 -2      4106      4296      4130      4298      5333      5096      6643      6644      7663      6337
 -1      4997    6    0    1
 -2      2107      4152      2127      4340      7300      7019      2225      7831      5829      7590
 -1      4998    6    0    1
 -2      2964      4228      4174      4298      7308      6053      7307      7832      5078      6709
 -1      4999    6    0    1
 -2      3028       453      2718      2722      3361      2808      6063      4486      2810      2812
 -1      5000    6    0    1
 -2       497      4134       492      4358      7614      7626       545      7779      7364      7833
 -1      5001    6    0    1
 -2      2352      2297      2295      4199      2636      2622      2637      7419      5470      5541
 -1      5002    6    0    1
 -2      2727       455      3110      2715      2816      3367      5416      2818      2814      5959
 -1      5003    6    0    1
 -2      3080      2869      3122      4148      3191      3378      3381      5602      7253      5589
 -1      5004    6    0    1
 -2      3042      3038      3039      4195      3852      3608      4026      6824      5142      5294
 -1      5005    6    0    1
 -2      2131      2120      4166      4343      2242      7423      6871      7475      7822      7025
 -1      5006    6    0    1
 -2      2948      4260      4144      4349      7383      5551      7382      7738      6308      6866
 -1      5007    6    0    1
 -2      3126      4223      3081      4303      7432      6311      3493      7062      6315      6313
 -1      5008    6    0    1
 -2      2909      2955      4190      4243      3589      6299      6079      5972      7133      6224
 -1      5009    6    0    1
 -2      4140      4254      4157      4341      5428      6887      6712      6968      7348      7692
 -1      5010    6    0    1
 -2      3072      2964      4174      4298      3790      7307      6492      6677      7832      6709
 -1      5011    6    0    1
 -2      1687      1691      1738      4275      2003      2005      1989      4810      4972      6422
 -1      5012    6    0    1
 -2      1290       319      3112      1302      1459      3263      7211      1464      1463      7210
 -1      5013    6    0    1
 -2      4138      4197      1008      4318      5744      7309      7778      6909      5076      7310
 -1      5014    6    0    1
 -2      4143      4243      4117      4285      7096      7048      4528      6867      7049      5276
 -1      5015    6    0    1
 -2      4121      4168      4144      4265      7076      7320      6724      6542      7077      7512
 -1      5016    6    0    1
 -2      4202      4255      4139      4263      6326      7281      7737      5688      7295      6091
 -1      5017    6    0    1
 -2       657       600       181      1668       851       850       846      6168      6222      1777
 -1      5018    6    0    1
 -2      1281      1338      1342      4159      1594      1596      1555      6946      7817      7353
 -1      5019    6    0    1
 -2      4133      4203      4118      4309      5846      5140      5847      6141      6849      5684
 -1      5020    6    0    1
 -2      2323      4157      2326      4336      7200      6635      2707      7834      6636      6529
 -1      5021    6    0    1
 -2      4098      4143      4181      4346      6935      7372      7550      4930      7330      7528
 -1      5022    6    0    1
 -2      2124      2134      4214      4313      2255      6318      7835      7836      5909      6319
 -1      5023    6    0    1
 -2      1301      4162      1282      4319      7643      7624      1598      7837      5133      7838
 -1      5024    6    0    1
 -2      1342      1296      1294      4280      1656      1391      1556      7356      7840      7839
 -1      5025    6    0    1
 -2      2949      2964      2963      4174      3789      3788      3787      5721      7307      6133
 -1      5026    6    0    1
 -2       636       125       613      3082       771       767       772      4383      3183      6933
 -1      5027    6    0    1
 -2      2336      2308      2300      4251      2602      2661      2643      5317      4704      4713
 -1      5028    6    0    1
 -2      4178      4231      4132      4293      6171      6618      5979      6727      6660      7284
 -1      5029    6    0    1
 -2      1325      4223      1286      4268      6944      7841      1620      7323      7108      7842
 -1      5030    6    0    1
 -2      1333      1309      4234      4344      1630      7565      6541      6484      7568      6684
 -1      5031    6    0    1
 -2      4109      4174      4185      4291      5722      6957      5055      5205      5723      7099
 -1      5032    6    0    1
 -2      1750      1693      4304      4333      2034      7267      6705      6707      7819      6708
 -1      5033    6    0    1
 -2      4116      4293      4178      4303      6153      6727      5532      6065      7511      6067
 -1      5034    6    0    1
 -2      1016      4158      1006      4281      6329      7472      1100      7495      6807      7843
 -1      5035    6    0    1
 -2      2966      3130      2965      4228      3864      3863      3859      4874      4378      5012
 -1      5036    6    0    1
 -2      2883      4193      3141      4258      7556      5616      3461      7620      7434      7844
 -1      5037    6    0    1
 -2      4142      4122      4312      4341      6921      6670      6819      5674      7513      7794
 -1      5038    6    0    1
 -2       599       642       651      4289       743       883       882      7573      7381      7741
 -1      5039    6    0    1
 -2      2348      2271      1275      4286      2435      7714      7532      4764      7658      7208
 -1      5040    6    0    1
 -2      2288      2287      2285      4183      2586      2585      2587      4641      4774      4692
 -1      5041    6    0    1
 -2      2983      2957      2982      4244      3828      3826      3829      5926      5830      5928
 -1      5042    6    0    1
 -2       135       675       623      4281       803       810       809      7845      5953      6046
 -1      5043    6    0    1
 -2      2337        97      2264       603      2409      2411      2413      7247       729      7491
 -1      5044    6    0    1
 -2       184       602       637      1662       855       860       859      1784      7704      7703
 -1      5045    6    0    1
 -2      1017      4162      1015      4290      7683      5711      1103      7682      5131      5712
 -1      5046    6    0    1
 -2      1301      4229      4162      4319      7606      6848      7643      7837      7805      5133
 -1      5047    6    0    1
 -2        78       628       622       676      6826       688      5697      5698       792       789
 -1      5048    6    0    1
 -2      1313      4277      1339      4278      7825      7639      1591      7846      7695      7693
 -1      5049    6    0    1
 -2      4153      4240       651      4289      4921      7086      7085      5148      5993      7741
 -1      5050    6    0    1
 -2      4095      4237      4220      4356      4904      7671      5702      7033      7386      6539
 -1      5051    6    0    1
 -2       187      1737       638      4271      1793      7165       864      7724      7166      6772
 -1      5052    6    0    1
 -2      3034      4167      3103      4239      5850      5859      3450      5630      5851      5354
 -1      5053    6    0    1
 -2       135      2887       675      4281      3211      5951       803      7845      5952      5953
 -1      5054    6    0    1
 -2      2936      2939      2938      4291      3724      3723      3722      6804      7268      6604
 -1      5055    6    0    1
 -2      2931      2932      2930      4321      3692      3691      3683      6145      5059      7039
 -1      5056    6    0    1
 -2       262      1016       263      4351      1091      1090       272      5010      6330      5009
 -1      5057    6    0    1
 -2      4106      4139      4202      4357      7747      7737      5556      6352      6663      7675
 -1      5058    6    0    1
 -2      4174      4185      4106      4296      6957      5554      6491      6942      6218      5333
 -1      5059    6    0    1
 -2      4091      4301      4170      4352      6187      6956      7479      6077      6273      7519
 -1      5060    6    0    1
 -2      1315       379      2349      1281      1548      2446      7262      1553      1552      7847
 -1      5061    6    0    1
 -2      3082       615       126      3080      4978       774      3184      3188      5601      3186
 -1      5062    6    0    1
 -2      1282      4162      3070      4319      7624      7592      7623      7838      5133      7848
 -1      5063    6    0    1
 -2      3090      3135       141       634      3233      3229      3231      6989      6674       827
 -1      5064    6    0    1
 -2      2130      2127      2109      4173      2239      2236      2237      7342      7021      7584
 -1      5065    6    0    1
 -2       600       182      1668      1735       849      1778      6222      7368      1780      1782
 -1      5066    6    0    1
 -2       144      2894      3134       631      3240      3242      3238       832      5991      6679
 -1      5067    6    0    1
 -2      2130      4173      2109      4343      7342      7584      2237      7071      7522      7849
 -1      5068    6    0    1
 -2      4133      4118      4301      4309      5847      5682      6393      6141      5684      5685
 -1      5069    6    0    1
 -2       666      4226      4164      4308      7411      6501      7664      7850      7851      5893
 -1      5070    6    0    1
 -2      2360      2357      2330      4173      2653      2480      2508      7177      7256      7561
 -1      5071    6    0    1
 -2      4099      4188      4155      4233      5336      5352      7807      4995      5353      4650
 -1      5072    6    0    1
 -2      4141      4166      4213      4343      6870      5546      7685      7072      7025      7026
 -1      5073    6    0    1
 -2       331      1291      3116      2876      1501      5452      3301      3299      6185      3303
 -1      5074    6    0    1
 -2      4135      4246      4116      4275      6976      6107      7233      4740      6112      6110
 -1      5075    6    0    1
 -2      4135      4186      4116      4246      7114      5592      7233      6976      7456      6107
 -1      5076    6    0    1
 -2      3019      2896      2895      4313      3521      3457      3509      7388      7315      6832
 -1      5077    6    0    1
 -2       603        96       639      4294       730       726       731      6881      7853      7852
 -1      5078    6    0    1
 -2       259      1013       260      4321      1082      1081       269      4439      6858      4441
 -1      5079    6    0    1
 -2      2349      2320      2269      4236      2517      2516      2447      7265      4915      6340
 -1      5080    6    0    1
 -2      4107      4175      4156      4320      4851      7655      5473      5126      7231      5436
 -1      5081    6    0    1
 -2      2995      3075      3083      4192      3967      3620      3943      6936      7248      6875
 -1      5082    6    0    1
 -2      2312      2277      2313      4235      2457      2552      2551      6511      5506      6309
 -1      5083    6    0    1
 -2      3087      4203      3106      4302      7313      4784      3772      7449      6769      6770
 -1      5084    6    0    1
 -2      1668       181       657      1741      1777       846      6168      1779      1775      5484
 -1      5085    6    0    1
 -2      2357      2330      4173      4343      2480      7561      7256      7223      7854      7522
 -1      5086    6    0    1
 -2      3066      4290      4162      4305      6368      5131      7793      6369      6370      7594
 -1      5087    6    0    1
 -2      2314      2267      4235      4354      2504      6430      7855      7856      7013      7014
 -1      5088    6    0    1
 -2      3098      2931      2928      4321      3685      3684      3676      4866      6145      5715
 -1      5089    6    0    1
 -2      1705      1676      1674      4276      1945      1872      1946      6911      7280      7238
 -1      5090    6    0    1
 -2      3079      3117      2965      4292      3431      3858      3865      5607      5963      5171
 -1      5091    6    0    1
 -2      4152      4252      3022      4317      5644      5642      5641      7503      7437      7857
 -1      5092    6    0    1
 -2      2348      1277      2265      4191      7783      6047      2438      4898      6048      5646
 -1      5093    6    0    1
 -2      2352      2354      2297      4354      2648      2647      2636      7271      7679      7111
 -1      5094    6    0    1
 -2      4106      4174      4296      4298      6491      6942      5333      6644      6709      7663
 -1      5095    6    0    1
 -2      3005      4177      3102      4297      7574      4835      3987      7858      4840      4838
 -1      5096    6    0    1
 -2      2323      4312      4157      4336      7201      6919      7200      7834      7859      6636
 -1      5097    6    0    1
 -2      1279      1315       378      2349      1550      1549      1545      7263      7262      2445
 -1      5098    6    0    1
 -2      2726      2718      2737      4176      2809      2860      2859      5779      6064      5836
 -1      5099    6    0    1
 -2      1316       291      1276      4273      1425      1421      1426      6717      7860      6416
 -1      5100    6    0    1
 -2      3021      4152      2107      4340      7305      7300      7304      7769      5829      7831
 -1      5101    6    0    1
 -2      3072      3013      2964      4298      3718      3862      3790      6677      6093      7832
 -1      5102    6    0    1
 -2      3098      2931      4321      4322      3685      6145      4866      4867      6425      4869
 -1      5103    6    0    1
 -2      4108      4274      4150      4332      6226      5935      7667      6229      6230      6037
 -1      5104    6    0    1
 -2      3022      3021      3027      4152      3495      3436      4000      5641      7305      4664
 -1      5105    6    0    1
 -2      1010      1020      4290      4318      1106      7861      5692      7520      7384      7398
 -1      5106    6    0    1
 -2      1736       185      1666      4172      1787      1789      1791      7617      7689      6231
 -1      5107    6    0    1
 -2      2961      3041      2978      4254      3846      3850      3849      6917      5427      7347
 -1      5108    6    0    1
 -2      3031      3033      3103      4167      4018      3934      4020      7132      6696      5859
 -1      5109    6    0    1
 -2       626      4158       668      4262      5573      7473       983      5576      5577      7507
 -1      5110    6    0    1
 -2      2126      2117      2111      4225      2245      2212      2246      6639      7230      7209
 -1      5111    6    0    1
 -2       633      3079       139       616      5606      3223       821       822      5948       817
 -1      5112    6    0    1
 -2       643       678       132      4329       797       794       795      7324      7270      7862
 -1      5113    6    0    1
 -2      2892      3020      3019      4214      3512      3511      3510      7767      7079      7389
 -1      5114    6    0    1
 -2      3138      3012      3011      4268      3492      3992      3249      7101      6672      5390
 -1      5115    6    0    1
 -2      1709      4247      1749      4301      7183      6557      2082      7341      6272      6619
 -1      5116    6    0    1
 -2      1666       638       186      1737      6771       865      1790      1794      7165      1792
 -1      5117    6    0    1
 -2      1749      1709      1733      4247      2082      2028      2083      6557      7183      4737
 -1      5118    6    0    1
 -2       306      1320      2720      1292      1438      6388      2764      1434      1439      6389
 -1      5119    6    0    1
 -2      4159      4236      1322      4270      6026      7619      7618      7255      6745      7677
 -1      5120    6    0    1
 -2      2954      2909      2955      4190      3587      3589      3588      4830      6079      6299
 -1      5121    6    0    1
 -2       652      4153       642      4331      7521      7378       894      7328      6103      7776
 -1      5122    6    0    1
 -2      2978      3151      3116      4140      3915      3424      3917      6702      5492      5454
 -1      5123    6    0    1
 -2      1717      1715      4231      4282      1938      6978      7453      7598      6839      7017
 -1      5124    6    0    1
 -2      3016      2970      3018      4350      3885      3886      3481      5366      6499      7181
 -1      5125    6    0    1
 -2      1708      1749      4170      4301      1887      7773      7046      5814      6619      6956
 -1      5126    6    0    1
 -2      1290      4154      3112      4344      7212      7213      7211      7863      7777      7864
 -1      5127    6    0    1
 -2      3106      3147      2946      4302      3775      3774      3771      6770      5856      7016
 -1      5128    6    0    1
 -2       293      1274      1332      4282      1427      1432      1431      7865      7105      7657
 -1      5129    6    0    1
 -2      4127      4277      4154      4319      6375      7638      7154      5014      7641      7155
 -1      5130    6    0    1
 -2      4143      4243      4181      4346      7096      7441      7372      7330      7331      7528
 -1      5131    6    0    1
 -2       647      4267       663      4308      7796      7866       914      7770      7797      7867
 -1      5132    6    0    1
 -2       641      4171       650      4352      7369      6710       887      7587      6478      5921
 -1      5133    6    0    1
 -2      3013      4228      2964      4298      6570      7308      3862      6093      5078      7832
 -1      5134    6    0    1
 -2      3106      3033      3147      4264      3937      4021      3775      4785      6922      5475
 -1      5135    6    0    1
 -2      2347      2268      4153      4331      2511      7377      5269      6101      7787      6103
 -1      5136    6    0    1
 -2      3127      4165      1283      4306      7649      7647      7645      7868      7290      7869
 -1      5137    6    0    1
 -2      4146      1013      4321      4322      6857      6858      5061      4895      7823      4869
 -1      5138    6    0    1
 -2      2317      2272      2316      4227      2530      2385      2531      5568      7808      5385
 -1      5139    6    0    1
 -2      4138      4255      4105      4299      5803      6234      7190      5806      5807      6191
 -1      5140    6    0    1
 -2      2264      2364      4230      4331      2489      6371      7492      7720      6363      6372
 -1      5141    6    0    1
 -2       257      1008       258      4318      1076      1075       267      4538      7310      4540
 -1      5142    6    0    1
 -2      1308      4279      1330      4328      7870      6544      1635      7871      7760      7763
 -1      5143    6    0    1
 -2      1126      1149      1319      4348      1221      7872      7447      7448      6601      7303
 -1      5144    6    0    1
 -2      2733      2721      2713      4276      2830      2790      2831      6863      7439      5827
 -1      5145    6    0    1
 -2       293      1747      1274      4282      1843      7103      1427      7865      7106      7105
 -1      5146    6    0    1
 -2      4133      4264      4247      4301      5848      7632      7184      6393      6000      6272
 -1      5147    6    0    1
 -2      2268      2339      2304      4289      2422      2509      2510      7380      7702      4601
 -1      5148    6    0    1
 -2      4106      4185      4174      4291      5554      6957      6491      6349      7099      5723
 -1      5149    6    0    1
 -2      2957      2949      2963      4244      3749      3787      3786      5830      5831      4627
 -1      5150    6    0    1
 -2      4100      4206      4137      4259      5610      7185      6623      4789      7656      6343
 -1      5151    6    0    1
 -2      1709      1729      1692      4247      2026      1975      2027      7183      6789      5185
 -1      5152    6    0    1
 -2       651      4240       648      4289      7086      6464       884      7741      5993      6748
 -1      5153    6    0    1
 -2      1352      1295      1756      1025      1369      7873      7874      7875      7877      7876
 -1      5154    6    0    1
 -2      4112      4184      4199      4208      5458      6868      5287      5511      5512      7335
 -1      5155    6    0    1
 -2      4160      4287      4107      4302      7007      4700      7188      5857      7711      5760
 -1      5156    6    0    1
 -2      1760       620       677      1026      7878       706      7879      7880      7882      7881
 -1      5157    6    0    1
 -2      1341      4165       488      4280      7883      7884      7885      7886      7362      7887
 -1      5158    6    0    1
 -2      1342      1294      2361      4280      1556      7888      7354      7356      7839      7355
 -1      5159    6    0    1
 -2      2128      3026      4232      4317      7820      7734      7659      7660      7735      6632
 -1      5160    6    0    1
 -2      2262      4166      2120      4343      7422      7423      7421      7889      7025      7822
 -1      5161    6    0    1
 -2       616       138       627      4292       818       814       819      5949      7890      5004
 -1      5162    6    0    1
 -2      1722      1746      4266      4278      1895      7670      6561      6630      7751      6245
 -1      5163    6    0    1
 -2      1136      1319      1126       280      7446      7447      1224      1222      1402      1220
 -1      5164    6    0    1
 -2      2331      2288      2285      4210      2588      2587      2576      5263      5264      4753
 -1      5165    6    0    1
 -2      2305      2310      2347      4200      2678      2680      2676      5272      6904      5271
 -1      5166    6    0    1
 -2       644      1135       208      1125      7416      1190       877      5040      1192      1188
 -1      5167    6    0    1
 -2      2314      4235      2354      4354      7855      7361      2691      7856      7014      7679
 -1      5168    6    0    1
 -2      1692      1726      1733      4247      1965      2030      2029      5185      4908      4737
 -1      5169    6    0    1
 -2      1014       244      4262      4295      1066      7891      7892      7765      7893      7461
 -1      5170    6    0    1
 -2      1728       239       219      4255      7728       998      1812      7292      7729      7894
 -1      5171    6    0    1
 -2      1009      4177      1012      4297      6394      7374      1109      6396      4840      7895
 -1      5172    6    0    1
 -2      1336      4154      1290      4344      7709      7212      1642      7092      7777      7863
 -1      5173    6    0    1
 -2      3029      3036      3032      4237      4011      4016      4015      6126      4876      5116
 -1      5174    6    0    1
 -2      2915      3083      4192      4325      3618      6875      6986      7157      7530      7715
 -1      5175    6    0    1
 -2      4095      4247      4133      4264      5701      7184      6713      5474      7632      5848
 -1      5176    6    0    1
 -2       611       632       651      4240       763       946       945      7027      7403      7086
 -1      5177    6    0    1
 -2       128      3133      2869      4308      3192      3194      3190      7896      7802      7149
 -1      5178    6    0    1
 -2      2870      3112       319      1302      3267      3263      3265      7395      7210      1463
 -1      5179    6    0    1
 -2      4154      4277      4168      4278      7638      7481      7424      7694      7695      7078
 -1      5180    6    0    1
 -2      3154      2980      3112      4154      3924      3925      3384      7752      7897      7213
 -1      5181    6    0    1
 -2       647      4267      4148      4294      7796      7746      7717      7766      7898      4448
 -1      5182    6    0    1
 -2      1689      1693      1690      4189      2012      2011      2002      6210      7266      5930
 -1      5183    6    0    1
 -2      2263        51       504      4188      7899       535      7900      7204      5384      5918
 -1      5184    6    0    1
 -2      2318      2317      2319      4311      2533      2697      2696      6741      6531      6323
 -1      5185    6    0    1
 -2      3011      3138      1307       313      3249      7100      6596      3245      3247      1445
 -1      5186    6    0    1
 -2      4152      4173      4111      4354      7023      7630      4663      7241      7012      5597
 -1      5187    6    0    1
 -2      1276       291      1751      4273      1421      1837      7901      6416      7860      7544
 -1      5188    6    0    1
 -2      2105      2129      2126      4313      2214      2218      2217      6830      7203      5908
 -1      5189    6    0    1
 -2       603      2337        96      4294      7247      2408       730      6881      6305      7853
 -1      5190    6    0    1
 -2      2902      2903      2901      4222      3547      3546      3541      5947      6894      4871
 -1      5191    6    0    1
 -2      1286      1311       315      4223      1452      1451      1447      7841      6358      7902
 -1      5192    6    0    1
 -2      3056      3126      3081      4303      4061      3493      4064      6587      7062      6313
 -1      5193    6    0    1
 -2      2289      2292      4216      4334      2604      6460      6615      6616      7278      5817
 -1      5194    6    0    1
 -2      2339      2268       100       599      2422      2418      2420      7701      7572       742
 -1      5195    6    0    1
 -2       450      2717      2723      2883      2801      2803      2799      3352      7554      7553
 -1      5196    6    0    1
 -2      4133      4107      4287      4302      7134      4700      6060      6732      5760      7711
 -1      5197    6    0    1
 -2      1327      1286      1325      4223      1623      1620      1624      7042      7841      6944
 -1      5198    6    0    1
 -2      1353      2884      3124      1318      7429      3282      7903      1482      5793      4882
 -1      5199    6    0    1
 -2      2980      3112      4154      4344      3925      7213      7897      6861      7864      7777
 -1      5200    6    0    1
 -2      1328      1308      1330      4328      1628      1635      1576      6625      7871      7763
 -1      5201    6    0    1
 -2       605       639      2270      4267       728      7904      7905      7816      7907      7906
 -1      5202    6    0    1
 -2       640       603       658      4230       734       905       904      7493      6880      6249
 -1      5203    6    0    1
 -2      4127      4168      4154      4277      7358      7424      7154      6375      7481      7638
 -1      5204    6    0    1
 -2      1320      2730       306      2720      6568      2766      1438      6388      2768      2764
 -1      5205    6    0    1
 -2      1021      1011      1013      4321      1108      1114      1083      6156      5297      6858
 -1      5206    6    0    1
 -2      3109      3152      4234      4344      3390      6783      7564      7567      6785      6684
 -1      5207    6    0    1
 -2      3074      2929      2930      4197      3686      3681      3687      7161      5075      7038
 -1      5208    6    0    1
 -2      1674       398      2721      1676      1870      2788      7525      1872      1868      7438
 -1      5209    6    0    1
 -2      3075      2915      3083      4192      3617      3618      3620      7248      6986      6875
 -1      5210    6    0    1
 -2       495      4192      4155      4300      7908      6987      7909      7910      6996      5194
 -1      5211    6    0    1
 -2      2873      3067      3066      4305      3400      3399      3401      4669      4980      6369
 -1      5212    6    0    1
 -2      2907      3084      2909      4243      3579      3578      3577      5971      7771      5972
 -1      5213    6    0    1
 -2      2989      2995      4238      4307      3942      6937      5102      4900      7469      5105
 -1      5214    6    0    1
 -2      2350      4211      2307      4267      6409      4787      2522      7911      6556      6554
 -1      5215    6    0    1
 -2       643      1145      1135      4329      7912      1193      7650      7324      6334      7417
 -1      5216    6    0    1
 -2      1697      1696      1694      4304      2036      2032      2037      5623      7350      5740
 -1      5217    6    0    1
 -2      3031      3034      3030      4167      4017      3518      4012      7132      5850      6291
 -1      5218    6    0    1
 -2      2717      2736      2735      4258      2854      2856      2853      7588      6253      7172
 -1      5219    6    0    1
 -2      4235      4252      4152      4317      7712      5644      7585      5989      7437      7503
 -1      5220    6    0    1
 -2      4113      4252      4235      4317      7436      7712      5375      5990      7437      5989
 -1      5221    6    0    1
 -2       631       144      2894       610       832      3240      5991       837       836      5679
 -1      5222    6    0    1
 -2      2308      2305      2302      4251      2671      2670      2660      4704      5408      6207
 -1      5223    6    0    1
 -2      3010      2893      3011      4224      3514      3516      3515      6170      5539      5676
 -1      5224    6    0    1
 -2      2936      4169      2937      4347      7653      7913      3714      7914      7673      7915
 -1      5225    6    0    1
 -2      2341      4280        24      4358      7477      7916      2377      7603      7365      7917
 -1      5226    6    0    1
 -2       663      4267      4226      4308      7866      6610      7918      7867      7797      7851
 -1      5227    6    0    1
 -2      1336      1313      1339      4278      1580      1591      1644      7091      7846      7693
 -1      5228    6    0    1
 -2       509      1294      1296      4280      7919      1391      7920      7921      7839      7840
 -1      5229    6    0    1
 -2      1314      1279       377      4249      1547      1546      1542      5650      7187      7922
 -1      5230    6    0    1
 -2      4144      4349      4248      4353      6866      7725      7319      6236      7757      7484
 -1      5231    6    0    1
 -2      2315      2350      2335      4211      2682      2694      2633      4856      6409      5112
 -1      5232    6    0    1
 -2      4099      4233      4155      4325      4995      4650      7807      5424      5797      7152
 -1      5233    6    0    1
 -2       649       631       650      4239       940       950       889      4888      5243      5919
 -1      5234    6    0    1
 -2       494       491       504      4182       562       592       591      5338      5501      5916
 -1      5235    6    0    1
 -2      2894      3110      3030      4219      3520      3503      3519      5357      5418      6283
 -1      5236    6    0    1
 -2       292      1316      1274      1747      1424      1429      1428      1842      7104      7103
 -1      5237    6    0    1
 -2       615       630       127      3080       778       777       773      5601      7192      3187
 -1      5238    6    0    1
 -2      2940      4179      2942      4320      6758      6104      3741      6759      6106      5124
 -1      5239    6    0    1
 -2      1682      1681      1683      4287      1967      1972      1971      7087      5323      5879
 -1      5240    6    0    1
 -2      3027      2878      3008      4340      3432      3434      3433      4865      6535      5536
 -1      5241    6    0    1
 -2      1719      1667      1718      4273      1915      1911      1916      6502      6718      7406
 -1      5242    6    0    1
 -2      2717      3107      2726      4258      7923      6456      2806      7588      5965      5782
 -1      5243    6    0    1
 -2      4115      4189      4144      4260      5929      6865      5792      5664      6306      5551
 -1      5244    6    0    1
 -2      1706      1703      1700      4245      2068      2067      2057      5970      6128      5777
 -1      5245    6    0    1
 -2      2342      2346      2275      4217      2546      2545      2547      6666      6250      7523
 -1      5246    6    0    1
 -2      4134      4227       492      4358      7418      7628      7626      7364      7924      7833
 -1      5247    6    0    1
 -2      3135      2877       633      4242      3230      4944      7795      7197      5439      5440
 -1      5248    6    0    1
 -2      1316      1667       291      4273      6468      1839      1425      6717      6718      7860
 -1      5249    6    0    1
 -2      2965      2963      2964      4228      3855      3788      3856      5012      4623      7308
 -1      5250    6    0    1
 -2      2871       316      1311      3081      3256      1450      6930      3258      3254      6654
 -1      5251    6    0    1
 -2      3066      3064      3070      4162      4075      4077      4076      7793      5519      7592
 -1      5252    6    0    1
 -2      1740      4295      1761      4339      7462      7925      1934      6787      7463      7198
 -1      5253    6    0    1
 -2      4141      4213      4173      4343      7685      7094      7343      7072      7026      7522
 -1      5254    6    0    1
 -2      4126      4250      4191      4284      4841      7753      4897      4762      6842      4899
 -1      5255    6    0    1
 -2      1662       637       184      1736      7703       859      1784      1788      7698      1786
 -1      5256    6    0    1
 -2       138       616      3079      4292       818      5948      3222      7890      5949      5607
 -1      5257    6    0    1
 -2      4187      4196      4128      4276      4940      4630      5021      7109      6033      5828
 -1      5258    6    0    1
 -2      1017      1007      4162      4305      1102      6843      7683      5924      7926      7594
 -1      5259    6    0    1
 -2      3139      3047      3053      4330      3412      4047      3288      6474      5714      6476
 -1      5260    6    0    1
 -2      2936      4169      4347      4357      7653      7673      7914      6805      7654      7676
 -1      5261    6    0    1
 -2      3108      2883      3141      4258      3464      3461      3465      6685      7620      7844
 -1      5262    6    0    1
 -2      2361      1294       509      4280      7888      7919      7927      7355      7839      7921
 -1      5263    6    0    1
 -2      1728      4202      1757      4263      7600      5687      1877      7294      5688      5191
 -1      5264    6    0    1
 -2      2980      4154      3154      4353      7897      7752      3924      6862      7483      7928
 -1      5265    6    0    1
 -2      1022       261      4297      4351      1088      4415      7929      7635      4910      4955
 -1      5266    6    0    1
 -2      1023      1660       241      4263      7930      7931      1057      6290      6939      6915
 -1      5267    6    0    1
 -2      2360      4173      2267      4354      7177      6427      2506      7178      7012      7013
 -1      5268    6    0    1
 -2      2124      2126      2134      4313      2216      2250      2255      7836      5908      5909
 -1      5269    6    0    1
 -2      2934      4347      4139      4357      7662      5958      7431      7661      7676      6663
 -1      5270    6    0    1
 -2      1302      4154      1339      4319      7214      7637      1640      7458      7155      7640
 -1      5271    6    0    1
 -2      3082       125       613      2872      3183       767      6933      3185      3181      6261
 -1      5272    6    0    1
 -2      3015      3076      2951      4256      3799      3798      3796      6687      7611      5811
 -1      5273    6    0    1
 -2      2270       605        95       639      7905       721      2405      7904       728       727
 -1      5274    6    0    1
 -2      4099      4209      4136      4326      5496      5864      6034      5894      5999      7690
 -1      5275    6    0    1
 -2        50      2263       504      4188      7932      7900       534      7131      7204      5918
 -1      5276    6    0    1
 -2       664       626       606      4262       919       918       920      6890      5576      7686
 -1      5277    6    0    1
 -2       618       174       646      2729       843       839       844      7933      2759      6494
 -1      5278    6    0    1
 -2      4137      4093      4313      4350      7194      5910      6831      7195      6143      7317
 -1      5279    6    0    1
 -2       630       128      2869      4308       776      3190      7275      7276      7896      7149
 -1      5280    6    0    1
 -2      2343      2358       667      4226      2404      7934      7813      7829      7935      7830
 -1      5281    6    0    1
 -2      1678      1680      1704      4274      1957      1960      1959      7055      6225      6574
 -1      5282    6    0    1
 -2       617       114      2123       645       748      2151      7936       753       752      7937
 -1      5283    6    0    1
 -2      1686      1707      1706      4309      1997      1996      1998      6140      6755      6069
 -1      5284    6    0    1
 -2      1282      1299      1337      4162      1599      1600      1470      7624      7415      7593
 -1      5285    6    0    1
 -2      1305      1291       330      4270      1503      1502      1498      7790      6260      7938
 -1      5286    6    0    1
 -2       292      1667      1316      1747      1840      6468      1424      1842      1844      7104
 -1      5287    6    0    1
 -2       378      2269      1279      2349      2443      7504      1545      2445      2447      7263
 -1      5288    6    0    1
 -2      1678      1731      1664      4274      1900      1866      1898      7055      6220      5708
 -1      5289    6    0    1
 -2       602       653       655      4170       899       901       898      7705      7175      6698
 -1      5290    6    0    1
 -2       366      1293      2121      1321      1527      6514      2160      1523      1528      6513
 -1      5291    6    0    1
 -2      3126      3055      4178      4303      4062      5530      7060      7062      6066      6067
 -1      5292    6    0    1
 -2      1299      1337      4162      4305      1600      7593      7415      7939      7516      7594
 -1      5293    6    0    1
 -2       114      2123       645      2113      2151      7937       752      2153      2155      7940
 -1      5294    6    0    1
 -2       653      4170       602      4352      7175      7705       899      6269      7519      7941
 -1      5295    6    0    1
 -2      2719       646       174      2729      6495       839      2757      2761      6494      2759
 -1      5296    6    0    1
 -2      3135      2877       140       633      3230      3226      3228      7795      4944       820
 -1      5297    6    0    1
 -2      1305      1338      1322      4306      1605      1595      1646      7791      7828      7730
 -1      5298    6    0    1
 -2      1743      4168      1711      4277      7075      7359      1924      7722      7481      7053
 -1      5299    6    0    1
 -2        48        29      2266        30       483      2392      7547       482        39      2393
 -1      5300    6    0    1
 -2      3020       632       121      3137      7402       759      3169      3173      7586      3171
 -1      5301    6    0    1
 -2      1323      1325      1307      4268      1559      1621      1608      4965      7323      5696
 -1      5302    6    0    1
 -2      3098      4297      3007      4322      4413      5106      3698      4867      4891      5107
 -1      5303    6    0    1
 -2      4144      4189      4115      4265      6865      5929      5792      7512      6622      6041
 -1      5304    6    0    1
 -2      1292      2720      2743      4201      6389      2765      7942      6902      6901      7943
 -1      5305    6    0    1
 -2      1288      1333      1309      4234      1631      1630      1458      6932      6541      7565
 -1      5306    6    0    1
 -2      2936      2935      3072      4357      3712      3717      3716      6805      6752      6353
 -1      5307    6    0    1
 -2      2877      3079       139       633      3227      3223      3225      4944      5606       821
 -1      5308    6    0    1
 -2      1731      1704      1661      4274      1882      1881      1863      6220      6574      6182
 -1      5309    6    0    1
 -2        54        24      4280      4358       471      7916      7944      7945      7917      7365
 -1      5310    6    0    1
 -2      3087      2983      3106      4203      3830      3930      3772      7313      4554      4784
 -1      5311    6    0    1
 -2      4154      4278      4121      4344      7694      6243      7788      7777      6485      6293
 -1      5312    6    0    1
 -2      1280       287      1742      4277      1409      1825      7946      7607      7824      7947
 -1      5313    6    0    1
 -2      2723      3009       450      2883      6458      3348      2799      7553      3353      3352
 -1      5314    6    0    1
 -2      2282      2306      2280      4241      2563      2562      2560      5433      5397      5398
 -1      5315    6    0    1
 -2      1715      1672      1739      4201      1939      1940      1931      6837      7707      7784
 -1      5316    6    0    1
 -2       501      4155      4192      4326      7699      6987      7948      7037      7700      7691
 -1      5317    6    0    1
 -2      1667      1747      1717      4282      1844      1914      1913      6469      7106      7598
 -1      5318    6    0    1
 -2      3077       627       138      4292      5002       814      3220      4658      5004      7890
 -1      5319    6    0    1
 -2      1347      1292      2743      4201      1436      7942      7949      7950      6902      7943
 -1      5320    6    0    1
 -2       654       640       658      4230       893       904       959      5913      7493      6249
 -1      5321    6    0    1
 -2      1728      1758      4202      4255      1905      6325      7600      7292      6235      6326
 -1      5322    6    0    1
 -2      1324      1306      1326      4286      1615      1625      1564      5689      6082      5431
 -1      5323    6    0    1
 -2       609       632       121      3020       760       759       755      7160      7402      3169
 -1      5324    6    0    1
 -2      3050      3043      3045      4306      4037      4035      4038      7487      6965      7118
 -1      5325    6    0    1
 -2      1314       377      2353      4249      1542      2440      6002      5650      7922      6003
 -1      5326    6    0    1
 -2       293      1332      1672      4282      1431      7951      1845      7865      7657      7708
 -1      5327    6    0    1
 -2       320      1282      3070      4319      1466      7623      3268      7952      7838      7848
 -1      5328    6    0    1
 -2      1705      1677      1676      4276      1951      1897      1945      6911      6899      7280
 -1      5329    6    0    1
 -2      1660      1023       240      4263      7930      1056      7953      6939      6290      7571
 -1      5330    6    0    1
 -2      2302      4206      2301      4251      6213      5612      2658      6207      6339      5425
 -1      5331    6    0    1
 -2      4149      4228      4102      4339      5274      4379      6239      5518      7792      6436
 -1      5332    6    0    1
 -2      1018      1008      1010      4138      1105      1104      1052      5804      7778      5691
 -1      5333    6    0    1
 -2      1751       291      1667      4273      1837      1839      1841      7544      7860      6718
 -1      5334    6    0    1
 -2        26      4227      2272      4358      7954      7808      2381      7955      7924      7956
 -1      5335    6    0    1
 -2      3109      3152      2871      4234      3390      3389      3261      7564      6783      6931
 -1      5336    6    0    1
 -2      3028       453      2879      2718      3361      3357      3362      6063      2808      6991
 -1      5337    6    0    1
 -2        26        52      4227      4358       477      7957      7954      7955      7958      7924
 -1      5338    6    0    1
 -2      1672      1747       293      4282      1847      1843      1845      7708      7106      7865
 -1      5339    6    0    1
 -2      1339      1290      1336      4154      1641      1642      1644      7637      7212      7709
 -1      5340    6    0    1
 -2      1752      1743      1695      4265      2043      2042      2044      7465      6782      7761
 -1      5341    6    0    1
 -2      4094      4196      4187      4276      5097      4940      6316      6032      6033      7109
 -1      5342    6    0    1
 -2      3107      2726      2879       452      6456      7220      3359      3354      2805      3358
 -1      5343    6    0    1
 -2      1023       240       241      1660      1056       250      1057      7930      7953      7931
 -1      5344    6    0    1
 -2      1743      1722      1727      4265      2102      2101      2041      6782      6559      6797
 -1      5345    6    0    1
 -2      2270       639        96      4294      7904       726      2406      7959      7852      7853
 -1      5346    6    0    1
 -2      2310      4200      2309      4283      6904      4933      2679      6360      6348      5213
 -1      5347    6    0    1
 -2      2355      4206      2303      4225      6480      5307      2665      6482      5020      5491
 -1      5348    6    0    1
 -2      3124       324      1353      1318      3278      1480      7903      4882      1481      1482
 -1      5349    6    0    1
 -2      3120      2992      2996      4329      3959      3949      3370      7960      4434      4854
 -1      5350    6    0    1
 -2      1015      4162      1007      4229      5711      6843      1101      5151      6848      6846
 -1      5351    6    0    1
 -2      1290      1339      1302      4154      1641      1640      1464      7212      7637      7214
 -1      5352    6    0    1
 -2      2361        24      2341      4280      2366      2377      2379      7355      7916      7477
 -1      5353    6    0    1
 -2       641       650       653      4352       887       954       900      7587      5921      6269
 -1      5354    6    0    1
 -2      2363      2355      2303      4225      2539      2665      2674      6212      6482      5491
 -1      5355    6    0    1
 -2      4093      4225      4137      4313      5019      6441      7194      5910      6993      6831
 -1      5356    6    0    1
 -2      2888      1286       315      4223      7961      1447      3251      7962      7841      7902
 -1      5357    6    0    1
 -2      4105      4248      4144      4349      7189      7319      6864      6010      7725      6866
 -1      5358    6    0    1
 -2      2936      2937      2934      4347      3714      3713      3711      7914      7915      7662
 -1      5359    6    0    1
 -2      2333       501        49      4326      7035       531      7963      5895      7037      7486
 -1      5360    6    0    1
 -2      2989      2988      2885      4164      3471      3473      3472      5645      5477      4800
 -1      5361    6    0    1
 -2        27        51        50      2263       475        60       479      2386      7899      7932
 -1      5362    6    0    1
 -2        28        27        50      2263        37       479       478      2387      2386      7932
 -1      5363    6    0    1
 -2      1683      1729      1686      4287      1973      1985      1984      5879      6355      5874
 -1      5364    6    0    1
 -2        29        48      2266        49       483      7547      2392       480        58      7485
 -1      5365    6    0    1
 -2      1014       243       244      4295      1065       253      1066      7765      7964      7893
 -1      5366    6    0    1
 -2      1144      1125      1135      4329      1270      1192      1246      4511      4512      7417
 -1      5367    6    0    1
 -2      2919      4300      3075      4345      6385      7314      3625      6386      5235      7609
 -1      5368    6    0    1
 -2       611       122       632      3137       762       758       763      7558      3172      7586
 -1      5369    6    0    1
 -2      3093      3086      2943      4320      3760      3745      3758      5654      7123      6357
 -1      5370    6    0    1
 -2        49        28        50      2333       481       478        59      7963      2389      7130
 -1      5371    6    0    1
 -2        49        29        28      2333       480        38       481      7963      2390      2389
 -1      5372    6    0    1
 -2       664      4271       661      4292      7005      6073       974      6891      6733      5978
 -1      5373    6    0    1
 -2      4119      4258      4150      4323      6686      5783      6426      6304      5968      7121
 -1      5374    6    0    1
 -2      1307      1284      3011       313      1446      6025      6596      1445      1441      3245
 -1      5375    6    0    1
 -2      1716      1715      1714      4231      2089      1930      2090      6810      6978      5533
 -1      5376    6    0    1
 -2      2889      4152      3022      4317      7299      5641      3494      7502      7503      7857
 -1      5377    6    0    1
 -2      2349       379      2274      1281      2446      2448      2450      7847      1552      6948
 -1      5378    6    0    1
 -2      1690      4189      1695      4265      5930      7965      2018      6040      6622      7761
 -1      5379    6    0    1
 -2       607       625       665      4164       923       922       784      7535      5073      4799
 -1      5380    6    0    1
 -2       501       504      4155      4188       536      5917      7699      7036      5918      5352
 -1      5381    6    0    1
 -2      1277      2348       375      1317      7783      2434      1540      1541      5964      1536
 -1      5382    6    0    1
 -2      1146      1126      1136      4348      1271      1224      1255      4583      7448      4585
 -1      5383    6    0    1
 -2        51        27        26      2316       475        36       476      5383      2384      2383
 -1      5384    6    0    1
 -2      2889      3026       417      4317      3343      3342      3338      7502      7735      7821
 -1      5385    6    0    1
 -2      1312      1278      1746       289      1420      7669      7668      1419      1415      1831
 -1      5386    6    0    1
 -2      2326      2323      2321      4157      2707      2706      2703      6635      7200      5282
 -1      5387    6    0    1
 -2      1743      4277      1669      4278      7722      7966      1925      6795      7695      7967
 -1      5388    6    0    1
 -2       642       652       651      4153       894       949       883      7378      7521      7085
 -1      5389    6    0    1
 -2      2974      2955      4243      4285      3819      7133      7440      6962      6300      7049
 -1      5390    6    0    1
 -2       671      2729       618      4212      7968      7933       845      7969      7970      7205
 -1      5391    6    0    1
 -2      2717      2726      3107       451      2806      6456      7923      2802      2804      3355
 -1      5392    6    0    1
 -2      2937      4169      2938      4349      7913      6589      3721      7971      6011      7569
 -1      5393    6    0    1
 -2      2936      4347      2934      4357      7914      7662      3711      6805      7676      7661
 -1      5394    6    0    1
 -2      2126      2129      2117      4225      2218      2241      2245      6639      6399      7230
 -1      5395    6    0    1
 -2      3040      2907      4161      4346      3565      7451      6135      5138      7633      6136
 -1      5396    6    0    1
 -2      2880      3129      4279      4328      3444      7713      7972      7973      7506      7760
 -1      5397    6    0    1
 -2      3121      3152      4204      4234      3391      6784      6676      6403      6783      6691
 -1      5398    6    0    1
 -2      3137       611       122      2886      7558       762      3172      3176      7351      3174
 -1      5399    6    0    1
 -2      4157      4254      4142      4341      6887      6803      7780      7692      7348      5674
 -1      5400    6    0    1
 -2      3003      3007      3098      4297      3982      3698      3979      4414      5106      4413
 -1      5401    6    0    1
 -2      1022       262       261      4351      1087       271      1088      7635      5010      4910
 -1      5402    6    0    1
 -2      3092      4314      4160      4355      7636      6791      7306      7799      7974      7541
 -1      5403    6    0    1
 -2       666       663      4226      4308       927      7918      7411      7850      7867      7851
 -1      5404    6    0    1
 -2      2264      2338      2364      4331      2416      2490      2489      7720      7749      6363
 -1      5405    6    0    1
 -2      4134      4159      4280      4306      7249      7357      7363      6964      7250      7975
 -1      5406    6    0    1
 -2      1009      1019      1012      4177      1110      1064      1109      6394      6553      7374
 -1      5407    6    0    1
 -2       488      4165      1300      4330      7884      7976      7977      7978      7500      7979
 -1      5408    6    0    1
 -2       645      2137      2113      4214      7980      2156      7940      7981      7982      7199
 -1      5409    6    0    1
 -2      1326      1317      1275      4286      1562      1538      1563      5431      5695      7208
 -1      5410    6    0    1
 -2      2950      2962      2961      4254      3794      3793      3792      5410      5411      6917
 -1      5411    6    0    1
 -2      2125      2889       417      4317      7297      3338      2183      7501      7502      7821
 -1      5412    6    0    1
 -2      1749      1662      1708      4170      1886      1885      1887      7773      7706      7046
 -1      5413    6    0    1
 -2      3001      3075      4307      4345      3638      7798      5821      5822      7609      5071
 -1      5414    6    0    1
 -2      2919      2916      3075      4300      3624      3616      3625      6385      6121      7314
 -1      5415    6    0    1
 -2      3024      3022      3025      4252      4002      4004      4003      4645      5642      5643
 -1      5416    6    0    1
 -2      1712      1711      1752      4299      2084      2086      2085      7239      6780      7597
 -1      5417    6    0    1
 -2      2873       322      1351      4305      3274      1472      6177      4669      7983      6178
 -1      5418    6    0    1
 -2      3066      4162      3070      4305      7793      7592      4076      6369      7594      7517
 -1      5419    6    0    1
 -2      3133      2988      2869      4308      3380      3376      3194      7802      5891      7149
 -1      5420    6    0    1
 -2      2121       366      1321      2112      2160      1523      6513      2162      2158      6793
 -1      5421    6    0    1
 -2       668       626       624      4158       983       929       873      7473      5573      7759
 -1      5422    6    0    1
 -2       138      3079      3077      4292      3222      3224      3220      7890      5607      4658
 -1      5423    6    0    1
 -2      3058      3057      3119      4248      3834      4066      4065      4457      6859      4822
 -1      5424    6    0    1
 -2      1012      4177      1022      4297      7374      7634      1111      7895      4840      7929
 -1      5425    6    0    1
 -2      2322      2323      2324      4312      2705      2624      2493      6851      7201      6671
 -1      5426    6    0    1
 -2       645       669      2137      4214       754      7984      7980      7981      7985      7982
 -1      5427    6    0    1
 -2       671      2739      2729      4212      7986      2762      7968      7969      7987      7970
 -1      5428    6    0    1
 -2      4150      4119      4323      4332      6426      6304      7121      6037      5180      7549
 -1      5429    6    0    1
 -2      3131      3088      2891      4327      3508      3315      3506      6723      5852      6669
 -1      5430    6    0    1
 -2      4209      4315      4136      4326      4390      6750      5864      5999      7219      7690
 -1      5431    6    0    1
 -2      4134      4280      4165      4306      7363      7362      7288      6964      7975      7290
 -1      5432    6    0    1
 -2      3018      3019      3020      4350      3887      3511      3999      7181      7390      7081
 -1      5433    6    0    1
 -2      2958      3058      3062      4248      3833      3835      3730      7744      4457      6205
 -1      5434    6    0    1
 -2       662       136      3136      2875       806      3214      7542      7391      3216      3218
 -1      5435    6    0    1
 -2      1311      3081       315      4223      6654      3253      1451      6358      6311      7902
 -1      5436    6    0    1
 -2      4125      4267      4148      4308      6555      7746      6298      5892      7797      5789
 -1      5437    6    0    1
 -2      4158      4262      4102      4295      5577      5575      4370      7129      7461      6682
 -1      5438    6    0    1
 -2      1304      3053      1319      4348      7066      7988      1404      7450      4919      7303
 -1      5439    6    0    1
 -2      2356      2262      2357      4343      2478      2479      2481      7102      7889      7223
 -1      5440    6    0    1
 -2      2123       672       617      4217      7989       750      7936      6815      7991      7990
 -1      5441    6    0    1
 -2        50       504       501      4188       534       536       532      7131      5918      7036
 -1      5442    6    0    1
 -2      4184      4199      4131      4334      6868      5672      6384      7445      7277      7120
 -1      5443    6    0    1
 -2       643      1135       208       644      7650      1190       880       881      7416       877
 -1      5444    6    0    1
 -2      2721      2728      2714      4276      2836      2835      2793      7439      6031      7405
 -1      5445    6    0    1
 -2      4105      4347      4248      4349      7191      6342      7189      6010      7727      7725
 -1      5446    6    0    1
 -2      1136      1318      1319       280      4883      1407      7446      1222      1406      1402
 -1      5447    6    0    1
 -2      2973      2974      3118      4285      3818      3897      3896      6276      6962      6346
 -1      5448    6    0    1
 -2      4168      4144      4265      4333      7320      7512      7077      7321      7173      7467
 -1      5449    6    0    1
 -2       377      1279      2269      4249      1546      7504      2442      7922      7187      6341
 -1      5450    6    0    1
 -2      2356      4166      2262      4343      5326      7422      2478      7102      7025      7889
 -1      5451    6    0    1
 -2      1331      1324      1275      4286      1566      1565      1535      7126      5689      7208
 -1      5452    6    0    1
 -2      3084      2974      2955      4243      3820      3819      3590      7771      7440      7133
 -1      5453    6    0    1
 -2      3055      3142      3126      4178      3876      3995      4062      5530      5257      7060
 -1      5454    6    0    1
 -2      1721      1663      1719      4266      1889      1891      1890      5820      6800      6573
 -1      5455    6    0    1
 -2      3001      3075      2995      4307      3638      3967      3955      5821      7798      7469
 -1      5456    6    0    1
 -2      1295      1280      1756      4229      1411      7992      7873      7993      7605      7994
 -1      5457    6    0    1
 -2      1675      4229      1742      4277      6373      7995      1950      6376      6377      7947
 -1      5458    6    0    1
 -2      1296      1341       488      4280      1393      7885      7996      7840      7886      7887
 -1      5459    6    0    1
 -2      2869       127       630      3080      3189       777      7275      3191      3187      7192
 -1      5460    6    0    1
 -2      1275       374      2348      1317      1533      2433      7532      1538      1537      5964
 -1      5461    6    0    1
 -2       373      2271      2344      1275      2430      2432      2428      1534      7714      7207
 -1      5462    6    0    1
 -2       643      2996       628      4329      7997      6827       796      7324      4854      7243
 -1      5463    6    0    1
 -2       314      3138      1307      4268      3248      7100      1444      7998      7101      5696
 -1      5464    6    0    1
 -2       678       133      2868       644       793      3205      7269       802       801      5761
 -1      5465    6    0    1
 -2      2980      4344      4154      4353      6861      7777      7897      6862      6295      7483
 -1      5466    6    0    1
 -2      4130      4228      4149      4339      6335      5274      7442      7340      7792      5518
 -1      5467    6    0    1
 -2      2989      2987      2988      4238      3940      3939      3471      5102      5677      5460
 -1      5468    6    0    1
 -2       646      2719      2741      4219      6495      2758      7999      6496      6497      8000
 -1      5469    6    0    1
 -2      1685      1686      1734      4198      1983      1992      1991      5559      5873      4722
 -1      5470    6    0    1
 -2       499        70        71      4330       551        80       552      6379      4562      4563
 -1      5471    6    0    1
 -2       662      3136       135      4281      7542      3213       807      7393      7543      7845
 -1      5472    6    0    1
 -2      3045      4165      3127      4306      7289      7649      3409      7118      7290      7868
 -1      5473    6    0    1
 -2      2874      4165      3046      4330      7782      7786      3406      8001      7500      5037
 -1      5474    6    0    1
 -2       641       600       650      4171       854       888       887      7369      6223      6710
 -1      5475    6    0    1
 -2       330      3050      1305      4270      3296      8002      1498      7938      7488      7790
 -1      5476    6    0    1
 -2      3053       325      1319      4348      3283      1485      7988      4919      8003      7303
 -1      5477    6    0    1
 -2      1340      4165      2874      4330      7648      7782      7781      8004      7500      8001
 -1      5478    6    0    1
 -2       611       635       123      4253       766       765       761      7029      5217      8005
 -1      5479    6    0    1
 -2      2123      2136       672      4217      2152      8006      7989      6815      8007      7991
 -1      5480    6    0    1
 -2      3086      2948      2938      4260      3735      3727      3733      7122      7383      5942
 -1      5481    6    0    1
 -2        31        30        48      4315        40       482       484      7644      7774      7548
 -1      5482    6    0    1
 -2       647       639      4267      4294       912      7907      7796      7766      7852      7898
 -1      5483    6    0    1
 -2       500       492      4182      4227       542      7625      5228      5230      7628      5229
 -1      5484    6    0    1
 -2      4191      4250      4126      4328      7753      4841      4897      6297      6973      4984
 -1      5485    6    0    1
 -2       646      2741       670      4219      7999      8008       841      6496      8000      8009
 -1      5486    6    0    1
 -2      1302      1282       320      4319      1467      1466      1462      7458      7838      7952
 -1      5487    6    0    1
 -2      1662      1736      1708      4170      1788      1884      1885      7706      7616      7046
 -1      5488    6    0    1
 -2      1739       392      1670      4342      1850      1852      1854      7785      8010      7697
 -1      5489    6    0    1
 -2      1662      4170      1749      4352      7706      7773      1886      8011      7519      6558
 -1      5490    6    0    1
 -2      3089      4184      2903      4335      5456      6895      3558      5490      6157      6896
 -1      5491    6    0    1
 -2      2875       662       136       608      7391       806      3216      5839       813       812
 -1      5492    6    0    1
 -2       605      2270      2343      4267      7905      2407      7812      7816      7906      7815
 -1      5493    6    0    1
 -2      2309      2305      2308      4200      2677      2671      2599      4933      5272      4644
 -1      5494    6    0    1
 -2      1332      4201      1672      4282      7286      7707      7951      7657      6753      7708
 -1      5495    6    0    1
 -2      1694      1698      1697      4185      2039      2038      2037      4823      5054      5553
 -1      5496    6    0    1
 -2       322      1297      1351      4305      1474      1475      1472      7983      6613      6178
 -1      5497    6    0    1
 -2      1296      1342      1338      4280      1656      1596      1659      7840      7356      7818
 -1      5498    6    0    1
 -2      2289      2292      2293      4216      2604      2607      2606      6615      6460      6442
 -1      5499    6    0    1
 -2      3070       321      3125      1337      3269      3271      3273      7515      1469      7514
 -1      5500    6    0    1
 -2      1668      1735      1748      4171      1782      1921      1920      6169      7370      4422
 -1      5501    6    0    1
 -2      2337      2270        96      4294      2410      2406      2408      6305      7959      7853
 -1      5502    6    0    1
 -2      1344      2742      2730      4224      8012      2769      8013      8014      8015      6569
 -1      5503    6    0    1
 -2      2953      2952      2967      4186      3767      3802      3801      5594      7739      7169
 -1      5504    6    0    1
 -2      2130      2119      2127      4340      2222      2224      2239      7344      6572      7590
 -1      5505    6    0    1
 -2       509      1296       488      4280      7920      7996       549      7921      7840      7887
 -1      5506    6    0    1
 -2       240       217       241      1660       996       997       250      7953      1808      7931
 -1      5507    6    0    1
 -2      1276      1329      1327      4273      1567      1571      1570      6416      6265      7043
 -1      5508    6    0    1
 -2      2970      3014      2898      4259      3535      3534      3524      5888      5889      4791
 -1      5509    6    0    1
 -2      2730      1320      1344      4224      6568      1440      8013      6569      6392      8014
 -1      5510    6    0    1
 -2      2340      4216      4312      4336      7259      6447      8016      7260      6836      7859
 -1      5511    6    0    1
 -2      2993      3001      2991      4307      3954      3953      3951      4517      5821      4526
 -1      5512    6    0    1
 -2      3105      3054      2917      4359      3630      3629      3626      4362      4360      4366
 -1      5513    6    0    1
 -2       621       666       663      4226       718       927       984      7410      7411      7918
 -1      5514    6    0    1
 -2      2328      2262      2356      4166      2469      2478      2477      6406      7422      5326
 -1      5515    6    0    1
 -2      3021      3022      2889      4152      3495      3494      3340      7305      5641      7299
 -1      5516    6    0    1
 -2      2967      4186      2952      4355      7169      7739      3802      8017      7459      8018
 -1      5517    6    0    1
 -2      3136      2875      3006      4281      3218      3415      3416      7543      7394      6806
 -1      5518    6    0    1
 -2      4177      4297      3005      4351      4840      7858      7574      6332      4955      7576
 -1      5519    6    0    1
 -2      2276      4226      2343      4267      6606      7829      2550      6595      6610      7815
 -1      5520    6    0    1
 -2        25        26      2272      4358        35      2381      2380      8019      7955      7956
 -1      5521    6    0    1
 -2        53        52        26      4358        62       477       473      8020      7958      7955
 -1      5522    6    0    1
 -2      2340      4216      2293      4312      7259      6442      2608      8016      6447      6445
 -1      5523    6    0    1
 -2      3139      1350       327      4330      6473      1487      3287      6474      6475      8021
 -1      5524    6    0    1
 -2      3021      2107       415      4340      7304      2179      3336      7769      7831      8022
 -1      5525    6    0    1
 -2      3007      3005      3102      4297      3983      3987      3986      5106      7858      4838
 -1      5526    6    0    1
 -2      2996       643       132      4329      7997       795      3202      4854      7324      7862
 -1      5527    6    0    1
 -2       639      2270      4267      4294      7904      7906      7907      7852      7959      7898
 -1      5528    6    0    1
 -2        95       605      2270      2343       721      7905      2405      2403      7812      2407
 -1      5529    6    0    1
 -2      3065      3074      3063      4318      4073      3710      4071      7399      7162      6908
 -1      5530    6    0    1
 -2      1336      1309      1333      4344      1643      1630      1581      7092      7568      6484
 -1      5531    6    0    1
 -2      2940      2942      2943      4320      3741      3744      3743      6759      5124      6357
 -1      5532    6    0    1
 -2      1282      1301      1299      4162      1598      1597      1599      7624      7643      7415
 -1      5533    6    0    1
 -2      4181      4256      4098      4346      5736      5813      7550      7528      6508      4930
 -1      5534    6    0    1
 -2      3112       318      1290      4344      3262      1460      7211      7864      8023      7863
 -1      5535    6    0    1
 -2      1026      4158      1014      4262      7474      7272      1068      7508      5577      7892
 -1      5536    6    0    1
 -2      2951      3014      3015      4256      3545      3797      3796      5811      6179      6687
 -1      5537    6    0    1
 -2      2967      4323      4186      4355      7170      6382      7169      8017      6256      7459
 -1      5538    6    0    1
 -2      1302      1339      1301      4319      1640      1590      1601      7458      7640      7837
 -1      5539    6    0    1
 -2        48        47        31      4315        57       486       484      7548      6451      7644
 -1      5540    6    0    1
 -2      2975      3059      2979      4204      3905      3904      3842      5547      6641      6215
 -1      5541    6    0    1
 -2      1321      2112      1345      4232      6793      8024      1525      6517      6794      8025
 -1      5542    6    0    1
 -2      1340      1300      1283      4165      1602      1603      1497      7648      7976      7647
 -1      5543    6    0    1
 -2      1326      1287      1328      4328      1626      1627      1629      4938      4936      6625
 -1      5544    6    0    1
 -2      2341      2272      4311      4358      2382      7809      7581      7603      7956      7602
 -1      5545    6    0    1
 -2      1274      1325      1323      4282      1557      1559      1560      7105      6628      6083
 -1      5546    6    0    1
 -2      3066      3070      3125      4305      4076      3273      3402      6369      7517      7518
 -1      5547    6    0    1
 -2      4153      4253      4114      4331      4923      4998      5340      6103      6634      6614
 -1      5548    6    0    1
 -2      2896      2970      4259      4350      3525      5888      6455      7316      6499      6739
 -1      5549    6    0    1
 -2      3103      3034      3031      4167      3450      4017      4020      5859      5850      7132
 -1      5550    6    0    1
 -2      3101      3102      3005      4177      3869      3987      3985      5006      4835      7574
 -1      5551    6    0    1
 -2       647       605       663      4267       913       915       914      7796      7816      7866
 -1      5552    6    0    1
 -2       499      4165       488      4330      7499      7884       582      6379      7500      7978
 -1      5553    6    0    1
 -2      2947      2903      3089      4184      3549      3558      3560      6452      6895      5456
 -1      5554    6    0    1
 -2      2270      2350      2307      4267      2523      2522      2521      7906      7911      6554
 -1      5555    6    0    1
 -2      2883      3107      2717      4258      3356      7923      7554      7620      5965      7588
 -1      5556    6    0    1
 -2       506       621       619      4226      7537       716      8026      7538      7410      8027
 -1      5557    6    0    1
 -2      2265      2348       375      1277      2438      2434      2436      6047      7783      1540
 -1      5558    6    0    1
 -2       240       218       217      1660       995       227       996      7953      1809      1808
 -1      5559    6    0    1
 -2      4136      4325      4099      4326      6563      5424      6034      7690      8028      5894
 -1      5560    6    0    1
 -2      1291      2876       330      4270      6185      3298      1502      6260      6259      7938
 -1      5561    6    0    1
 -2      1746      1663      1312       289      1835      6799      7668      1831      1833      1419
 -1      5562    6    0    1
 -2      3005      4297      3003      4351      7858      4414      3980      7576      4955      4911
 -1      5563    6    0    1
 -2       637       602       655      4170       860       898       897      7412      7705      6698
 -1      5564    6    0    1
 -2       314      1307      1286      4268      1444      1449      1448      7998      5696      7842
 -1      5565    6    0    1
 -2      1337      3070       321      1282      7515      3269      1469      1470      7623      1465
 -1      5566    6    0    1
 -2       377      2269      2353      4249      2442      2444      2440      7922      6341      6003
 -1      5567    6    0    1
 -2      1012      1014      4177      4295      1067      7273      7374      7376      7765      6683
 -1      5568    6    0    1
 -2       635      3132       123      4253      6693      3177       765      5217      6694      8005
 -1      5569    6    0    1
 -2       620       668      1026      4262       982      7470      7882      8029      7507      7508
 -1      5570    6    0    1
 -2      1305      4270      3050      4306      7790      7488      8002      7791      7254      7487
 -1      5571    6    0    1
 -2        25        53        26      4358       474       473        35      8019      8020      7955
 -1      5572    6    0    1
 -2      3017      2872      3035      4257      3394      3393      3392      6725      6263      6581
 -1      5573    6    0    1
 -2      1723      1718      1716      4293      2096      2095      2097      6661      7285      6889
 -1      5574    6    0    1
 -2       599       648       656      4289       885       886       746      7573      6748      7509
 -1      5575    6    0    1
 -2      2292      2291      4199      4334      2605      6656      5509      7278      7164      7277
 -1      5576    6    0    1
 -2       123      2886       611      4253      3175      7351       761      8005      6731      7029
 -1      5577    6    0    1
 -2      3026      3023      3111      4232      3498      3504      4007      7734      7224      6549
 -1      5578    6    0    1
 -2       488      1341      1300      4165      7885      1394      7977      7884      7883      7976
 -1      5579    6    0    1
 -2      4148      4211      4110      4294      6321      5111      4386      4448      5962      4447
 -1      5580    6    0    1
 -2      3150      3090      4207      4338      3453      7652      4410      8030      6990      6609
 -1      5581    6    0    1
 -2      1345      2112      2135      4232      8024      2159      8031      8025      6794      8032
 -1      5582    6    0    1
 -2      1280      1742      4229      4277      7946      7995      7605      7607      7947      6377
 -1      5583    6    0    1
 -2      2302      2301      2300      4251      2658      2655      2659      6207      5425      4713
 -1      5584    6    0    1
 -2       287      1313      1669      4277      1413      8033      1827      7824      7825      7966
 -1      5585    6    0    1
 -2       320      3070      2870      4319      3268      3270      3266      7952      7848      7457
 -1      5586    6    0    1
 -2      1299      4162      1007      4305      7415      6843      7414      7939      7594      7926
 -1      5587    6    0    1
 -2      4162      4229      4127      4319      6848      5152      5132      5133      7805      5014
 -1      5588    6    0    1
 -2       601       652       642      4331       895       894       740      7721      7328      7776
 -1      5589    6    0    1
 -2       143       631      3134      4239       833      6679      3237      8034      5243      6680
 -1      5590    6    0    1
 -2      1702      1703      1745      4245      2066      2073      1909      5247      6128      5465
 -1      5591    6    0    1
 -2      1733      1735      1749      4352      2104      1888      2083      6479      7546      6558
 -1      5592    6    0    1
 -2      2346      2339      2275      4289      2544      2425      2545      4689      7702      7524
 -1      5593    6    0    1
 -2      4099      4325      4155      4326      5424      7152      7807      5894      8028      7700
 -1      5594    6    0    1
 -2       413      3037      2106      4261      3330      6286      2173      8035      7058      7059
 -1      5595    6    0    1
 -2      1015      1007      1025      4229      1101      1097      1046      5151      6846      7128
 -1      5596    6    0    1
 -2       648       651       632      4240       884       946       933      6464      7086      7403
 -1      5597    6    0    1
 -2      1149      1304      1319      4348      7425      1404      7872      6601      7450      7303
 -1      5598    6    0    1
 -2      3028      3029      2890      4196      3500      3499      3365      4629      6125      6116
 -1      5599    6    0    1
 -2      2967      2968      2953      4186      3809      3808      3801      7169      6381      5594
 -1      5600    6    0    1
 -2      4165      4280      1341      4306      7362      7886      7883      7290      7975      8036
 -1      5601    6    0    1
 -2       314      2888      3138      4268      3250      3252      3248      7998      8037      7101
 -1      5602    6    0    1
 -2       619       621       667      4226       716       981       725      8027      7410      7830
 -1      5603    6    0    1
 -2      1020      1010      1008      4318      1106      1104      1077      7384      7520      7310
 -1      5604    6    0    1
 -2      2980      2960      2979      4353      3843      3841      3844      6862      6591      6237
 -1      5605    6    0    1
 -2       624      1006      4158      4281      7758      7472      7759      8038      7843      6807
 -1      5606    6    0    1
 -2      2887       135      3136      4281      3211      3213      3215      5952      7845      7543
 -1      5607    6    0    1
 -2      1688      1724      1732      4246      2006      2010      1980      6995      5843      6977
 -1      5608    6    0    1
 -2      2881       612       143      4239      8039       829      3235      7144      7497      8034
 -1      5609    6    0    1
 -2       143       612       631      4239       829       834       833      8034      7497      5243
 -1      5610    6    0    1
 -2      3134      2881       143      4239      3239      3235      3237      6680      7144      8034
 -1      5611    6    0    1
 -2      2935      3099      3013      4298      3705      3720      3719      7168      5720      6093
 -1      5612    6    0    1
 -2      2929      3074      3071      4318      3686      3688      3689      4571      7162      4539
 -1      5613    6    0    1
 -2      1732      4246      1724      4332      6977      5843      2010      5727      6338      5438
 -1      5614    6    0    1
 -2      1014      1026      1006      4158      1068      1042      1098      7272      7474      7472
 -1      5615    6    0    1
 -2      1674      1741      1705      4212      1947      1917      1946      7237      5487      5662
 -1      5616    6    0    1
 -2      2888       315      3081      4223      3251      3253      3255      7962      7902      6311
 -1      5617    6    0    1
 -2      2118      2882       413      4261      5937      3326      2171      6882      6883      8035
 -1      5618    6    0    1
 -2      1338      1281      1322      4159      1594      1592      1595      7817      6946      7618
 -1      5619    6    0    1
 -2      1145       643       628      4329      7912       796      7242      6334      7324      7243
 -1      5620    6    0    1
 -2      2917      4300      2918      4359      5195      6097      3621      4366      5196      6098
 -1      5621    6    0    1
 -2       489       625       666      4164      7621       720      7407      7622      5073      7664
 -1      5622    6    0    1
 -2      1330      1277      1328      4191      1573      1574      1576      5800      6048      6624
 -1      5623    6    0    1
 -2      4134      4280      4159      4358      7363      7357      7249      7364      7365      7601
 -1      5624    6    0    1
 -2       620      1026      1760      4262      7882      7880      7878      8029      7508      8040
 -1      5625    6    0    1
 -2      1660      1728      1757      4263      1813      1877      1876      6939      7294      5191
 -1      5626    6    0    1
 -2      4186      4314      2952      4355      7301      7740      7739      7459      7974      8018
 -1      5627    6    0    1
 -2      4120      4236      4159      4270      4917      6026      6158      5241      6745      7255
 -1      5628    6    0    1
 -2       601       654       652      4331       892       896       895      7721      6633      7328
 -1      5629    6    0    1
 -2      1333      1288      1329      4234      1631      1632      1634      6541      6932      6162
 -1      5630    6    0    1
 -2      1726      1677      4187      4356      1955      7454      4907      6490      7589      6564
 -1      5631    6    0    1
 -2       239      1665       219      4255      8041      1814       998      7729      7562      7894
 -1      5632    6    0    1
 -2      2352      2298      2360      4354      2638      2652      2651      7271      5596      7178
 -1      5633    6    0    1
 -2      2348      2265      2325      4191      2438      2496      2498      4898      5646      5254
 -1      5634    6    0    1
 -2      3076      4181      2974      4346      7804      7069      3901      7612      7528      7529
 -1      5635    6    0    1
 -2      4108      4150      4323      4332      7667      7121      5365      6229      6037      7549
 -1      5636    6    0    1
 -2      1670       392      2711      4342      1852      2774      7826      7697      8010      8042
 -1      5637    6    0    1
 -2       130       622       676      3140       788       789       786      3198      4848      5699
 -1      5638    6    0    1
 -2      2888      4223      3126      4268      7962      7432      3490      8037      7108      7061
 -1      5639    6    0    1
 -2       677       620       668      1026       706       982       875      7881      7882      7470
 -1      5640    6    0    1
 -2      1352      1295      1025      1343      1369      7877      7875      1401      1658      7127
 -1      5641    6    0    1
 -2      2919      2920      2918      4300      3632      3631      3623      6385      5220      6097
 -1      5642    6    0    1
 -2      3092      2952      4314      4355      3765      7740      7636      7799      8018      7974
 -1      5643    6    0    1
 -2      2885      2988      3133      4164      3473      3380      3197      4800      5477      7536
 -1      5644    6    0    1
 -2      1662       602      4170      4352      7704      7705      7706      8011      7941      7519
 -1      5645    6    0    1
 -2      1689      1687      1685      4175      1993      1987      1994      4726      4807      4850
 -1      5646    6    0    1
 -2      2976      3129      2977      4250      3908      3907      3839      6520      7505      5161
 -1      5647    6    0    1
 -2      1291      1305      1322      4270      1503      1646      1645      6260      7790      7677
 -1      5648    6    0    1
 -2      2887      4281      3006      4351      5952      6806      3484      5245      6270      6809
 -1      5649    6    0    1
 -2      2330      2109      4173      4343      7583      7584      7561      7854      7849      7522
 -1      5650    6    0    1
 -2       413      2106      2118      4261      2173      2175      2171      8035      7059      6882
 -1      5651    6    0    1
 -2      2735      4180      2711      4342      7171      7827      2821      7478      6980      8042
 -1      5652    6    0    1
 -2      2882      3037       413      4261      3331      3330      3326      6883      7058      8035
 -1      5653    6    0    1
 -2      2110      2131      2120      4166      2243      2242      2206      6398      6871      7423
 -1      5654    6    0    1
 -2      3020      3137      3018      4240      3173      3482      3999      7080      7559      7180
 -1      5655    6    0    1
 -2      3005      3003      3004      4351      3980      3977      3981      7576      4911      6701
 -1      5656    6    0    1
 -2      1295      1756      1025      4229      7873      7876      7877      7993      7994      7128
 -1      5657    6    0    1
 -2      3023      2889      4252      4317      3496      8043      7435      7226      7502      7437
 -1      5658    6    0    1
 -2      2360      2330      2267      4173      2508      2463      2506      7177      7561      6427
 -1      5659    6    0    1
 -2      1340      1300      4165      4330      1602      7976      7648      8004      7979      7500
 -1      5660    6    0    1
 -2      2972      2954      2971      4288      3813      3811      3814      4950      4833      6123
 -1      5661    6    0    1
 -2       666      4164       607      4308      7664      7535       924      7850      5893      7803
 -1      5662    6    0    1
 -2      1277      1317      1328      4191      1541      1575      1574      6048      5694      6624
 -1      5663    6    0    1
 -2      2292      2291      2295      4199      2605      2615      2614      5509      6656      5541
 -1      5664    6    0    1
 -2      1025      1343      1295      4229      7127      1658      7877      7128      6847      7993
 -1      5665    6    0    1
 -2      2881      4207       612      4239      7143      7496      8039      7144      5355      7497
 -1      5666    6    0    1
 -2      1315      1279      1335      4236      1550      1585      1584      7264      7186      6744
 -1      5667    6    0    1
 -2      3107      2883      2717       451      3356      7554      7923      3355      3351      2802
 -1      5668    6    0    1
 -2      2899      3085      3008      4194      3538      3540      3530      4673      5249      5174
 -1      5669    6    0    1
 -2      4189      4265      4144      4333      6622      7512      6865      7174      7467      7173
 -1      5670    6    0    1
 -2      2363      2342      2273      4225      2537      2475      2538      6212      6667      7064
 -1      5671    6    0    1
 -2       489       506       498      4226       579       524       585      7409      7538      6418
 -1      5672    6    0    1
 -2      2904      3040      2907      4161      3553      3565      3564      6056      6135      7451
 -1      5673    6    0    1
 -2      1695      4265      4189      4333      7761      6622      7965      7762      7467      7174
 -1      5674    6    0    1
 -2      1726      1679      1677      4356      1954      1953      1955      6490      6650      7589
 -1      5675    6    0    1
 -2      2916      2918      2917      4300      3622      3621      3614      6121      6097      5195
 -1      5676    6    0    1
 -2      3132      2886       123      4253      3179      3175      3177      6694      6731      8005
 -1      5677    6    0    1
 -2      2889      3022      4252      4317      3494      5642      8043      7502      7857      7437
 -1      5678    6    0    1
 -2      2901      3085      2899      4194      3539      3538      3536      4870      5249      4673
 -1      5679    6    0    1
 -2       314      1286      2888      4268      1448      7961      3250      7998      7842      8037
 -1      5680    6    0    1
 -2      2312      2314      2267      4235      2505      2504      2460      6511      7855      6430
 -1      5681    6    0    1
 -2      2956      3056      4269      4303      3821      7325      5154      8044      6587      7326
 -1      5682    6    0    1
 -2      3067      3071      3065      4318      4080      4079      4078      4880      4539      7399
 -1      5683    6    0    1
 -2      4164      4226      4125      4308      6501      6417      5443      5893      7851      5892
 -1      5684    6    0    1
 -2      2284      2286      2290      4163      2579      2582      2581      5738      4690      7631
 -1      5685    6    0    1
 -2      3112      3109       318      4344      3264      3260      3262      7864      7567      8023
 -1      5686    6    0    1
 -2      2731       392      1739      4342      2770      1850      8045      8046      8010      7785
 -1      5687    6    0    1
 -2      1739      1670      1715      4342      1854      1929      1931      7785      7697      6892
 -1      5688    6    0    1
 -2      3123      3053      3049      4348      3467      4048      4054      5155      4919      4400
 -1      5689    6    0    1
 -2      1309      1290       318      4344      1461      1460      1456      7568      7863      8023
 -1      5690    6    0    1
 -2      2989      2991      2995      4307      3944      3946      3942      4900      4526      7469
 -1      5691    6    0    1
 -2      4134      4159      4311      4358      7249      6029      7176      7364      7601      7602
 -1      5692    6    0    1
 -2      4154      4344      4121      4353      7777      6293      7788      7483      6295      6296
 -1      5693    6    0    1
 -2       662       135       623      4281       807       809       808      7393      7845      6046
 -1      5694    6    0    1
 -2      1283      4165      1341      4306      7647      7883      1604      7869      7290      8036
 -1      5695    6    0    1
 -2       649       650       600      4171       889       888       890      5911      6710      6223
 -1      5696    6    0    1
 -2      2951      3076      3040      4346      3798      3800      3555      4929      7612      5138
 -1      5697    6    0    1
 -2      1014      4262      4158      4295      7892      5577      7272      7765      7461      7129
 -1      5698    6    0    1
 -2       493       505       490      4238       588       530       586      7044      7801      6960
 -1      5699    6    0    1
 -2      3040      3084      2907      4346      3580      3579      3565      5138      7772      7633
 -1      5700    6    0    1
 -2      2876      3050       330      4270      3300      3296      3298      6259      7488      7938
 -1      5701    6    0    1
 -2      3095      3025      2947      4208      3778      3777      3779      5510      5603      6756
 -1      5702    6    0    1
 -2      2948      2937      2938      4349      3726      3721      3727      7738      7971      7569
 -1      5703    6    0    1
 -2      3021       415      2878      4340      3336      3332      3337      7769      8022      6535
 -1      5704    6    0    1
 -2      2868       132       678      4329      3204       794      7269      5309      7862      7270
 -1      5705    6    0    1
 -2      3062      4347      2937      4349      6100      7915      3715      7726      7727      7971
 -1      5706    6    0    1
 -2      2958      3062      2937      4349      3730      3715      3728      7745      7726      7971
 -1      5707    6    0    1
 -2      1695      4189      1693      4333      7965      7266      2019      7762      7174      7819
 -1      5708    6    0    1
 -2       507       488      1300      4330       550      7977      8047      8048      7978      7979
 -1      5709    6    0    1
 -2      4125      4226      4267      4308      6417      6610      6555      5892      7851      7797
 -1      5710    6    0    1
 -2      2960      2958      2948      4349      3781      3729      3782      7755      7745      7738
 -1      5711    6    0    1
 -2       220       219       239      1665       229       998      1000      1815      1814      8041
 -1      5712    6    0    1
 -2      1016      1014      1006      4158      1099      1098      1100      6329      7272      7472
 -1      5713    6    0    1
 -2      1690      1695      1727      4265      2018      2020      2017      6040      7761      6797
 -1      5714    6    0    1
 -2       620      1760       606      4262      7878      8049       870      8029      8040      7686
 -1      5715    6    0    1
 -2      1679      1680      1678      4356      1958      1957      1952      6650      7056      7579
 -1      5716    6    0    1
 -2      1332      1347      1759      4201      1433      8050      8051      7286      7950      8052
 -1      5717    6    0    1
 -2      2109      2127      2116      4173      2236      2235      2200      7584      7021      6428
 -1      5718    6    0    1
 -2      3133       607       129       665      7534       779      3193      7533       784       783
 -1      5719    6    0    1
 -2      2936      2938      2937      4169      3722      3721      3714      7653      6589      7913
 -1      5720    6    0    1
 -2       656       672      2362      4217       747      8053      8054      7222      7991      8055
 -1      5721    6    0    1
 -2      2711      4180      1670      4342      7827      7696      7826      8042      6980      7697
 -1      5722    6    0    1
 -2      1702      1737      1744      4271      1906      1941      2070      5210      7166      5515
 -1      5723    6    0    1
 -2       415      2107      2119      4340      2179      2181      2177      8022      7831      6572
 -1      5724    6    0    1
 -2      1286      4223      2888      4268      7841      7962      7961      7842      7108      8037
 -1      5725    6    0    1
 -2      1728      1665      1758      4255      1816      1903      1905      7292      7562      6235
 -1      5726    6    0    1
 -2      3087      2957      2983      4203      3750      3828      3830      7313      5751      4554
 -1      5727    6    0    1
 -2        31      2278        30      4315      2396      2395        40      7644      6414      7774
 -1      5728    6    0    1
 -2      3046      4165      3045      4316      7786      7289      3407      5036      7498      7333
 -1      5729    6    0    1
 -2      1720      1719      1718      4293      2098      1916      2099      7004      6148      7285
 -1      5730    6    0    1
 -2       503        76      4307      4345       567      4518      6953      8056      4534      5071
 -1      5731    6    0    1
 -2      2344      2313      2277      4218      2525      2552      2553      6852      6449      5504
 -1      5732    6    0    1
 -2       239       218      1728       219       999      1811      7728       998       228      1812
 -1      5733    6    0    1
 -2      2743      2731      1759      4201      2772      8057      8058      7943      8059      8052
 -1      5734    6    0    1
 -2      2318      2341      2272      4311      2534      2382      2532      6741      7581      7809
 -1      5735    6    0    1
 -2      2111      2362      2136      4217      8060      8061      2213      7196      8055      8007
 -1      5736    6    0    1
 -2       619      2358       506      4226      8062      8063      8026      8027      7935      7538
 -1      5737    6    0    1
 -2      3056      3059      2956      4269      3824      3823      3821      7325      6642      5154
 -1      5738    6    0    1
 -2      2340      4312      2323      4336      8016      7201      2627      7260      7859      7834
 -1      5739    6    0    1
 -2      3086      2975      2948      4260      3785      3784      3735      7122      5550      7383
 -1      5740    6    0    1
 -2      1018      1011      1008      4197      1055      1107      1105      7083      6387      7309
 -1      5741    6    0    1
 -2      2128      3143      2135      4232      8064      8065      2188      7659      8066      8032
 -1      5742    6    0    1
 -2      3137      2886      3018      4240      3176      3480      3482      7559      6730      7180
 -1      5743    6    0    1
 -2      2307      2276      2343      4267      2549      2550      2520      6554      6595      7815
 -1      5744    6    0    1
 -2      3016      2886      3017      4253      3479      3478      3477      4613      6731      6279
 -1      5745    6    0    1
 -2      3095      3024      3025      4208      4008      4003      3778      5510      4472      5603
 -1      5746    6    0    1
 -2       255      1297        16      1027      6612      1372       264      1037      7810      1038
 -1      5747    6    0    1
 -2      3013      3072      2935      4298      3718      3717      3719      6093      6677      7168
 -1      5748    6    0    1
 -2        13       623       263      1024       708      6045       273      1032      7732      1033
 -1      5749    6    0    1
 -2       670      3146       610      4219      8067      8068       838      8009      8069      5016
 -1      5750    6    0    1
 -2       657      1755       671      4212      8070      8071       848      5489      8072      7969
 -1      5751    6    0    1
 -2      3055      2968      3142      4178      3810      3877      3876      5530      6005      5257
 -1      5752    6    0    1
 -2      2740      2731      4201      4342      2866      8059      7179      6658      8046      6893
 -1      5753    6    0    1
 -2      1761      4295      1671      4339      7925      7578      1935      7198      7463      7338
 -1      5754    6    0    1
 -2      3118      2872      3082      4257      3397      3185      3398      5605      6263      4982
 -1      5755    6    0    1
 -2      1302       320      2870      4319      1462      3266      7395      7458      7952      7457
 -1      5756    6    0    1
 -2      2941      2942      2940      4179      3742      3741      3736      5639      6104      6758
 -1      5757    6    0    1
 -2       663       667       621      4226       916       981       984      7918      7830      7410
 -1      5758    6    0    1
 -2       501      4155       495      4192      7699      7909       590      7948      6987      7908
 -1      5759    6    0    1
 -2       669       609      3144      4214       757      8073      8074      7985      6764      8075
 -1      5760    6    0    1
 -2      1331      2359      1346      4218      8076      8077      1532      7125      8079      8078
 -1      5761    6    0    1
 -2      4149      4296      4130      4339      6941      5096      7442      5518      7750      7340
 -1      5762    6    0    1
 -2      1302      1301      1282      4319      1601      1598      1467      7458      7837      7838
 -1      5763    6    0    1
 -2      2133      2359      2108      4218      8080      8081      2191      8082      8079      5429
 -1      5764    6    0    1
 -2       647       639       605      4267       912       728       913      7796      7907      7816
 -1      5765    6    0    1
 -2      1284      3145      1344      4224      8083      8084      1443      5087      8085      8014
 -1      5766    6    0    1
 -2      2339      2346      2304      4289      2544      2673      2509      7702      4689      4601
 -1      5767    6    0    1
 -2       606      1760      1673      4262      8049      1798      7723      7686      8040      7145
 -1      5768    6    0    1
 -2       503        75        76      4345       566        85       567      8056      4533      4534
 -1      5769    6    0    1
 -2      2739      1755      2714      4212      8086      8087      2794      7987      8072      7257
 -1      5770    6    0    1
 -2       288      1313      1278      4278      1412      1417      1416      8088      7846      6907
 -1      5771    6    0    1
 -2      1280      1742      1756      4229      7946      1826      7992      7605      7995      7994
 -1      5772    6    0    1
 -2      2742      3145      2716      4224      8089      8090      2797      8015      8085      5521
 -1      5773    6    0    1
 -2       329      3127      1283      4306      3293      7645      1495      8091      7868      7869
 -1      5774    6    0    1
 -2      2124      2137      3144      4214      2166      8092      8093      7835      7982      8075
 -1      5775    6    0    1
 -2      2727      3146      2741      4219      8094      8095      2819      5260      8069      8000
 -1      5776    6    0    1
 -2      1340      1283       328      3127      1497      1496      1490      7646      7645      3292
 -1      5777    6    0    1
 -2      2340      2293      2323      4312      2608      2626      2627      8016      6445      7201
 -1      5778    6    0    1
 -2      1023      1019      1013      4146      1061      1112      1115      6289      6552      6857
 -1      5779    6    0    1
 -2      4160      4314      4135      4355      6791      7234      7540      7541      7974      7460
 -1      5780    6    0    1
 -2       218       239      1728       240       999      7728      1811       995       249      7570
 -1      5781    6    0    1
 -2      1740      1671      1761      4295      1804      1935      1934      7462      7578      7925
 -1      5782    6    0    1
 -2      2310      2305      2309      4200      2678      2677      2679      6904      5272      4933
 -1      5783    6    0    1
 -2       633       659       614      4242       961       960       825      5440      6621      6646
 -1      5784    6    0    1
 -2      2718      2734      2737      4176      2857      2861      2860      6064      5342      5836
 -1      5785    6    0    1
 -2      2288      2336      2287      4183      2595      2594      2586      4641      5750      4774
 -1      5786    6    0    1
 -2      2350      2270      2337      4294      2523      2410      2524      6410      7959      6305
 -1      5787    6    0    1
 -2      1332      1274      1323      4282      1432      1560      1561      7657      7105      6083
 -1      5788    6    0    1
 -2      1298        70       507      4330      8096       518      8097      8098      4562      8048
 -1      5789    6    0    1
 -2       659       604       637      4172       907       863       908      6620      6070      7413
 -1      5790    6    0    1
 -2      2958      3057      4248      4353      3831      6859      7744      7756      8099      7484
 -1      5791    6    0    1
 -2      4192      4300       495      4345      6996      7910      7908      7610      5235      8100
 -1      5792    6    0    1
 -2      2880      3129      3153      4279      3444      3448      3447      7972      7713      6999
 -1      5793    6    0    1
 -2      1285      1345      3143      4232      1522      8101      8102      5632      8025      8066
 -1      5794    6    0    1
 -2      2283      2282      2281      4272      2564      2561      2565      5346      5434      4782
 -1      5795    6    0    1
 -2      1761      1701      1744      4339      2071      2069      2072      7198      6184      5516
 -1      5796    6    0    1
 -2      2913      2912      2914      4233      3597      3602      3601      4741      5370      4651
 -1      5797    6    0    1
 -2      3099      2931      3007      4322      3697      3699      3700      5090      6425      5107
 -1      5798    6    0    1
 -2      1298       327      1350      4330      1493      1487      1494      8098      8021      6475
 -1      5799    6    0    1
 -2      2887      3006      3004      4351      3484      3483      3485      5245      6809      6701
 -1      5800    6    0    1
 -2      2717      2726      2736      4258      2806      2855      2854      7588      5782      6253
 -1      5801    6    0    1
 -2      3023      3026      2889      4317      3498      3343      3496      7226      7735      7502
 -1      5802    6    0    1
 -2      2987      2989      2995      4238      3940      3942      3941      5677      5102      6937
 -1      5803    6    0    1
 -2      1750      1695      1693      4333      2033      2019      2034      6707      7762      7819
 -1      5804    6    0    1
 -2      2963      3117      2982      4244      3857      3429      3827      4627      4974      5928
 -1      5805    6    0    1
 -2      1338      4280      4159      4306      7818      7357      7817      7828      7975      7250
 -1      5806    6    0    1
 -2      3135      2984      4242      4338      3430      7030      7197      6675      6943      6076
 -1      5807    6    0    1
 -2       638       661       664      4271       909       974       921      6772      6073      7005
 -1      5808    6    0    1
 -2      1009      1012      1022      4297      1109      1111      1089      6396      7895      7929
 -1      5809    6    0    1
 -2      3013      2966      2964      4228      3861      3860      3862      6570      4874      7308
 -1      5810    6    0    1
 -2      1686      1706      1734      4198      1998      1999      1992      5873      5325      4722
 -1      5811    6    0    1
 -2      4157      4312      4142      4336      6919      6819      7780      6636      7859      7142
 -1      5812    6    0    1
 -2      3077      3079      2965      4292      3224      3865      3866      4658      5607      5171
 -1      5813    6    0    1
 -2      1134      1144      1120      4329      1244      1243      1241      5135      4511      4433
 -1      5814    6    0    1
 -2      3033      2985      3103      4264      3936      3935      3934      6922      5799      4634
 -1      5815    6    0    1
 -2       492      4227        52      4358      7628      7957       540      7833      7924      7958
 -1      5816    6    0    1
 -2      1669      1742       287      4277      1829      1825      1827      7966      7947      7824
 -1      5817    6    0    1
 -2      3087      2946      2942      4302      3755      3754      3746      7449      7016      5759
 -1      5818    6    0    1
 -2       411      2124      2892      4313      2165      8103      3320      8104      7836      7768
 -1      5819    6    0    1
 -2      3045      3046      2874      4165      3407      3406      3408      7289      7786      7782
 -1      5820    6    0    1
 -2      1015      1017      1007      4162      1103      1102      1101      5711      7683      6843
 -1      5821    6    0    1
 -2      2282      2280      2281      4272      2560      2555      2561      5434      6912      4782
 -1      5822    6    0    1
 -2      1682      1680      1681      4220      1966      1961      1967      5764      6597      5322
 -1      5823    6    0    1
 -2      2321      2322      2269      4249      2519      2518      2514      5283      5481      6341
 -1      5824    6    0    1
 -2      1728       219      1665      4255      1812      1814      1816      7292      7894      7562
 -1      5825    6    0    1
 -2      2735      2711      2732      4342      2821      2822      2824      7478      8042      5403
 -1      5826    6    0    1
 -2      1696      1750      1693      4304      2035      2034      2031      7350      6705      7267
 -1      5827    6    0    1
 -2      1670      1713      1714      4180      1857      1928      1927      7696      7158      5177
 -1      5828    6    0    1
 -2      1309       318      3109      4344      1456      3260      7566      7568      8023      7567
 -1      5829    6    0    1
 -2      1684      1738      1688      4275      1988      1990      1979      4738      6422      7629
 -1      5830    6    0    1
 -2      1717      1715      1716      4231      1938      2089      2094      7453      6978      6810
 -1      5831    6    0    1
 -2      1337       322      3125      4305      1468      3272      7514      7516      7983      7518
 -1      5832    6    0    1
 -2      2913      2911      2912      4233      3596      3591      3597      4741      6118      5370
 -1      5833    6    0    1
 -2      2296      2299      2298      4213      2640      2639      2635      4747      5500      5580
 -1      5834    6    0    1
 -2       624       626       608      4158       929       928       930      7759      5573      5842
 -1      5835    6    0    1
 -2       415      2119      2878      4340      2177      6571      3332      8022      6572      6535
 -1      5836    6    0    1
 -2       142       612      2881      4207       830      8039      3234      8105      7496      7143
 -1      5837    6    0    1
 -2      1703      1706      1707      4309      2068      1996      2074      6129      6069      6755
 -1      5838    6    0    1
 -2      1743      1711      1669      4277      1924      1923      1925      7722      7053      7966
 -1      5839    6    0    1
 -2      2880      1308       334      4328      8106      1510      3308      7973      7871      8107
 -1      5840    6    0    1
 -2      2297      2292      2295      4199      2621      2614      2622      5470      5509      5541
 -1      5841    6    0    1
 -2       667      2358       619      4226      7934      8062       725      7830      7935      8027
 -1      5842    6    0    1
 -2      2887      3078       134       675      3212      3208      3210      5951      7221       804
 -1      5843    6    0    1
 -2      1691      1720      1738      4221      2023      2024      2005      5233      7003      6423
 -1      5844    6    0    1
 -2      2986      2971      3122      4288      3889      3890      3379      5304      6123      5590
 -1      5845    6    0    1
 -2      3104      1289       333      4279      5564      1507      3305      5658      5656      8108
 -1      5846    6    0    1
 -2      1013      4146      1009      4322      6857      6395      1086      7823      4895      7098
 -1      5847    6    0    1
 -2      2928      2930      2929      4321      3682      3681      3674      5715      7039      4682
 -1      5848    6    0    1
 -2      3141      2883      3009      4193      3461      3353      3462      5616      7556      6459
 -1      5849    6    0    1
 -2      1292      2720       305      2743      6389      2763      1435      7942      2765      2751
 -1      5850    6    0    1
 -2      1347      2743      1759      4201      7949      8058      8050      7950      7943      8052
 -1      5851    6    0    1
 -2      2711       392      2731      4342      2774      2770      2775      8042      8010      8046
 -1      5852    6    0    1
 -2      3076      2974      3084      4346      3901      3820      3903      7612      7529      7772
 -1      5853    6    0    1
 -2      2892      2895       411      4313      3325      3324      3320      7768      6832      8104
 -1      5854    6    0    1
 -2       672      2362       102       656      8053      2371       690       747      8054       744
 -1      5855    6    0    1
 -2      2958      2960      3057      4353      3781      3832      3831      7756      6591      8099
 -1      5856    6    0    1
 -2      3088       334      1287      4328      3310      1514      5853      5854      8107      4936
 -1      5857    6    0    1
 -2      3127      3045      2874      4165      3409      3408      3294      7649      7289      7782
 -1      5858    6    0    1
 -2      1353      2884       324      3124      7429      3280      1480      7903      3282      3278
 -1      5859    6    0    1
 -2       334      1308      1287      4328      1510      1515      1514      8107      7871      4936
 -1      5860    6    0    1
 -2      2743       305      1292      1347      2751      1435      7942      7949      1378      1436
 -1      5861    6    0    1
 -2       129      3133       665      2885      3193      7533       783      3195      3197      4798
 -1      5862    6    0    1
 -2      3010      3141      3009      4193      3990      3462      3513      4502      5616      6459
 -1      5863    6    0    1
 -2      3024      3131      3023      4327      4006      3507      4001      4475      6723      7258
 -1      5864    6    0    1
 -2       242       241       217      1725       251       997       993      7228      6914      1806
 -1      5865    6    0    1
 -2      2739       671      1755      4212      7986      8071      8086      7987      7969      8072
 -1      5866    6    0    1
 -2      2263        51        50       504      7899        60      7932      7900       535       534
 -1      5867    6    0    1
 -2      3111      3023      2891      4327      3504      3505      3318      6551      7258      6669
 -1      5868    6    0    1
 -2      2362      2275       656      4217      2426      7552      8054      8055      7523      7222
 -1      5869    6    0    1
 -2      2124      4214      2892      4313      7835      7767      8103      7836      6319      7768
 -1      5870    6    0    1
 -2       322      2873      3125      4305      3274      3276      3272      7983      4669      7518
 -1      5871    6    0    1
 -2        25      2341        24      4358      2378      2377        34      8019      7603      7917
 -1      5872    6    0    1
 -2      2333        50        49       501      7130        59      7963      7035       532       531
 -1      5873    6    0    1
 -2      1289      1308       333      4279      1512      1511      1507      5656      7870      8108
 -1      5874    6    0    1
 -2      1715      1717      1672      4282      1938      1937      1939      6839      7598      7708
 -1      5875    6    0    1
 -2       669      3144      2137      4214      8074      8092      7984      7985      8075      7982
 -1      5876    6    0    1
 -2      2946      3087      3106      4302      3755      3772      3771      7016      7449      6770
 -1      5877    6    0    1
 -2      2351      2337      2264      4230      2487      2413      2488      5718      6258      7492
 -1      5878    6    0    1
 -2      1012       242       243      4295      1062       252      1063      7376      7140      7964
 -1      5879    6    0    1
 -2       142       634       612      4207       826       831       830      8105      6608      7496
 -1      5880    6    0    1
 -2      3024      3023      4252      4327      4001      7435      4645      4475      7258      4647
 -1      5881    6    0    1
 -2       494       500       492      4182       595       542       594      5338      5228      7625
 -1      5882    6    0    1
 -2      4135      4314      4186      4355      7234      7301      7114      7460      7974      7459
 -1      5883    6    0    1
 -2      3074      2930      2933      4197      3687      3693      3695      7161      7038      5745
 -1      5884    6    0    1
 -2      3090       634       142      4207      6989       826      3232      7652      6608      8105
 -1      5885    6    0    1
 -2      2133      1346      2359      4218      8109      8077      8080      8082      8078      8079
 -1      5886    6    0    1
 -2       493        76        77      4307       569        86       570      7045      4518      4519
 -1      5887    6    0    1
 -2      2985      3033      3106      4264      3936      3937      3931      5799      6922      4785
 -1      5888    6    0    1
 -2        25        24        54      4358        34       471       472      8019      7917      7945
 -1      5889    6    0    1
 -2      2136      2362       672      4217      8061      8053      8006      8007      8055      7991
 -1      5890    6    0    1
 -2      1662       183       602      4352      1783       856      7704      8011      8110      7941
 -1      5891    6    0    1
 -2      3145      2893      2716      4224      3347      5537      8090      8085      5539      5521
 -1      5892    6    0    1
 -2      1699      1754      1697      4296      2054      2053      2051      7034      5293      5332
 -1      5893    6    0    1
 -2      1759      2731      2743       391      8057      2772      8058      1773      2771      2752
 -1      5894    6    0    1
 -2      1700      1703      1702      4245      2067      2066      2065      5777      6128      5247
 -1      5895    6    0    1
 -2      2892      2124      3144      4214      8103      8093      3322      7767      7835      8075
 -1      5896    6    0    1
 -2      3062      2933      2934      4347      3706      3701      3707      6100      5746      7662
 -1      5897    6    0    1
 -2      1339      1313      1280      4277      1591      1414      1589      7639      7825      7607
 -1      5898    6    0    1
 -2      1346       372      2359      1331      1387      2375      8077      1532      1531      8076
 -1      5899    6    0    1
 -2      3143       337      1345      1285      3165      1383      8101      8102      1519      1522
 -1      5900    6    0    1
 -2       671       657       180      1755       848       847       700      8071      8070      1763
 -1      5901    6    0    1
 -2      1346       367      1293      2121      1386      1526      1529      8111      2161      6514
 -1      5902    6    0    1
 -2      1011       240      1023      4263      1054      1056      1058      6090      7571      6290
 -1      5903    6    0    1
 -2        53       492        52      4358       541       540        62      8020      7833      7958
 -1      5904    6    0    1
 -2      2271       374      2348      1275      2431      2433      2435      7714      1533      7532
 -1      5905    6    0    1
 -2      2133      2359       429      2108      8080      2376      2149      2191      8081      2189
 -1      5906    6    0    1
 -2       216       242       217      1725       994       993       226      1805      7228      1806
 -1      5907    6    0    1
 -2       244      1026      1014      4262      1030      1068      1066      7891      7508      7892
 -1      5908    6    0    1
 -2      2285      2283      2331      4210      2575      2577      2576      4753      5497      5263
 -1      5909    6    0    1
 -2      1695      1743      1727      4265      2042      2041      2020      7761      6782      6797
 -1      5910    6    0    1
 -2      2731      1739      1759      4201      8045      1851      8057      8059      7784      8052
 -1      5911    6    0    1
 -2       329      1283      1305      4306      1495      1500      1499      8091      7869      7791
 -1      5912    6    0    1
 -2      3042      2962      3038      4195      3851      3853      3852      6824      5513      5142
 -1      5913    6    0    1
 -2      3121      3152      2979      4204      3391      3920      3921      6676      6784      6215
 -1      5914    6    0    1
 -2      1711      1675      1742      4277      1949      1950      1922      7053      6376      7947
 -1      5915    6    0    1
 -2      2362      2111      2342      4217      8060      7678      2476      8055      7196      6666
 -1      5916    6    0    1
 -2      3146       670      2741      4219      8067      8008      8095      8069      8009      8000
 -1      5917    6    0    1
 -2      1739      4201      2731      4342      7784      8059      8045      7785      6893      8046
 -1      5918    6    0    1
 -2      1314      1334      1279      4249      1583      1582      1547      5650      6197      7187
 -1      5919    6    0    1
 -2      1344      3145      2742      4224      8084      8089      8012      8014      8085      8015
 -1      5920    6    0    1
 -2      2327      2332      2334      4310      2700      2681      2613      6743      5048      7136
 -1      5921    6    0    1
 -2      2952      2944      3092      4314      3762      3763      3765      7740      5267      7636
 -1      5922    6    0    1
 -2       495      4300        74      4345      7910      5221       563      8100      5235      4683
 -1      5923    6    0    1
 -2       411      2895      2105      4313      3324      6246      2167      8104      6832      6830
 -1      5924    6    0    1
 -2      2310      2309      2311      4283      2679      2684      2683      6360      5213      6818
 -1      5925    6    0    1
 -2       456      3146      2741      2727      3161      8095      2746      2817      8094      2819
 -1      5926    6    0    1
 -2      3145      2742      2716       448      8089      2797      8090      3164      2755      2795
 -1      5927    6    0    1
 -2       665       622       130      3140       787       788       782      7371      4848      3198
 -1      5928    6    0    1
 -2       503      4307      4192      4345      6953      6954      6952      8056      5071      7610
 -1      5929    6    0    1
 -2       495        74        75      4345       563        84       564      8100      4683      4533
 -1      5930    6    0    1
 -2        53        25        54      4358       474       472        63      8020      8019      7945
 -1      5931    6    0    1
 -2      2351      2310      2311      4283      2685      2683      2686      5719      6360      6818
 -1      5932    6    0    1
 -2      3093      2956      3059      4269      3770      3823      3825      5669      5154      6642
 -1      5933    6    0    1
 -2      2714      2739       399      1755      2794      2749      2791      8087      8086      1764
 -1      5934    6    0    1
 -2      3092      3148      2969      4355      3882      3881      3805      7799      7545      7681
 -1      5935    6    0    1
 -2      1345      2135      3143      4232      8031      8065      8101      8025      8032      8066
 -1      5936    6    0    1
 -2       214      1740      1760      4262      1799      1801      1767      8112      6786      8040
 -1      5937    6    0    1
 -2      1146      1138      1137      4348      1257      1229      1273      4583      4595      4456
 -1      5938    6    0    1
 -2      3151      3115      2876      4270      3422      3421      3423      5493      6013      6259
 -1      5939    6    0    1
 -2      2276      2358      2343      4226      2401      2404      2550      6606      7935      7829
 -1      5940    6    0    1
 -2       367      1346      2133      2121      1386      8109      2147      2161      8111      2163
 -1      5941    6    0    1
 -2       677       214      1760      1026      8113      1767      7879      7881      8114      7880
 -1      5942    6    0    1
 -2      3149      3148      3036      4237      3883      4024      3443      5837      6281      4876
 -1      5943    6    0    1
 -2      2314      2360      2267      4354      2507      2506      2504      7856      7178      7013
 -1      5944    6    0    1
 -2      1723      1724      1688      4246      2007      2006      2008      6108      5843      6995
 -1      5945    6    0    1
 -2      3088      2880       334      4328      3312      3308      3310      5854      7973      8107
 -1      5946    6    0    1
 -2      1337      1297       322      4305      1473      1474      1468      7516      6613      7983
 -1      5947    6    0    1
 -2      2729       618       175       671      7933       842      2760      7968       845       699
 -1      5948    6    0    1
 -2      2359      2277      2108      4218      2454      5505      8081      8079      5504      5429
 -1      5949    6    0    1
 -2      2123       672       113       617      7989       691      2150      7936       750       749
 -1      5950    6    0    1
 -2       652       635       611      4253       947       766       948      7327      5217      7029
 -1      5951    6    0    1
 -2       647       660       639      4294       969       903       912      7766      4446      7852
 -1      5952    6    0    1
 -2      3146      2727      3110      4219      8094      5416      3369      8069      5260      5418
 -1      5953    6    0    1
 -2      3135      3090      2984      4338      3233      3933      3430      6675      6990      6943
 -1      5954    6    0    1
 -2      2327      2319      2317      4205      2698      2697      2699      6742      5626      5583
 -1      5955    6    0    1
 -2      2128      2112      2132      4232      2253      2251      2252      7659      6794      6631
 -1      5956    6    0    1
 -2      3144      2137      2124       410      8092      2166      8093      3158      2143      2164
 -1      5957    6    0    1
 -2      2113       645       115      2137      7940       751      2154      2156      7980      2141
 -1      5958    6    0    1
 -2       646       173      2741      2719       840      2745      7999      6495      2756      2758
 -1      5959    6    0    1
 -2       647       663       630      4308       914       926       965      7770      7867      7276
 -1      5960    6    0    1
 -2      2954      2910      2909      4190      3586      3582      3587      4830      4988      6079
 -1      5961    6    0    1
 -2       495      4155       491      4300      7909      5502       565      7910      5194      7112
 -1      5962    6    0    1
 -2       411      2105      2124      4313      2167      2169      2165      8104      6830      7836
 -1      5963    6    0    1
 -2      3127       329      3050      4306      3293      3295      3297      7868      8091      7487
 -1      5964    6    0    1
 -2      2880      3088      3129      4328      3312      3445      3444      7973      5854      7506
 -1      5965    6    0    1
 -2      2881      3034      3103      4239      3451      3450      3449      7144      5630      5354
 -1      5966    6    0    1
 -2      1705      1726      1677      4187      1956      1955      1951      6317      4907      7454
 -1      5967    6    0    1
 -2      2906      2950      2905      4215      3567      3566      3561      6998      5524      6813
 -1      5968    6    0    1
 -2       498       496       489      4164       584       583       585      5442      4958      7622
 -1      5969    6    0    1
 -2      1699      1753      1754      4296      2061      2063      2054      7034      7401      5293
 -1      5970    6    0    1
 -2      3053      1304      1319       325      7066      1404      7988      3283      1484      1485
 -1      5971    6    0    1
 -2      2908      2906      2907      4324      3571      3563      3572      6204      7107      5973
 -1      5972    6    0    1
 -2      1283      1300      1341      4165      1603      1394      1604      7647      7976      7883
 -1      5973    6    0    1
 -2       620      1760       188       606      7878      1765       705       870      8049       867
 -1      5974    6    0    1
 -2      2741       670       173       646      8008       697      2745      7999       841       840
 -1      5975    6    0    1
 -2      3064      3065      3063      4290      4072      4071      4068      4696      7397      6052
 -1      5976    6    0    1
 -2      2314      2354      2352      4354      2691      2648      2693      7856      7679      7271
 -1      5977    6    0    1
 -2       669       115       645      2137       693       751       754      7984      2141      7980
 -1      5978    6    0    1
 -2      4148      4267      4211      4294      7746      6556      6321      4448      7898      5962
 -1      5979    6    0    1
 -2      2128      3026      3143      4232      7820      3344      8064      7659      7734      8066
 -1      5980    6    0    1
 -2      1691      1721      1720      4221      2022      2021      2023      5233      5818      7003
 -1      5981    6    0    1
 -2       599       651       648      4289       882       884       885      7573      7741      6748
 -1      5982    6    0    1
 -2      3020      3144       609      4214      3170      8073      7160      7079      8075      6764
 -1      5983    6    0    1
 -2       674       657       618      4212       980       979       978      5870      5489      7205
 -1      5984    6    0    1
 -2      1292      1332      1349      4201      1651      1652      1650      6902      7286      5883
 -1      5985    6    0    1
 -2       673       617       656      4217       975       976       977      5877      7990      7222
 -1      5986    6    0    1
 -2      2970      2898      2896      4259      3524      3523      3525      5888      4791      6455
 -1      5987    6    0    1
 -2      2330       433      2109      4343      2461      2199      7583      7854      8115      7849
 -1      5988    6    0    1
 -2       671       175      2729      2739       699      2760      7968      7986      2747      2762
 -1      5989    6    0    1
 -2      2932      2935      2934      4357      3704      3703      3702      6664      6752      7661
 -1      5990    6    0    1
 -2      2896      3019      2970      4350      3521      3526      3525      7316      7390      6499
 -1      5991    6    0    1
 -2       641       602       183      4352       857       856       852      7587      7941      8110
 -1      5992    6    0    1
 -2      2880      4279      1308      4328      7972      7870      8106      7973      7760      7871
 -1      5993    6    0    1
 -2      1284      3011      3145      4224      6025      3246      8083      5087      5676      8085
 -1      5994    6    0    1
 -2      1663      1722      1746      4266      1893      1895      1835      6800      6561      7670
 -1      5995    6    0    1
 -2      2136       672       113      2123      8006       691      2139      2152      7989      2150
 -1      5996    6    0    1
 -2      2314      2313      2354      4235      2690      2692      2691      7855      6309      7361
 -1      5997    6    0    1
 -2      1348      1331      1293      4218      1655      1654      1653      5898      7125      6982
 -1      5998    6    0    1
 -2      1321       365      1345      2112      1524      1384      1525      6793      2157      8024
 -1      5999    6    0    1
 -2      2740      2731      2720      4201      2866      2867      2865      7179      8059      6901
 -1      6000    6    0    1
 -2      3081      3126      2888      4223      3493      3490      3255      6311      7432      7962
 -1      6001    6    0    1
 -2      2124      2134      2113      4214      2255      2254      2256      7835      6318      7199
 -1      6002    6    0    1
 -2      1341      4280      1338      4306      7886      7818      1607      8036      7975      7828
 -1      6003    6    0    1
 -2       664       606       638      4271       920       869       921      7005      7687      6772
 -1      6004    6    0    1
 -2      2714      1755      1674      4212      8087      1873      7404      7257      8072      7237
 -1      6005    6    0    1
 -2      2956      3055      3056      4303      3806      3822      3821      8044      6066      6587
 -1      6006    6    0    1
 -2       333      1308      2880      4279      1511      8106      3307      8108      7870      7972
 -1      6007    6    0    1
 -2      2340      2323      2326      4336      2627      2707      2612      7260      7834      6529
 -1      6008    6    0    1
 -2       675      3078       134       629      7221      3208       804       805      6767       798
 -1      6009    6    0    1
 -2      2964      2949      3072      4174      3789      3740      3790      7307      5721      6492
 -1      6010    6    0    1
 -2      2266        30      2278      4315      2393      2395      2397      7215      7774      6414
 -1      6011    6    0    1
 -2      1344       307      2730      2742      1380      2767      8013      8012      2753      2769
 -1      6012    6    0    1
 -2       507         5        70      1298       517        79       518      8097      1359      8096
 -1      6013    6    0    1
 -2       616       664       661      4292       970       974       973      5949      6891      5978
 -1      6014    6    0    1
 -2      2711      2735      2724      4180      2821      2820      2778      7827      7171      7159
 -1      6015    6    0    1
 -2      1672      1332      1759      4201      7951      8051      1848      7707      7286      8052
 -1      6016    6    0    1
 -2      4155      4325      4192      4326      7152      7715      6987      7700      8028      7691
 -1      6017    6    0    1
 -2       307      2730      1320      1344      2767      6568      1437      1380      8013      1440
 -1      6018    6    0    1
 -2      2894       610      3146      4219      5679      8068      3243      5357      5016      8069
 -1      6019    6    0    1
 -2      4227      4311      2272      4358      6533      7809      7808      7924      7602      7956
 -1      6020    6    0    1
 -2      3092      2969      2952      4355      3805      3804      3765      7799      7681      8018
 -1      6021    6    0    1
 -2      2301      2303      2355      4206      2662      2665      2664      5612      5307      6480
 -1      6022    6    0    1
 -2       437      2362      2136      2111      2373      8061      2140      2211      8060      2213
 -1      6023    6    0    1
 -2      2135       418      3143      2128      2146      3167      8065      2188      2186      8064
 -1      6024    6    0    1
 -2       628       643       132      2996       796       795       790      6827      7997      3202
 -1      6025    6    0    1
 -2      3030      2890      3029      4196      3501      3499      3502      6649      6116      6125
 -1      6026    6    0    1
 -2      2984      2982      2877      4242      3425      3427      3426      7030      6075      5439
 -1      6027    6    0    1
 -2      3035      2974      3076      4181      3902      3901      3900      5734      7069      7804
 -1      6028    6    0    1
 -2      2719      2738      2727      4219      2863      2862      2864      6497      5717      5260
 -1      6029    6    0    1
 -2       625       607       666      4164       923       924       720      5073      7535      7664
 -1      6030    6    0    1
 -2        16      1303      1297       255      1373      1375      1372       264      6565      6612
 -1      6031    6    0    1
 -2        13       623       629       263       708       712       711       273      6045      6366
 -1      6032    6    0    1
 -2       507       499       488      4330       553       582       550      8048      6379      7978
 -1      6033    6    0    1
 -2      3023      2889      3022      4252      3496      3494      3497      7435      8043      5642
 -1      6034    6    0    1
 -2       328      2874      1340      3127      3290      7781      1490      3292      3294      7646
 -1      6035    6    0    1
 -2      1307      1325      1286      4268      1621      1620      1449      5696      7323      7842
 -1      6036    6    0    1
 -2      1335      1322      1315      4236      1649      1593      1584      6744      7619      7264
 -1      6037    6    0    1
 -2      2969      2967      2952      4355      3803      3802      3804      7681      8017      8018
 -1      6038    6    0    1
 -2       142      2881      3090      4207      3234      3236      3232      8105      7143      7652
 -1      6039    6    0    1
 -2      2135      1345       365      2112      8031      1384      2145      2159      8024      2157
 -1      6040    6    0    1
 -2      1709      1692      1733      4247      2027      2029      2028      7183      5185      4737
 -1      6041    6    0    1
 -2      2959      2961      2976      4341      3791      3837      3836      5731      7430      6327
 -1      6042    6    0    1
 -2        48       505        47      4315       526       525        57      7548      7764      6451
 -1      6043    6    0    1
 -2      2880      3104       333      4279      3309      3305      3307      7972      5658      8108
 -1      6044    6    0    1
 -2      1305      3050       329      4306      8002      3295      1499      7791      7487      8091
 -1      6045    6    0    1
 -2      1758      1757      1728      4202      2050      1877      1905      6325      5687      7600
 -1      6046    6    0    1
 -2      2115      2122      2125      4317      2257      2226      2260      5988      7337      7501
 -1      6047    6    0    1
 -2      1024      1006       624      4281      1043      7758      8116      7733      7843      8038
 -1      6048    6    0    1
 -2       670      3146       145       610      8067      3159       696       838      8068       835
 -1      6049    6    0    1
 -2      1352        14       222      1756      1365       232      8117      7874      1769      1768
 -1      6050    6    0    1
 -2      1759      1347      1332       294      8050      1433      8051      1771      1377      1430
 -1      6051    6    0    1
 -2      1320      1349      1284      4224      1612      1611      1610      6392      5897      5087
 -1      6052    6    0    1
 -2      4136      4192      4325      4326      6876      7715      6563      7690      7691      8028
 -1      6053    6    0    1
 -2      2316      2272        26      4227      2385      2381      2383      5385      7808      7954
 -1      6054    6    0    1
 -2       612       650       631      4239       951       950       834      7497      5919      5243
 -1      6055    6    0    1
 -2       673       609       645      4214       936       935       937      5905      6764      7981
 -1      6056    6    0    1
 -2      2362      2275       102       656      2426      2424      2371      8054      7552       744
 -1      6057    6    0    1
 -2      1295      1280       286      1756      1411      1410      1367      7873      7992      1770
 -1      6058    6    0    1
 -2      2738      2729      2714      4212      2839      2840      2837      5772      7970      7257
 -1      6059    6    0    1
 -2      1669      4277      1313      4278      7966      7825      8033      7967      7695      7846
 -1      6060    6    0    1
 -2      2730      2716      2740      4224      2850      2849      2848      6569      5521      6657
 -1      6061    6    0    1
 -2      1149       279      1126      1319      1152      1219      1221      7872      1403      7447
 -1      6062    6    0    1
 -2      1125       207       644      1147      1187       878      5040      1189      1157      5043
 -1      6063    6    0    1
 -2      2123      2134      2111      4217      2248      2247      2249      6815      5768      7196
 -1      6064    6    0    1
 -2      2878      3027      3021      4340      3432      3436      3337      6535      4865      7769
 -1      6065    6    0    1
 -2      2364      2351      2264      4230      2491      2488      2489      6371      5718      7492
 -1      6066    6    0    1
 -2      1693      1695      1690      4189      2019      2018      2011      7266      7965      5930
 -1      6067    6    0    1
 -2       610       674       646      4219       943       942       941      5016      5904      6496
 -1      6068    6    0    1
 -2      1681      1729      1683      4287      1974      1973      1972      5323      6355      5879
 -1      6069    6    0    1
 -2      1022      4297      4177      4351      7929      4840      7634      7635      4955      6332
 -1      6070    6    0    1
 -2      1741      1755       657      4212      1776      8070      5484      5487      8072      5489
 -1      6071    6    0    1
 -2      3120      2868      2999      4329      3371      3373      3374      7960      5309      5563
 -1      6072    6    0    1
 -2      1722      1743      1746      4278      2102      1926      1895      6630      6795      7751
 -1      6073    6    0    1
 -2       433      2262      2120      4343      2465      7421      2201      8115      7889      7822
 -1      6074    6    0    1
 -2      1732      1724      1730      4332      2010      2093      2078      5727      5438      5311
 -1      6075    6    0    1
 -2      3094      2919      3001      4345      3637      3639      3640      4535      6386      5822
 -1      6076    6    0    1
 -2      2293      2324      2323      4312      2625      2624      2626      6445      6671      7201
 -1      6077    6    0    1
 -2      1295      1301      1280      4229      1588      1587      1411      7993      7606      7605
 -1      6078    6    0    1
 -2      2128      2115      2125      4317      2261      2260      2187      7660      5988      7501
 -1      6079    6    0    1
 -2      1710      1711      1712      4299      1948      2084      1902      7156      6780      7239
 -1      6080    6    0    1
 -2       488      4165       497      4280      7884      7613       580      7887      7362      7806
 -1      6081    6    0    1
 -2      1009      1013      1019      4146      1086      1112      1110      6395      6857      6552
 -1      6082    6    0    1
 -2      2897      3037      2882      4261      3460      3331      3458      4792      7058      6883
 -1      6083    6    0    1
 -2      1704      1732      1730      4332      1970      2078      1880      6575      5727      5311
 -1      6084    6    0    1
 -2      2301      2302      2303      4206      2658      2663      2662      5612      6213      5307
 -1      6085    6    0    1
 -2       624       623       203      1024       876       709       871      8116      7732      1031
 -1      6086    6    0    1
 -2      2977      3129      3097      4250      3907      3914      3913      5161      7505      4842
 -1      6087    6    0    1
 -2       433      2120      2109      4343      2201      2203      2199      8115      7822      7849
 -1      6088    6    0    1
 -2      1027      1299      1297       274      8118      1398      7810      1039      1397      1371
 -1      6089    6    0    1
 -2      2885       665       130      3140      4798       782      3196      3200      7371      3198
 -1      6090    6    0    1
 -2       501      4192       490      4326      7948      6958       533      7037      7691      7217
 -1      6091    6    0    1
 -2       499       497       488      4165       581       580       582      7499      7613      7884
 -1      6092    6    0    1
 -2      1687      1738      1684      4275      1989      1988      1986      4810      6422      4738
 -1      6093    6    0    1
 -2      1007      1027      1299      4305      1096      8118      7414      7926      7811      7939
 -1      6094    6    0    1
 -2      2318      2272      2317      4311      2532      2530      2533      6741      7809      6531
 -1      6095    6    0    1
 -2      2716      3145       448      2893      8090      3164      2795      5537      3347      3346
 -1      6096    6    0    1
 -2      2128      2135      2112      4232      2188      2159      2253      7659      8032      6794
 -1      6097    6    0    1
 -2      1673      1744      1737      4271      1942      1941      1797      7146      5515      7166
 -1      6098    6    0    1
 -2      1321      1285      1348      4232      1616      1618      1617      6517      5632      6547
 -1      6099    6    0    1
 -2      1286      1327      1311      4223      1623      1622      1452      7841      7042      6358
 -1      6100    6    0    1
 -2      1145      1135       209       643      1193      1191      1155      7912      7650       879
 -1      6101    6    0    1
 -2      3143      3111      1285      4232      3319      6550      8102      8066      6549      5632
 -1      6102    6    0    1
 -2      2944      2952      2945      4314      3762      3761      3757      5267      7740      4969
 -1      6103    6    0    1
 -2      3050      3045      3127      4306      4038      3409      3297      7487      7118      7868
 -1      6104    6    0    1
 -2       494        72        73      4359       557        82       558      5339      4377      4496
 -1      6105    6    0    1
 -2       288      1278      1746      4278      1416      7669      1830      8088      6907      7751
 -1      6106    6    0    1
 -2      1136      1148      1318       281      1225      4881      4883      1223      1161      1405
 -1      6107    6    0    1
 -2      1007      1299      1027       274      7414      8118      1096      1094      1397      1039
 -1      6108    6    0    1
 -2        11       214      1760       677       223      1767      1766       703      8113      7879
 -1      6109    6    0    1
 -2       203       624      1024      1006       871      8116      1031      1041      7758      1043
 -1      6110    6    0    1
 -2      4142      4312      4216      4336      6819      6447      7141      7142      7859      6836
 -1      6111    6    0    1
 -2       323      3124      2873      1351      3277      3279      3275      1471      7346      6177
 -1      6112    6    0    1
 -2      3108      2967      2981      4323      3872      3873      3875      6302      7170      6537
 -1      6113    6    0    1
 -2      1340       327      1298      4330      1491      1493      1492      8004      8021      8098
 -1      6114    6    0    1
 -2      2909      3084      2955      4243      3578      3590      3589      5972      7771      7133
 -1      6115    6    0    1
 -2      3109      2980      3152      4344      3926      3919      3390      7567      6861      6785
 -1      6116    6    0    1
 -2      2299      2357      2298      4213      2650      2649      2639      5500      7227      5580
 -1      6117    6    0    1
 -2      1752      1711      1743      4168      2086      1924      2043      7464      7359      7075
 -1      6118    6    0    1
 -2       433      2330      2262      4343      2461      2466      2465      8115      7854      7889
 -1      6119    6    0    1
 -2      1760      1673       188       606      1798      1796      1765      8049      7723       867
 -1      6120    6    0    1
 -2      2121      2108      2132      4218      2234      2231      2233      6983      5429      6209
 -1      6121    6    0    1
 -2      2292      2289      2291      4334      2604      2596      2605      7278      6616      7164
 -1      6122    6    0    1
 -2      1759      1739      2731       391      1851      8045      8057      1773      1849      2771
 -1      6123    6    0    1
 -2      2124      2892      3144       410      8103      3322      8093      2164      3321      3158
 -1      6124    6    0    1
 -2      1284      1344      3145       312      1443      8084      8083      1442      1381      3163
 -1      6125    6    0    1
 -2       497        54      4280      4358       544      7944      7806      7779      7945      7365
 -1      6126    6    0    1
 -2       621       506        90       489      7537       515       717      7408       579       577
 -1      6127    6    0    1
 -2      2976      2978      3153      4341      3848      3910      3909      6327      6969      7002
 -1      6128    6    0    1
 -2      2728      2721      2733      4276      2836      2830      2845      6031      7439      6863
 -1      6129    6    0    1
 -2      3078      2868       133       644      3209      3205      3207      5041      5761       801
 -1      6130    6    0    1
 -2       241       242      1019      1725       251      1060      1059      6914      7228      6087
 -1      6131    6    0    1
 -2      2277       429      2359      2108      2453      2376      2454      5505      2189      8081
 -1      6132    6    0    1
 -2      2905      3089      2903      4335      3559      3558      3556      6814      5490      6896
 -1      6133    6    0    1
 -2      2937      4347      4169      4349      7915      7673      7913      7971      7727      6011
 -1      6134    6    0    1
 -2      1316      1276      1327      4273      1426      1570      1569      6717      6416      7043
 -1      6135    6    0    1
 -2      1758      1696      1757      4202      2049      2046      2050      6325      7349      5687
 -1      6136    6    0    1
 -2      2908      3061      2906      4324      3574      3573      3571      6204      5598      7107
 -1      6137    6    0    1
 -2      3146       456      3110      2727      3161      3366      3369      8094      2817      5416
 -1      6138    6    0    1
 -2      2940      2943      3086      4320      3743      3745      3734      6759      6357      7123
 -1      6139    6    0    1
 -2       669       609       120      3144       757       756       694      8074      8073      3157
 -1      6140    6    0    1
 -2       491        74      4300      4359       561      5221      7112      5503      4497      5196
 -1      6141    6    0    1
 -2      1751      1667      1719      4273      1841      1915      1892      7544      6718      6502
 -1      6142    6    0    1
 -2      3121      2871      3152      4234      3388      3389      3391      6403      6931      6783
 -1      6143    6    0    1
 -2       488      1296        65      1341      7996      1390       547      7885      1393      1392
 -1      6144    6    0    1
 -2        90       621       489       666       717      7408       577       719       718      7407
 -1      6145    6    0    1
 -2       641       183      1735      4352       852      1781      7367      7587      8110      7546
 -1      6146    6    0    1
 -2      2307      2350      2315      4211      2522      2682      2559      4787      6409      4856
 -1      6147    6    0    1
 -2       618       657       671      4212       979       848       845      7205      5489      7969
 -1      6148    6    0    1
 -2      2344      2359      1331      4218      2429      8076      7124      6852      8079      7125
 -1      6149    6    0    1
 -2      3105      2918      2921      4359      3627      3633      3635      4362      6098      4495
 -1      6150    6    0    1
 -2      2306      2282      2334      4241      2563      2571      2573      5397      5433      7135
 -1      6151    6    0    1
 -2      2912      3060      2915      4325      3593      3605      3604      5422      6738      7157
 -1      6152    6    0    1
 -2      1011      1018       239      4255      1055      1051      1053      7291      5802      7729
 -1      6153    6    0    1
 -2      2273      2355      2363      4225      2535      2539      2538      7064      6482      6212
 -1      6154    6    0    1
 -2       634       653       612      4207       953       952       831      6608      6268      7496
 -1      6155    6    0    1
 -2       491        73        74      4359       560        83       561      5503      4496      4497
 -1      6156    6    0    1
 -2      2327      2334      2290      4310      2613      2583      2609      6743      7136      7147
 -1      6157    6    0    1
 -2      1708      1707      1709      4301      2076      2081      2080      5814      7311      7341
 -1      6158    6    0    1
 -2      1332      1292      1347      4201      1651      1436      1433      7286      6902      7950
 -1      6159    6    0    1
 -2      1298         5        70      1304      1359        79      8096      1363      1362      7426
 -1      6160    6    0    1
 -2      1331      1346      1293      4218      1532      1529      1654      7125      8078      6982
 -1      6161    6    0    1
 -2       628         6        78       622       686        88      6826       688       685      5697
 -1      6162    6    0    1
 -2      1301      1295      1343      4229      1588      1658      1657      7606      7993      6847
 -1      6163    6    0    1
 -2      2293      2340      2289      4216      2608      2592      2606      6442      7259      6615
 -1      6164    6    0    1
 -2      1313       288      1669      4278      1412      1828      8033      7846      8088      7967
 -1      6165    6    0    1
 -2       676       628       131      2996       792       791       785      5700      6827      3201
 -1      6166    6    0    1
 -2      2874      3046      3047      4330      3406      3411      3410      8001      5037      5714
 -1      6167    6    0    1
 -2      1016      1024       263      4281      1093      1033      1090      7495      7733      5954
 -1      6168    6    0    1
 -2      2329      2345      2325      4284      2644      2709      2708      5415      5618      5255
 -1      6169    6    0    1
 -2      3140       676       131      2996      5699       785      3199      3203      5700      3201
 -1      6170    6    0    1
 -2      1008      1011      1021      4197      1107      1108      1080      7309      6387      6155
 -1      6171    6    0    1
 -2        65      1296       488       509      1390      7996       547       512      7920       549
 -1      6172    6    0    1
 -2        14      1352      1295      1756      1365      1369      1368      1769      7874      7873
 -1      6173    6    0    1
 -2       399      1674      2714      1755      1871      7404      2791      1764      1873      8087
 -1      6174    6    0    1
 -2      1342      2274       380      1281      7580      2449      1554      1555      6948      1551
 -1      6175    6    0    1
 -2      1679      1678      1677      4356      1952      1899      1953      6650      7579      7589
 -1      6176    6    0    1
 -2       656       617       672      4217       976       750       747      7222      7990      7991
 -1      6177    6    0    1
 -2      3032      3036      3148      4237      4016      4024      4023      5116      4876      6281
 -1      6178    6    0    1
 -2      2965      2964      2966      4228      3856      3860      3859      5012      7308      4874
 -1      6179    6    0    1
 -2       653       602       641      4352       899       857       900      6269      7941      7587
 -1      6180    6    0    1
 -2      1740       215      1671      4295      1800      1802      1804      7462      8119      7578
 -1      6181    6    0    1
 -2      2124      2113      2137      4214      2256      2156      2166      7835      7199      7982
 -1      6182    6    0    1
 -2      2362       437      2342      2111      2373      2473      2476      8060      2211      7678
 -1      6183    6    0    1
 -2       623      1024       624      4281      7732      8116       876      6046      7733      8038
 -1      6184    6    0    1
 -2      1309      1336      1290      4344      1643      1642      1461      7568      7092      7863
 -1      6185    6    0    1
 -2      2119      2107      2127      4340      2181      2225      2224      6572      7831      7590
 -1      6186    6    0    1
 -2      3121      2979      3059      4204      3921      3904      3922      6676      6215      6641
 -1      6187    6    0    1
 -2       669       645       609      4214       754       935       757      7985      7981      6764
 -1      6188    6    0    1
 -2       501       491       495      4155       593       565       590      7699      5502      7909
 -1      6189    6    0    1
 -2      2743      2720      2731      4201      2765      2867      2772      7943      6901      8059
 -1      6190    6    0    1
 -2      4169      4347      4105      4349      7673      7191      6009      6011      7727      6010
 -1      6191    6    0    1
 -2      2971      2955      2973      4285      3812      3817      3816      6122      6300      6276
 -1      6192    6    0    1
 -2      2739      2714      2729      4212      2794      2840      2762      7987      7257      7970
 -1      6193    6    0    1
 -2       666       607       663      4308       924       925       927      7850      7803      7867
 -1      6194    6    0    1
 -2      2343      2270      2307      4267      2407      2521      2520      7815      7906      6554
 -1      6195    6    0    1
 -2      1722      1663      1721      4266      1893      1889      1894      6561      6800      5820
 -1      6196    6    0    1
 -2      1320      1284      1344      4224      1610      1443      1440      6392      5087      8014
 -1      6197    6    0    1
 -2      2131      2118      2106      4261      2219      2175      2220      6872      6882      7059
 -1      6198    6    0    1
 -2      2133      2108      2121      4218      2191      2234      2163      8082      5429      6983
 -1      6199    6    0    1
 -2      2287      2291      2289      4334      2597      2596      2590      5420      7164      6616
 -1      6200    6    0    1
 -2       620       626       668      4262       917       983       982      8029      5576      7507
 -1      6201    6    0    1
 -2      1736      1666      1745      4172      1791      1908      1910      7617      6231      5462
 -1      6202    6    0    1
 -2      3053      1350      1304       326      6472      1489      7066      3284      1488      1483
 -1      6203    6    0    1
 -2      2290      2340      2326      4336      2593      2612      2611      7148      7260      6529
 -1      6204    6    0    1
 -2      3150      3090      2881      4207      3453      3236      3454      4410      7652      7143
 -1      6205    6    0    1
 -2        11      1760       620       677      1766      7878       704       703      7879       706
 -1      6206    6    0    1
 -2      1662      1735       183      4352      1785      1781      1783      8011      7546      8110
 -1      6207    6    0    1
 -2      1741       180       657      1755      1774       847      5484      1776      1763      8070
 -1      6208    6    0    1
 -2      2740      2732      2731      4342      2851      2823      2866      6658      5403      8046
 -1      6209    6    0    1
 -2      3060      3083      2915      4325      3619      3618      3605      6738      7530      7157
 -1      6210    6    0    1
 -2      2742      2716      2730      4224      2797      2850      2769      8015      5521      6569
 -1      6211    6    0    1
 -2       337      3143      3111      1285      3165      3319      3317      1519      8102      6550
 -1      6212    6    0    1
 -2       670       610       646      4219       838       941       841      8009      5016      6496
 -1      6213    6    0    1
 -2      2347      2338      2268      4331      2513      2419      2511      6101      7749      7787
 -1      6214    6    0    1
 -2      2727      2741      2719      4219      2819      2758      2864      5260      8000      6497
 -1      6215    6    0    1
 -2      1025       236      1015      4229      1035      1044      1046      7128      8120      5151
 -1      6216    6    0    1
 -2      2111      2136      2123      4217      2213      2152      2249      7196      8007      6815
 -1      6217    6    0    1
 -2      1285      1321      1345      4232      1616      1525      1522      5632      6517      8025
 -1      6218    6    0    1
 -2      2274       380      2361      1342      2449      2367      2451      7580      1554      7354
 -1      6219    6    0    1
 -2       503      4192       495      4345      6952      7908       568      8056      7610      8100
 -1      6220    6    0    1
 -2      3026      3143       418      2128      3344      3167      3341      7820      8064      2186
 -1      6221    6    0    1
 -2       603       639       660      4294       731       903       902      6881      7852      4446
 -1      6222    6    0    1
 -2      4134      4311      4227      4358      7176      6533      7418      7364      7602      7924
 -1      6223    6    0    1
 -2      2980      3109      3112      4344      3926      3264      3925      6861      7567      7864
 -1      6224    6    0    1
 -2      2905      2959      3089      4335      3568      3570      3559      6814      5765      5490
 -1      6225    6    0    1
 -2      3041      2961      2962      4254      3846      3793      3847      5427      6917      5411
 -1      6226    6    0    1
 -2      1761      1671      1753      4339      1935      1932      1936      7198      7338      7339
 -1      6227    6    0    1
 -2      3053      3139      1350       326      3288      6473      6472      3284      3286      1488
 -1      6228    6    0    1
 -2      2894       145      3146       610      3241      3159      3243      5679       835      8068
 -1      6229    6    0    1
 -2      1297      1299      1027      4305      1398      8118      7810      6613      7939      7811
 -1      6230    6    0    1
 -2       255      1027      1017      4305      1037      1071      1070      4668      7811      5924
 -1      6231    6    0    1
 -2      3053      2884       325      4348      3285      3281      3283      4919      5796      8003
 -1      6232    6    0    1
 -2      1756      1742      1675      4229      1826      1950      1823      7994      7995      6373
 -1      6233    6    0    1
 -2       495       503       490      4192       568       587       589      7908      6952      6958
 -1      6234    6    0    1
 -2      2931      3098      3007      4322      3685      3698      3699      6425      4867      5107
 -1      6235    6    0    1
 -2      1338      1341      1296      4280      1607      1393      1659      7818      7886      7840
 -1      6236    6    0    1
 -2       508        78         6       622       519        88       520      4846      5697       685
 -1      6237    6    0    1
 -2      1759      1332      1672       294      8051      7951      1848      1771      1430      1846
 -1      6238    6    0    1
 -2      1289      1330      1308      4279      1636      1635      1512      5656      6544      7870
 -1      6239    6    0    1
 -2      3046      3045      3044      4316      3407      4036      4039      5036      7333      6638
 -1      6240    6    0    1
 -2      3019      2895      2892      4313      3509      3325      3510      7388      6832      7768
 -1      6241    6    0    1
 -2      2344      2359       372      1331      2429      2375      2427      7124      8076      1531
 -1      6242    6    0    1
 -2       501       504       491      4155       536       592       593      7699      5917      5502
 -1      6243    6    0    1
 -2      2996       132      2868      4329      3202      3204      3206      4854      7862      5309
 -1      6244    6    0    1
 -2      2314      2312      2313      4235      2505      2551      2690      7855      6511      6309
 -1      6245    6    0    1
 -2      2280      2266      2279      4209      2501      2499      2502      5494      7252      4637
 -1      6246    6    0    1
 -2      2325      2324      2329      4284      2497      2628      2708      5255      6524      5415
 -1      6247    6    0    1
 -2      3119      2870      3070      4319      3382      3270      3383      5117      7457      7848
 -1      6248    6    0    1
 -2      1720      1718      1723      4293      2099      2096      2100      7004      7285      6661
 -1      6249    6    0    1
 -2      1145         6        78       628      1153        88      1154      7242       686      6826
 -1      6250    6    0    1
 -2       255        16      1303      1148       264      1373      6565      1160      1159      6567
 -1      6251    6    0    1
 -2      3145      3011      1284       312      3246      6025      8083      3163      3244      1442
 -1      6252    6    0    1
 -2       263       629        13      1147      6366       711       273      1158      6768      1156
 -1      6253    6    0    1
 -2      3020       120       609      3144      3168       756      7160      3170      3157      8073
 -1      6254    6    0    1
 -2      1149        70         5      1304      1150        79      1151      7425      7426      1362
 -1      6255    6    0    1
 -2      2124      2105      2126      4313      2169      2217      2216      7836      6830      5908
 -1      6256    6    0    1
 -2      3042      3039      3043      4337      4026      4028      4027      6825      4813      6966
 -1      6257    6    0    1
 -2      2308      2302      2300      4251      2660      2659      2661      4704      6207      4713
 -1      6258    6    0    1
 -2       607       630       663      4308       781       926       925      7803      7276      7867
 -1      6259    6    0    1
 -2      1704      1731      1678      4274      1882      1900      1959      6574      6220      7055
 -1      6260    6    0    1
 -2      3125      2873      3066      4305      3276      3401      3402      7518      4669      6369
 -1      6261    6    0    1
 -2       662       623       624      4281       808       876       931      7393      6046      8038
 -1      6262    6    0    1
 -2      3058      2958      3057      4248      3833      3831      3834      4457      7744      6859
 -1      6263    6    0    1
 -2      3150      2985      3090      4338      3938      3932      3453      8030      5936      6990
 -1      6264    6    0    1
 -2      3046      3044      3054      4316      4039      4041      4040      5036      6638      4416
 -1      6265    6    0    1
 -2      2882       412      2118       413      3327      2170      5937      3326       422      2171
 -1      6266    6    0    1
 -2       323      3124      1351      1303      3277      7346      1471      1477      6566      1478
 -1      6267    6    0    1
 -2       395      2725       396      1731      2783      2782       405      1861      6219      1862
 -1      6268    6    0    1
 -2       395      1661       394      2712      1859      1858       404      2779      6181      2780
 -1      6269    6    0    1
 -2      3037       413      2106       414      3330      2173      6286      3329       423      2174
 -1      6270    6    0    1
 -2      1713       393       394      2724      1855       403      1856      6774      2777      2776
 -1      6271    6    0    1
 -2      2887      3136      3006      4281      3215      3416      3484      5952      7543      6806
 -1      6272    6    0    1
 -2      2986      2972      2971      4288      3888      3814      3889      5304      4950      6123
 -1      6273    6    0    1
 -2      2957      2963      2982      4244      3786      3827      3826      5830      4627      5928
 -1      6274    6    0    1
 -2       214        11        12       677       223       701      8121      8113       703       702
 -1      6275    6    0    1
 -2      1664       397      2713       396      1865      2785      5706      1864       406      2786
 -1      6276    6    0    1
 -2      1336      1278      1313      4278      1579      1417      1580      7091      6907      7846
 -1      6277    6    0    1
 -2      2876      3115      3050      4270      3421      3420      3300      6259      6013      7488
 -1      6278    6    0    1
 -2      2877      3135      2984      4242      3230      3430      3426      5439      7197      7030
 -1      6279    6    0    1
 -2      1760      1740      1673      4262      1801      1944      1798      8040      6786      7145
 -1      6280    6    0    1
 -2        46       498       506      4226       522       524       514      8122      6418      7538
 -1      6281    6    0    1
 -2       414      2878       415      2119      3333      3332       424      2176      6571      2177
 -1      6282    6    0    1
 -2       620       606       626      4262       870       918       917      8029      7686      5576
 -1      6283    6    0    1
 -2      2984      2985      2983      4338      3929      3928      3927      6943      5936      4555
 -1      6284    6    0    1
 -2      2276        32      2358      4226      2399      2368      2401      6606      8123      7935
 -1      6285    6    0    1
 -2      1694      1696      1693      4304      2032      2031      2013      5740      7350      7267
 -1      6286    6    0    1
 -2      2888      3126      3012      4268      3490      3489      3491      8037      7061      6672
 -1      6287    6    0    1
 -2      1120      1135      1145      4329      1245      1193      1186      4433      7417      6334
 -1      6288    6    0    1
 -2      2930      2928      2931      4321      3682      3684      3683      7039      5715      6145
 -1      6289    6    0    1
 -2       605        94       667      2343       722       724       723      7812      2402      7813
 -1      6290    6    0    1
 -2      3078       133       629       644      3207       799      6767      5041       801       800
 -1      6291    6    0    1
 -2       501       495       490      4192       590       589       533      7948      7908      6958
 -1      6292    6    0    1
 -2       433      2262       434      2120      2465      2464       443      2201      7421      2202
 -1      6293    6    0    1
 -2      2980      3154      3057      4353      3924      3923      3845      6862      7928      8099
 -1      6294    6    0    1
 -2       497        53        54      4358       543        63       544      7779      8020      7945
 -1      6295    6    0    1
 -2      3035      2872      3118      4257      3393      3397      3396      6581      6263      5605
 -1      6296    6    0    1
 -2      1712      1665      1710      4299      1901      1819      1902      7239      7563      7156
 -1      6297    6    0    1
 -2      2347      2364      2338      4331      2687      2490      2513      6101      6363      7749
 -1      6298    6    0    1
 -2        32       506       619      2358      8124      8026      8125      2368      8063      8062
 -1      6299    6    0    1
 -2      2322      2353      2269      4249      2495      2444      2518      5481      6003      6341
 -1      6300    6    0    1
 -2      2120      2130      2109      4343      2238      2237      2203      7822      7071      7849
 -1      6301    6    0    1
 -2       416       415      3021      2107       425      3336      3335      2180      2179      7304
 -1      6302    6    0    1
 -2       492       500        52      4227       542       538       540      7628      5230      7957
 -1      6303    6    0    1
 -2      1149      1126      1137      4348      1221      1272      1164      6601      7448      4456
 -1      6304    6    0    1
 -2      1742       286      1280      1756      1824      1410      7946      1826      1770      7992
 -1      6305    6    0    1
 -2      2955      2974      2973      4285      3819      3818      3817      6300      6962      6276
 -1      6306    6    0    1
 -2      3064      3066      3065      4290      4075      4074      4072      4696      6368      7397
 -1      6307    6    0    1
 -2      3003      3005      3007      4297      3980      3983      3982      4414      7858      5106
 -1      6308    6    0    1
 -2      2275       101       102       656      2423       111      2424      7552       745       744
 -1      6309    6    0    1
 -2      1298       507      1300      4330      8097      8047      1395      8098      8048      7979
 -1      6310    6    0    1
 -2      2870      3119      3154      4319      3382      3386      3385      7457      5117      6927
 -1      6311    6    0    1
 -2      2883      3108      3107      4258      3464      3463      3356      7620      6685      5965
 -1      6312    6    0    1
 -2      1662      1749      1735      4352      1886      1888      1785      8011      6558      7546
 -1      6313    6    0    1
 -2      1338      1305      1283      4306      1605      1500      1606      7828      7791      7869
 -1      6314    6    0    1
 -2      1297      1337      1299      4305      1473      1600      1398      6613      7516      7939
 -1      6315    6    0    1
 -2      1672      1717      1747      4282      1937      1914      1847      7708      7598      7106
 -1      6316    6    0    1
 -2      1017      1027      1007      4305      1071      1096      1102      5924      7811      7926
 -1      6317    6    0    1
 -2       185       184       637      1736       194       859       858      1787      1786      7698
 -1      6318    6    0    1
 -2      1324      1326      1275      4286      1564      1563      1565      5689      5431      7208
 -1      6319    6    0    1
 -2      2881       142       143       612      3234       169      3235      8039       830       829
 -1      6320    6    0    1
 -2      2919      2918      2916      4300      3623      3622      3624      6385      6097      6121
 -1      6321    6    0    1
 -2       325      3053      1304       326      3283      7066      1484       352      3284      1483
 -1      6322    6    0    1
 -2      1016      1006      1024      4281      1100      1043      1093      7495      7843      7733
 -1      6323    6    0    1
 -2      3115      3042      3043      4337      4033      4027      4034      6015      6825      6966
 -1      6324    6    0    1
 -2      1283      1341      1338      4306      1604      1607      1606      7869      8036      7828
 -1      6325    6    0    1
 -2      2884      3123      3155      4348      3466      3469      3468      5796      5155      4681
 -1      6326    6    0    1
 -2      2991      3001      2995      4307      3953      3955      3946      4526      5821      7469
 -1      6327    6    0    1
 -2      2337        96        97       603      2408       106      2409      7247       730       729
 -1      6328    6    0    1
 -2      2875       136       137       608      3216       163      3217      5839       812       811
 -1      6329    6    0    1
 -2      3075      3001      2919      4345      3638      3639      3625      7609      5822      6386
 -1      6330    6    0    1
 -2      1287      1308      1328      4328      1515      1628      1627      4936      7871      6625
 -1      6331    6    0    1
 -2       123       122       611      2886       149       762       761      3175      3174      7351
 -1      6332    6    0    1
 -2       628       132       131      2996       790       158       791      6827      3202      3201
 -1      6333    6    0    1
 -2       183       182       641      1735       192       853       852      1781      1780      7367
 -1      6334    6    0    1
 -2       436      2342       437      2111      2474      2473       446      2210      7678      2211
 -1      6335    6    0    1
 -2       434      2328       435      2110      2468      2467       444      2204      6407      2205
 -1      6336    6    0    1
 -2       627       664       616      4292       971       970       819      5004      6891      5949
 -1      6337    6    0    1
 -2       433      2109       432      2330      2199      2198       442      2461      7583      2462
 -1      6338    6    0    1
 -2       490       505        48      4315       530       526       528      6974      7764      7548
 -1      6339    6    0    1
 -2      3088       334       335      1287      3310       361      3311      5853      1514      1513
 -1      6340    6    0    1
 -2       291      1667      1316       292      1839      6468      1425       301      1840      1424
 -1      6341    6    0    1
 -2       377      2269      1279       378      2442      7504      1546       387      2443      1545
 -1      6342    6    0    1
 -2       412      2105       411      2895      2168      2167       421      3323      6246      3324
 -1      6343    6    0    1
 -2      3132      3017      2886      4253      3395      3478      3179      6694      6279      6731
 -1      6344    6    0    1
 -2       288      1746      1669      4278      1830      1832      1828      8088      7751      7967
 -1      6345    6    0    1
 -2      3005      3004      3006      4351      3981      3483      3984      7576      6701      6809
 -1      6346    6    0    1
 -2      1670       393      2711       392      1853      2773      7826      1852       402      2774
 -1      6347    6    0    1
 -2      2893       448      2716       449      3346      2795      5537      3345       458      2796
 -1      6348    6    0    1
 -2      2881      3134      3034      4239      3239      3452      3451      7144      6680      5630
 -1      6349    6    0    1
 -2      3024      3023      3022      4252      4001      3497      4002      4645      7435      5642
 -1      6350    6    0    1
 -2       125       124       613      2872       151       768       767      3181      3180      6261
 -1      6351    6    0    1
 -2      3011      2893      3145      4224      3516      3347      3246      5676      5539      8085
 -1      6352    6    0    1
 -2       289      1663      1312       290      1833      6799      1419       299      1834      1418
 -1      6353    6    0    1
 -2       375       376      2265      1277       385      2437      2436      1540      1539      6047
 -1      6354    6    0    1
 -2       316       315      1311      3081       342      1451      1450      3254      3253      6654
 -1      6355    6    0    1
 -2       186       185       604      1666       195       862       861      1790      1789      6232
 -1      6356    6    0    1
 -2      2935      2936      2934      4357      3712      3711      3703      6752      6805      7661
 -1      6357    6    0    1
 -2      2877       139       140       633      3225       166      3226      4944       821       820
 -1      6358    6    0    1
 -2      2124       411      2892       410      2165      3320      8103      2164       420      3321
 -1      6359    6    0    1
 -2      2268        99       100       642      2417       109      2418      7379       739       738
 -1      6360    6    0    1
 -2      3020      2892      3144      4214      3512      3322      3170      7079      7767      8075
 -1      6361    6    0    1
 -2      2277       430       429      2108      2452       439      2453      5505      2190      2189
 -1      6362    6    0    1
 -2      3090       141       142       634      3231       168      3232      6989       827       826
 -1      6363    6    0    1
 -2      3074      3065      3071      4318      4073      4079      3688      7162      7399      4539
 -1      6364    6    0    1
 -2      2976      2961      2978      4341      3837      3849      3848      6327      7430      6969
 -1      6365    6    0    1
 -2       490        49       501      4326       529       531       533      7217      7486      7037
 -1      6366    6    0    1
 -2      2883       450      2717       451      3352      2801      7554      3351       460      2802
 -1      6367    6    0    1
 -2      3070       320       321      1282      3268       347      3269      7623      1466      1465
 -1      6368    6    0    1
 -2      3126      3056      3055      4303      4061      3822      4062      7062      6587      6066
 -1      6369    6    0    1
 -2      2934      2937      3062      4347      3713      3715      3707      7662      7915      6100
 -1      6370    6    0    1
 -2      1742      1669      1711      4277      1829      1923      1922      7947      7966      7053
 -1      6371    6    0    1
 -2       431      2116      2267       432      2195      6429      2459       441      2196      2458
 -1      6372    6    0    1
 -2      1708      1709      1749      4301      2080      2082      1887      5814      7341      6619
 -1      6373    6    0    1
 -2      2338        98        99       601      2414       108      2415      7748       736       735
 -1      6374    6    0    1
 -2      3131      2891      3023      4327      3506      3505      3507      6723      6669      7258
 -1      6375    6    0    1
 -2      1292      2720       306       305      6389      2764      1434      1435      2763       309
 -1      6376    6    0    1
 -2      2358       667        94      2343      7934       724      2370      2404      7813      2402
 -1      6377    6    0    1
 -2       207       629       644      1147       710       800       878      1157      6768      5043
 -1      6378    6    0    1
 -2       279      1149      1304      1319      1152      7425      1361      1403      7872      1404
 -1      6379    6    0    1
 -2      3009       449      2723       450      3349      2798      6458      3348       459      2799
 -1      6380    6    0    1
 -2       209      1145       643       628      1155      7912       879       687      7242       796
 -1      6381    6    0    1
 -2      1148      1303      1318       281      6567      1408      4881      1161      1374      1405
 -1      6382    6    0    1
 -2      3110      2894      3146      4219      3520      3243      3369      5418      5357      8069
 -1      6383    6    0    1
 -2        66       507       488      1300       516       550       548      1388      8047      7977
 -1      6384    6    0    1
 -2       453       452      2879      2718       462      3358      3357      2808      2807      6991
 -1      6385    6    0    1
 -2       318       319      3112      1290       345      3263      3262      1460      1459      7211
 -1      6386    6    0    1
 -2      1672      1759      1739      4201      1848      1851      1940      7707      8052      7784
 -1      6387    6    0    1
 -2       121       120       609      3020       147       756       755      3169      3168      7160
 -1      6388    6    0    1
 -2      1340      1298      1300      4330      1492      1395      1602      8004      8098      7979
 -1      6389    6    0    1
 -2      2894       144       145       610      3240       171      3241      5679       836       835
 -1      6390    6    0    1
 -2      2917      2918      3105      4359      3621      3627      3626      4366      6098      4362
 -1      6391    6    0    1
 -2       128       127       630      2869       154       777       776      3190      3189      7275
 -1      6392    6    0    1
 -2      2726      3107       451       452      6456      3355      2804      2805      3354       461
 -1      6393    6    0    1
 -2      3104      2880      3153      4279      3309      3447      3446      5658      7972      6999
 -1      6394    6    0    1
 -2      1752      1750      1712      4333      2045      2087      2085      7466      6707      7240
 -1      6395    6    0    1
 -2       275      1007      1299      1343      1095      7414      1396      1399      6845      1400
 -1      6396    6    0    1
 -2      1006       202       624       668      1040       872      7758      7471       874       873
 -1      6397    6    0    1
 -2      1674      2714       398       399      7404      2792      1870      1871      2791       408
 -1      6398    6    0    1
 -2       312      3011      1284       313      3244      6025      1442       339      3245      1441
 -1      6399    6    0    1
 -2       454      2890       455      2715      3364      3363       464      2813      6115      2814
 -1      6400    6    0    1
 -2        25      2272      2341      4358      2380      2382      2378      8019      7956      7603
 -1      6401    6    0    1
 -2       332       333      3104      1289       359      3305      3304      1508      1507      5564
 -1      6402    6    0    1
 -2       187       188      1673       606       197      1796      1795       868       867      7723
 -1      6403    6    0    1
 -2       668      1006       202      1026      7471      1040       874      7470      1042      1029
 -1      6404    6    0    1
 -2      1025      1007       275      1343      1097      1095      1036      7127      6845      1399
 -1      6405    6    0    1
 -2      1332       293      1672       294      1431      1845      7951      1430       303      1846
 -1      6406    6    0    1
 -2      2888      3012      3138      4268      3491      3492      3252      8037      6672      7101
 -1      6407    6    0    1
 -2      1669      1746      1743      4278      1832      1926      1925      7967      7751      6795
 -1      6408    6    0    1
 -2      3040      3076      3084      4346      3800      3903      3580      5138      7612      7772
 -1      6409    6    0    1
 -2      1761      1753      1701      4339      1936      2062      2071      7198      7339      6184
 -1      6410    6    0    1
 -2       181       180       657      1741       190       847       846      1775      1774      5484
 -1      6411    6    0    1
 -2       336       337      3111      1285       363      3317      3316      1520      1519      6550
 -1      6412    6    0    1
 -2      2274       379       380      1281      2448       389      2449      6948      1552      1551
 -1      6413    6    0    1
 -2      2937      2948      2958      4349      3726      3729      3728      7971      7738      7745
 -1      6414    6    0    1
 -2       317      1309       318      3109      1457      1456       344      3259      7566      3260
 -1      6415    6    0    1
 -2       392      2731      1739       391      2770      8045      1850       401      2771      1849
 -1      6416    6    0    1
 -2       187       186       638      1737       196       865       864      1793      1792      7165
 -1      6417    6    0    1
 -2      2275      2362      2342      4217      2426      2476      2547      7523      8055      6666
 -1      6418    6    0    1
 -2       605        95        94      2343       721       104       722      7812      2403      2402
 -1      6419    6    0    1
 -2      1013      1009       260      4322      1086      1085      1081      7823      7098      4868
 -1      6420    6    0    1
 -2       431      2114       430      2312      2193      2192       440      2455      6510      2456
 -1      6421    6    0    1
 -2       455      3110       456      2727      3367      3366       465      2816      5416      2817
 -1      6422    6    0    1
 -2       330       329      1305      3050       356      1499      1498      3296      3295      8002
 -1      6423    6    0    1
 -2       279      1126      1319       280      1219      7447      1403       283      1220      1402
 -1      6424    6    0    1
 -2       208       207       644      1125       211       878       877      1188      1187      5040
 -1      6425    6    0    1
 -2      3018      2970      3019      4350      3886      3526      3887      7181      6499      7390
 -1      6426    6    0    1
 -2      2270        95        96       639      2405       105      2406      7904       727       726
 -1      6427    6    0    1
 -2       367       366      1293      2121       370      1527      1526      2161      2160      6514
 -1      6428    6    0    1
 -2       115       114       645      2113       118       752       751      2154      2153      7940
 -1      6429    6    0    1
 -2       174       173       646      2719       177       840       839      2757      2756      6495
 -1      6430    6    0    1
 -2       366       365      1321      2112       369      1524      1523      2158      2157      6793
 -1      6431    6    0    1
 -2       175       174       618      2729       178       843       842      2760      2759      7933
 -1      6432    6    0    1
 -2       113       114      2123       617       117      2151      2150       749       748      7936
 -1      6433    6    0    1
 -2      2732      2711      2731      4342      2822      2775      2823      5403      8042      8046
 -1      6434    6    0    1
 -2       184       183       602      1662       193       856       855      1784      1783      7704
 -1      6435    6    0    1
 -2       373      2344       372      1331      2428      2427       382      1530      7124      1531
 -1      6436    6    0    1
 -2      2339       100       101       599      2420       110      2421      7701       742       741
 -1      6437    6    0    1
 -2      1013       259      1021      4321      1082      1078      1083      6858      4439      6156
 -1      6438    6    0    1
 -2      3116       332      1310       331      3302      1504      5451      3301       358      1505
 -1      6439    6    0    1
 -2      1318      3124       324      1303      4882      3278      1481      1408      6566      1476
 -1      6440    6    0    1
 -2      1741      1674      1755      4212      1947      1873      1776      5487      7237      8072
 -1      6441    6    0    1
 -2       417      3026       418      2128      3342      3341       427      2185      7820      2186
 -1      6442    6    0    1
 -2       509       497        54      4280       546       544       510      7921      7806      7944
 -1      6443    6    0    1
 -2      2889       416      2125       417      3339      2182      7297      3338       426      2183
 -1      6444    6    0    1
 -2      2980      3057      2960      4353      3845      3832      3843      6862      8099      6591
 -1      6445    6    0    1
 -2      2357      2262      2330      4343      2479      2466      2480      7223      7889      7854
 -1      6446    6    0    1
 -2       499       507        70      4330       553       518       551      6379      8048      4562
 -1      6447    6    0    1
 -2       436       435      2273      2117       445      2471      2470      2208      2207      7229
 -1      6448    6    0    1
 -2      1676       398      2721       397      1868      2788      7438      1867       407      2789
 -1      6449    6    0    1
 -2      2891       335       336      1306      3313       362      3314      6668      1517      1516
 -1      6450    6    0    1
 -2       453      3028       454      2722      3361      3360       463      2810      4486      2811
 -1      6451    6    0    1
 -2      1135       208       209       643      1190       212      1191      7650       880       879
 -1      6452    6    0    1
 -2      3111      3143      3026      4232      3319      3344      4007      6549      8066      7734
 -1      6453    6    0    1
 -2       280      1136      1318       281      1222      4883      1406       284      1223      1405
 -1      6454    6    0    1
 -2      2868      3120      2996      4329      3371      3370      3206      5309      7960      4854
 -1      6455    6    0    1
 -2       670         9      3146      2741       695      3160      8067      8008      2744      8095
 -1      6456    6    0    1
 -2      1347      2743        17      1759      7949      2750      1376      8050      8058      1772
 -1      6457    6    0    1
 -2      1346      2359        20      2133      8077      2374      1385      8109      8080      2148
 -1      6458    6    0    1
 -2      2360      2314      2352      4354      2507      2693      2651      7178      7856      7271
 -1      6459    6    0    1
 -2      2137       669         8      3144      7984       692      2142      8092      8074      3156
 -1      6460    6    0    1
 -2      2739       671        10      1755      7986       698      2748      8086      8071      1762
 -1      6461    6    0    1
 -2       672         7      2362      2136       689      2372      8053      8006      2138      8061
 -1      6462    6    0    1
 -2      2742      1344        18      3145      8012      1379      2754      8089      8084      3162
 -1      6463    6    0    1
 -2      3053      3123      2884      4348      3467      3466      3285      4919      5155      5796
 -1      6464    6    0    1
 -2       306      2730      1320       307      2766      6568      1438       310      2767      1437
 -1      6465    6    0    1
 -2        75       503       495      4345       566       568       564      4533      8056      8100
 -1      6466    6    0    1
 -2      1120      1144      1135      4329      1243      1246      1245      4433      4511      7417
 -1      6467    6    0    1
 -2       127       126       615      3080       153       774       773      3187      3186      5601
 -1      6468    6    0    1
 -2       126       125       636      3082       152       771       770      3184      3183      4383
 -1      6469    6    0    1
 -2        89       489       508       625       576       578       521       714      7621      5072
 -1      6470    6    0    1
 -2      2359      2344      2277      4218      2429      2553      2454      8079      6852      5504
 -1      6471    6    0    1
 -2       182       181       600      1668       191       850       849      1778      1777      6222
 -1      6472    6    0    1
 -2      1288       317       316      2871      1453       343      1454      6929      3257      3256
 -1      6473    6    0    1
 -2      3079       138       139       616      3222       165      3223      5948       818       817
 -1      6474    6    0    1
 -2        76       493       503      4307       569       571       567      4518      7045      6953
 -1      6475    6    0    1
 -2        65       488      1341      1300       547      7885      1392      1389      7977      1394
 -1      6476    6    0    1
 -2       625        90       489       666       713       577      7621       720       719      7407
 -1      6477    6    0    1
 -2       488        65        66      1300       547        68       548      7977      1389      1388
 -1      6478    6    0    1
 -2       489        89        90       625       576        92       577      7621       714       713
 -1      6479    6    0    1
 -2      3077       137       138       627      3219       164      3220      5002       815       814
 -1      6480    6    0    1
 -2      1750      1752      1695      4333      2045      2044      2033      6707      7466      7762
 -1      6481    6    0    1
 -2      2135      3143        19      1345      8065      3166      2144      8031      8101      1382
 -1      6482    6    0    1
 -2       133       134      3078       629       160      3208      3207       799       798      6767
 -1      6483    6    0    1
 -2      2880       333       334      1308      3307       360      3308      8106      1511      1510
 -1      6484    6    0    1
 -2      1280       287       286      1742      1409       296      1410      7946      1825      1824
 -1      6485    6    0    1
 -2       315       314      1286      2888       341      1448      1447      3251      3250      7961
 -1      6486    6    0    1
 -2      2264        97        98       640      2411       107      2412      7490       733       732
 -1      6487    6    0    1
 -2      1022       261      1009      4297      1088      1084      1089      7929      4415      6396
 -1      6488    6    0    1
 -2      3090      2985      2984      4338      3932      3929      3933      6990      5936      6943
 -1      6489    6    0    1
 -2      2887       134       135       675      3210       161      3211      5951       804       803
 -1      6490    6    0    1
 -2      1669       287       288      1313      1827       297      1828      8033      1413      1412
 -1      6491    6    0    1
 -2       322       323      2873      1351       349      3275      3274      1472      1471      6177
 -1      6492    6    0    1
 -2      1020      1008       257      4318      1077      1076      1072      7384      7310      4538
 -1      6493    6    0    1
 -2      3135       140       141       614      3228       167      3229      6673       824       823
 -1      6494    6    0    1
 -2      3139      2874      3047      4330      3291      3410      3412      6474      8001      5714
 -1      6495    6    0    1
 -2       314      1307      3138       313      1444      7100      3248       340      1445      3247
 -1      6496    6    0    1
 -2      1126      1146      1137      4348      1271      1273      1272      7448      4583      4456
 -1      6497    6    0    1
 -2      2271       373       374      1275      2430       383      2431      7714      1534      1533
 -1      6498    6    0    1
 -2      1315       379       378      2349      1548       388      1549      7262      2446      2445
 -1      6499    6    0    1
 -2       509       488       497      4280       549       580       546      7921      7887      7806
 -1      6500    6    0    1
 -2      3134       143       144       631      3237       170      3238      6679       833       832
 -1      6501    6    0    1
 -2      2870       319       320      1302      3265       346      3266      7395      1463      1462
 -1      6502    6    0    1
 -2      1291       331       330      2876      1501       357      1502      6185      3299      3298
 -1      6503    6    0    1
 -2       329       328      1283      3127       355      1496      1495      3293      3292      7645
 -1      6504    6    0    1
 -2       290      1751      1276       291      1836      7901      1422       300      1837      1421
 -1      6505    6    0    1
 -2       376       377      2353      1314       386      2440      2439      1543      1542      6002
 -1      6506    6    0    1
 -2        14      1295       286      1756      1368      1367       295      1769      7873      1770
 -1      6507    6    0    1
 -2       124       123       635      3132       150       765       764      3178      3177      6693
 -1      6508    6    0    1
 -2      1760       188        11       620      1765       198      1766      7878       705       704
 -1      6509    6    0    1
 -2       607       129       128      3133       779       155       780      7534      3193      3192
 -1      6510    6    0    1
 -2       122       121       632      3137       148       759       758      3172      3171      7586
 -1      6511    6    0    1
 -2      1014      1012       243      4295      1067      1063      1065      7765      7376      7964
 -1      6512    6    0    1
 -2       293       292      1274      1747       302      1428      1427      1843      1842      7103
 -1      6513    6    0    1
 -2       619         3        32      2358       680        42      8125      8062      2369      2368
 -1      6514    6    0    1
 -2       374       375      2348      1317       384      2434      2433      1537      1536      5964
 -1      6515    6    0    1
 -2      1746      1278       288       289      7669      1416      1830      1831      1415       298
 -1      6516    6    0    1
 -2      3143       337        19      1345      3165       364      3166      8101      1383      1382
 -1      6517    6    0    1
 -2       671       180        10      1755       700       189       698      8071      1763      1762
 -1      6518    6    0    1
 -2      2359        20       372      1346      2374       381      2375      8077      1385      1387
 -1      6519    6    0    1
 -2      1022      1016       262      4351      1092      1091      1087      7635      6330      5010
 -1      6520    6    0    1
 -2      1299      1007       275       274      7414      1095      1396      1397      1094       277
 -1      6521    6    0    1
 -2       624       203       202      1006       871       205       872      7758      1041      1040
 -1      6522    6    0    1
 -2       102         7      2362       672       112      2372      2371       690       689      8053
 -1      6523    6    0    1
 -2       429        20      2359      2133       438      2374      2376      2149      2148      8080
 -1      6524    6    0    1
 -2      3124       323       324      1303      3277       350      3278      6566      1477      1476
 -1      6525    6    0    1
 -2       399      2739        10      1755      2749      2748       409      1764      8086      1762
 -1      6526    6    0    1
 -2       456      3146         9      2741      3161      3160       466      2746      8095      2744
 -1      6527    6    0    1
 -2      1759      2743        17       391      8058      2750      1772      1773      2752       400
 -1      6528    6    0    1
 -2      3144         8      2137       410      3156      2142      8092      3158       419      2143
 -1      6529    6    0    1
 -2        66       507      1300      1298       516      8047      1388      1360      8097      1395
 -1      6530    6    0    1
 -2      3145        18      2742       448      3162      2754      8089      3164       457      2755
 -1      6531    6    0    1
 -2       495       491        74      4300       565       561       563      7910      7112      5221
 -1      6532    6    0    1
 -2       418      3143        19      2135      3167      3166       428      2146      8065      2144
 -1      6533    6    0    1
 -2       491       494        73      4359       562       558       560      5503      5339      4496
 -1      6534    6    0    1
 -2       509        54         1      1294       510        64       511      7919      8126      1355
 -1      6535    6    0    1
 -2      2743        17       305      1347      2750       308      2751      7949      1376      1378
 -1      6536    6    0    1
 -2       672       113         7      2136       691       116       689      8006      2139      2138
 -1      6537    6    0    1
 -2       173         9       670      2741       176       695       697      2745      2744      8008
 -1      6538    6    0    1
 -2       437      2362         7      2136      2373      2372       447      2140      8061      2138
 -1      6539    6    0    1
 -2       665       130       129      2885       782       156       783      4798      3196      3195
 -1      6540    6    0    1
 -2      2133        20      1346       367      2148      1385      8109      2147       371      1386
 -1      6541    6    0    1
 -2         8       115       669      2137       119       693       692      2142      2141      7984
 -1      6542    6    0    1
 -2        10       175       671      2739       179       699       698      2748      2747      7986
 -1      6543    6    0    1
 -2      1344        18       307      2742      1379       311      1380      8012      2754      2753
 -1      6544    6    0    1
 -2       619        94         3      2358       682       103       680      8062      2370      2369
 -1      6545    6    0    1
 -2      3146       145         9       670      3159       172      3160      8067       696       695
 -1      6546    6    0    1
 -2        17      1347      1759       294      1376      8050      1772       304      1377      1771
 -1      6547    6    0    1
 -2       625       508        89       622      5072       521       714       715      4846       684
 -1      6548    6    0    1
 -2       327      2874      1340       328      3289      7781      1491       354      3290      1490
 -1      6549    6    0    1
 -2      1345        19      2135       365      1382      2144      8031      1384       368      2145
 -1      6550    6    0    1
 -2        32        46         4       506       487        55      8127      8124       514       513
 -1      6551    6    0    1
 -2      3145      1344        18       312      8084      1379      3162      3163      1381       338
 -1      6552    6    0    1
 -2       669       120         8      3144       694       146       692      8074      3157      3156
 -1      6553    6    0    1
 -2       497       492        53      4358       545       541       543      7779      7833      8020
 -1      6554    6    0    1
 -2       321       322      3125      1337       348      3272      3271      1469      1468      7514
 -1      6555    6    0    1
 -2      3136       135       136       662      3213       162      3214      7542       807       806
 -1      6556    6    0    1
 -2         2      2361       380      1294      2365      2367       390      1356      7888      1358
 -1      6557    6    0    1
 -2       326      3139      1350       327      3286      6473      1488       353      3287      1487
 -1      6558    6    0    1
 -2       667        94       619      2358       724       682       725      7934      2370      8062
 -1      6559    6    0    1
 -2      2868       132       133       678      3204       159      3205      7269       794       793
 -1      6560    6    0    1
 -2       131       130       676      3140       157       786       785      3199      3198      5699
 -1      6561    6    0    1
 -2       207        13       629      1147       210       711       710      1157      1156      6768
 -1      6562    6    0    1
 -2      1149         5       279      1304      1151       282      1152      7425      1362      1361
 -1      6563    6    0    1
 -2      1145       209         6       628      1155       213      1153      7242       687       686
 -1      6564    6    0    1
 -2      1148        16      1303       281      1159      1373      6567      1161       285      1374
 -1      6565    6    0    1
 -2      1342       380      2361      1294      1554      2367      7354      1556      1358      7888
 -1      6566    6    0    1
 -2       677       668       202      1026       875       874       707      7881      7470      1029
 -1      6567    6    0    1
 -2      1352      1025       275      1343      7875      1036      1370      1401      7127      1399
 -1      6568    6    0    1
 -2        32         4        46        43      8127        55       487       469        45       470
 -1      6569    6    0    1
 -2      1353      2884       325       324      7429      3281      1479      1480      3280       351
 -1      6570    6    0    1
 -2       509        65      1296      1294       512      1390      7920      7919      1357      1391
 -1      6571    6    0    1
 -2       619       506        90       621      8026       515       683       716      7537       717
 -1      6572    6    0    1
 -2       677       202        12      1026       707       204       702      7881      1029      1028
 -1      6573    6    0    1
 -2      1025        15      1352       275      1034      1366      7875      1036       278      1370
 -1      6574    6    0    1
 -2         3         4        32        43       679      8127        42        44        45       469
 -1      6575    6    0    1
 -2        11        12       199       214       701       200       201       223      8121       985
 -1      6576    6    0    1
 -2        12       199       214       244       200       985      8121       254       986       989
 -1      6577    6    0    1
 -2       623        13       203      1024       708       206       709      7732      1032      1031
 -1      6578    6    0    1
 -2      1027      1297        16       274      7810      1372      1038      1039      1371       276
 -1      6579    6    0    1
 -2         6        89       508       622        91       521       520       685       684      4846
 -1      6580    6    0    1
 -2       507        66         5      1298       516        69       517      8097      1360      1359
 -1      6581    6    0    1
 -2         1        65       509      1294        67       512       511      1355      1357      7919
 -1      6582    6    0    1
 -2       506        90         4       619       515        93       513      8026       683       681
 -1      6583    6    0    1
 -2      2927      4321      3098      2928      4440      4866      3677      3672      5715      3676
 -1      6584    6    0    1
 -2      3098      4321      2927       260      4866      4440      3677      4403      4441      4429
 -1      6585    6    0    1
 -2      4321      2927      2926      2928      4440      3663      4648      5715      3672      3671
 -1      6586    6    0    1
 -2      4321      2926      2927       259      4648      3663      4440      4439      4449      4438
 -1      6587    6    0    1
 -2       237      4229      4299      4127      5150      8128      4759      4757      5152      4760
 -1      6588    6    0    1
 -2      1675      4299      4229      4127      6779      8128      6373      6374      4760      5152
 -1      6589    6    0    1
 -2      4348        71      1117      1137      4398      1166      4860      4456      1162      1167
 -1      6590    6    0    1
 -2      4348      1117        71      3049      4860      1166      4398      4400      4858      4396
 -1      6591    6    0    1
 -2      3049      4330      3053      3047      4564      6476      4048      4045      5714      4047
 -1      6592    6    0    1
 -2      3053      4330      3049        70      6476      4564      4048      4918      4562      4397
 -1      6593    6    0    1
 -2      4284      4286      4145      2345      4765      5027      5289      5618      5619      5868
 -1      6594    6    0    1
 -2      4145      4286      4284      4126      5027      4765      5289      5571      4766      4762
 -1      6595    6    0    1
 -2      4330      3049      3048      3047      4564      4046      5029      5714      4045      4042
 -1      6596    6    0    1
 -2      4330      3048      3049        71      5029      4046      4564      4563      4656      4396
 -1      6597    6    0    1
 -2      4194      2947      4208      4184      6453      6756      5253      5609      6452      5512
 -1      6598    6    0    1
 -2      4194      4208      2947      3085      5253      6756      6453      5249      5252      3550
 -1      6599    6    0    1
 -2      4329      2994      2992      1127      5136      3957      4434      5113      4878      4796
 -1      6600    6    0    1
 -2      4329      2992      2994      3120      4434      3957      5136      7960      3959      3958
 -1      6601    6    0    1
 -2      2305      4124      4153      2304      5407      4922      5270      2669      4600      5147
 -1      6602    6    0    1
 -2      2305      4153      4124      4200      5270      4922      5407      5272      5273      5406
 -1      6603    6    0    1
 -2       256      4305      4290      3067      4670      6370      8129      4844      4980      6367
 -1      6604    6    0    1
 -2      4290      4305       256      1017      6370      4670      8129      7682      5924      1069
 -1      6605    6    0    1
 -2       256      1020      4290      1017      1073      7861      8129      1069      1074      7682
 -1      6606    6    0    1
 -2      4158      4292       626       627      4659      5785      5573      5003      5004       932
 -1      6607    6    0    1
 -2       626      4292      4158      4102      5785      4659      5573      5574      4657      4370
 -1      6608    6    0    1
 -2      4348      3052      3114      1138      4859      4058      4680      4595      4481      4480
 -1      6609    6    0    1
 -2      4348      3114      3052      3123      4680      4058      4859      5155      4060      4055
 -1      6610    6    0    1
 -2      4268      3010      4178      3012      5389      4499      5982      6672      3991      5343
 -1      6611    6    0    1
 -2      4268      4178      3010      4092      5982      4499      5389      4966      4498      4500
 -1      6612    6    0    1
 -2      4314      4116      2953      4156      7235      4778      4968      4970      4777      4776
 -1      6613    6    0    1
 -2      4314      2953      4116      4186      4968      4778      7235      7301      5594      5592
 -1      6614    6    0    1
 -2      4329      1133      1134      1144      4513      1250      5135      4511      1269      1244
 -1      6615    6    0    1
 -2      4329      1134      1133      2999      5135      1250      4513      5563      5558      5039
 -1      6616    6    0    1
 -2      4272      2315      2279      2281      4604      2558      6746      4782      2557      2556
 -1      6617    6    0    1
 -2      4272      2279      2315      4117      6746      2558      4604      4532      5710      4596
 -1      6618    6    0    1
 -2      2994      4329      2999      1134      5136      5563      3966      5134      5135      5558
 -1      6619    6    0    1
 -2      2999      4329      2994      3120      5563      5136      3966      3374      7960      3958
 -1      6620    6    0    1
 -2      4299       238       237      1010      6096       247      4759      4758      1048      1047
 -1      6621    6    0    1
 -2      4303      4269      3055      4116      7326      8130      6066      6065      4780      5529
 -1      6622    6    0    1
 -2      4303      3055      4269      2956      6066      8130      7326      8044      3806      5154
 -1      6623    6    0    1
 -2      2953      3055      4269      4116      3807      8130      4779      4778      5529      4780
 -1      6624    6    0    1
 -2      2953      4269      3055      2956      4779      8130      3807      3769      5154      3806
 -1      6625    6    0    1
 -2      4287      1685      1684      4107      5561      1981      4701      4700      4849      4699
 -1      6626    6    0    1
 -2      4287      1684      1685      1683      4701      1981      5561      5879      1977      1982
 -1      6627    6    0    1
 -2      4237      4196      3032      3029      4671      8131      5116      6126      6125      4015
 -1      6628    6    0    1
 -2      4237      3032      4196      4167      5116      8131      4671      4905      5114      4902
 -1      6629    6    0    1
 -2      3031      3032      4196      3029      4014      8131      7274      4013      4015      6125
 -1      6630    6    0    1
 -2      3031      4196      3032      4167      7274      8131      4014      7132      4902      5114
 -1      6631    6    0    1
 -2      2122      4173      4235      2116      7022      6432      7336      2259      6428      6431
 -1      6632    6    0    1
 -2      4235      4173      2122      4152      6432      7022      7336      7585      7023      7020
 -1      6633    6    0    1
 -2      2877      4292      3117      3079      4946      5963      3428      3227      5607      3431
 -1      6634    6    0    1
 -2      3117      4292      2877      4129      5963      4946      3428      4973      4947      4943
 -1      6635    6    0    1
 -2      1684      4287      1682      1683      4701      7087      1976      1977      5879      1971
 -1      6636    6    0    1
 -2      1682      4287      1684      4135      7087      4701      1976      5763      4702      4698
 -1      6637    6    0    1
 -2      4286      1348      4232      4113      5900      6547      5690      5026      5899      5955
 -1      6638    6    0    1
 -2      4286      4232      1348      1324      5690      6547      5900      5689      5631      1619
 -1      6639    6    0    1
 -2      4351      3128      3000      3004      5008      3973      4909      6701      3487      3978
 -1      6640    6    0    1
 -2      4351      3000      3128       262      4909      3973      5008      5010      4795      4771
 -1      6641    6    0    1
 -2      4216      4284      2329      2293      6443      5415      8132      6442      6444      2619
 -1      6642    6    0    1
 -2      2329      4284      4216      4112      5415      6443      8132      5414      5290      6461
 -1      6643    6    0    1
 -2      2329      2292      4216      2293      2620      6460      8132      2619      2607      6442
 -1      6644    6    0    1
 -2      4216      2292      2329      4112      6460      2620      8132      6461      5508      5414
 -1      6645    6    0    1
 -2      4286      1348      1331      1324      5900      1655      7126      5689      1619      1566
 -1      6646    6    0    1
 -2      4286      1331      1348      4218      7126      1655      5900      5901      7125      5898
 -1      6647    6    0    1
 -2      4335      4222      2904      4097      6897      6202      6022      6021      6203      6020
 -1      6648    6    0    1
 -2      4335      2904      4222      2903      6022      6202      6897      6896      3551      6894
 -1      6649    6    0    1
 -2      4295       243       216       242      7964       992      8133      7140       252       994
 -1      6650    6    0    1
 -2        51      2316      2263        27      5383      2388      7899       475      2384      2386
 -1      6651    6    0    1
 -2      2263      2316        51      4188      2388      5383      7899      7204      5381      5384
 -1      6652    6    0    1
 -2      4275      4293      1723      4116      6154      6661      6111      6110      6153      6109
 -1      6653    6    0    1
 -2      1723      4293      4275      1738      6661      6154      6111      2009      6424      6422
 -1      6654    6    0    1
 -2      4247      4352      4171      1733      6274      6478      4424      4737      6479      4736
 -1      6655    6    0    1
 -2      4171      4352      4247      4091      6478      6274      4424      4590      6077      4593
 -1      6656    6    0    1
 -2      1671      1725      4295       216      1807      8134      7578      1803      1805      8133
 -1      6657    6    0    1
 -2      1671      4295      1725      4130      7578      8134      1807      7244      6681      5091
 -1      6658    6    0    1
 -2       242      4295      1725       216      7140      8134      7228       994      8133      1805
 -1      6659    6    0    1
 -2       242      1725      4295      4130      7228      8134      7140      7138      5091      6681
 -1      6660    6    0    1
 -2      4252      4111      3025      4208      6763      4661      5643      4646      5251      5603
 -1      6661    6    0    1
 -2      4252      3025      4111      4152      5643      4661      6763      5644      4662      4663
 -1      6662    6    0    1
 -2      4324      4243      4161      2907      5975      7373      7032      5973      5971      7451
 -1      6663    6    0    1
 -2      4324      4161      4243      4096      7032      7373      5975      5997      7050      5995
 -1      6664    6    0    1
 -2      4320      4291      2938      2940      6760      6604      5945      6759      6757      3731
 -1      6665    6    0    1
 -2      4320      2938      4291      4103      5945      6604      6760      5946      5944      6603
 -1      6666    6    0    1
 -2      4338      3150      4091      4207      8030      4408      6188      6609      4410      4411
 -1      6667    6    0    1
 -2      4338      4091      3150      2985      6188      4408      8030      5936      5798      3938
 -1      6668    6    0    1
 -2      4247      4356      4220      1692      6489      6539      5184      5185      6488      5186
 -1      6669    6    0    1
 -2      4220      4356      4247      4095      6539      6489      5184      5702      7033      5701
 -1      6670    6    0    1
 -2      4227        52        51       500      7957        61      5386      5230       538       537
 -1      6671    6    0    1
 -2      4204      4344      2979      4121      6692      6294      6215      6543      6293      6292
 -1      6672    6    0    1
 -2      2979      4344      4204      3152      6294      6692      6215      3920      6785      6784
 -1      6673    6    0    1
 -2      4248      4353      4319      4154      7484      8135      6700      7153      7483      7155
 -1      6674    6    0    1
 -2      4248      4319      4353      3057      6700      8135      7484      6859      6860      8099
 -1      6675    6    0    1
 -2      3154      4319      4353      4154      6927      8135      7928      7752      7155      7483
 -1      6676    6    0    1
 -2      3154      4353      4319      3057      7928      8135      6927      3923      8099      6860
 -1      6677    6    0    1
 -2       241      1725      1660       217      6914      1810      7931       997      1806      1808
 -1      6678    6    0    1
 -2       241      1660      1725      4263      7931      1810      6914      6915      6939      5093
 -1      6679    6    0    1
 -2      2333        50      2263        28      7130      7932      2391      2389       478      2387
 -1      6680    6    0    1
 -2      2333      2263        50      4188      2391      7932      7130      5334      7204      7131
 -1      6681    6    0    1
 -2      4331      4283      4200      2310      6364      6348      6102      6362      6360      6904
 -1      6682    6    0    1
 -2      4331      4200      4283      4114      6102      6348      6364      6614      6594      7010
 -1      6683    6    0    1
 -2      4315       498      4238       505      6419      5445      6975      7764       527      7801
 -1      6684    6    0    1
 -2      4315      4238       498      4125      6975      5445      6419      4391      5302      5444
 -1      6685    6    0    1
 -2      3107      4323      3108      2981      5967      6302      3463      3437      6537      3875
 -1      6686    6    0    1
 -2      3108      4323      3107      4258      6302      5967      3463      6685      5968      5965
 -1      6687    6    0    1
 -2       256      4318      4290      1020      4920      7398      8129      1073      7384      7861
 -1      6688    6    0    1
 -2      4290      4318       256      3067      7398      4920      8129      6367      4880      4844
 -1      6689    6    0    1
 -2      1304      4330      1298      1350      7067      8098      1363      1489      6475      1494
 -1      6690    6    0    1
 -2      1298      4330      1304        70      8098      7067      1363      8096      4562      7426
 -1      6691    6    0    1
 -2      1723      4275      1688      1738      6111      7629      2008      2009      6422      1990
 -1      6692    6    0    1
 -2      1688      4275      1723      4246      7629      6111      2008      6995      6112      6108
 -1      6693    6    0    1
 -2      4296      4109      1700      4149      6940      5312      6217      6941      5776      5775
 -1      6694    6    0    1
 -2      4296      1700      4109      4185      6217      5312      6940      6218      5313      5055
 -1      6695    6    0    1
 -2      4356      1681      1680      4220      6538      1961      7056      6539      5322      6597
 -1      6696    6    0    1
 -2      4356      1680      1681      1679      7056      1961      6538      6650      1958      1962
 -1      6697    6    0    1
 -2      3037      4340      3008      2878      6288      5536      3435      3334      6535      3434
 -1      6698    6    0    1
 -2      3008      4340      3037      4141      5536      6288      3435      5173      4997      6285
 -1      6699    6    0    1
 -2      4219      2729      2738      4212      6498      2839      5717      6506      7970      5772
 -1      6700    6    0    1
 -2      4219      2738      2729      2719      5717      2839      6498      6497      2863      2761
 -1      6701    6    0    1
 -2      4340      2106      2130      2119      6287      2221      7344      6572      2178      2222
 -1      6702    6    0    1
 -2      4340      2130      2106      4141      7344      2221      6287      4997      6884      6284
 -1      6703    6    0    1
 -2      4319      3064      3070      3119      5013      4077      7848      5117      4070      3383
 -1      6704    6    0    1
 -2      4319      3070      3064      4162      7848      4077      5013      5133      7592      5519
 -1      6705    6    0    1
 -2       618      4219      2729       646      6788      6498      7933       844      6496      6494
 -1      6706    6    0    1
 -2      2729      4219       618      4212      6498      6788      7933      7970      6506      7205
 -1      6707    6    0    1
 -2       617      4217       645      2123      7990      8136       753      7936      6815      7937
 -1      6708    6    0    1
 -2      2113       645      4217      2123      7940      8136      6816      2155      7937      6815
 -1      6709    6    0    1
 -2      2113      4217       645      4214      6816      8136      7940      7199      6523      7981
 -1      6710    6    0    1
 -2      4351      3101      4158      3006      7575      5005      6331      6809      3413      6808
 -1      6711    6    0    1
 -2      4351      4158      3101      4177      6331      5005      7575      6332      4374      5006
 -1      6712    6    0    1
 -2      4263      4298      4357      4106      6645      6678      7526      5193      6644      6352
 -1      6713    6    0    1
 -2      4357      4298      4263      4146      6678      6645      7526      6665      4977      6092
 -1      6714    6    0    1
 -2      4273      1663      1276      4266      7455      6798      6416      6267      6800      6415
 -1      6715    6    0    1
 -2      4273      1276      1663      1751      6416      6798      7455      7544      7901      1838
 -1      6716    6    0    1
 -2      4327      3097      3088      4126      4709      4090      5852      4476      4616      7236
 -1      6717    6    0    1
 -2      4327      3088      3097      3131      5852      4090      4709      6723      3508      4010
 -1      6718    6    0    1
 -2      4248      4333      4299      4105      7322      6194      7604      7189      6195      6191
 -1      6719    6    0    1
 -2      4299      4333      4248      4168      6194      7322      7604      7360      7321      7318
 -1      6720    6    0    1
 -2      2891      1285       336      3111      6715      1520      3314      3318      6550      3316
 -1      6721    6    0    1
 -2       336      1285      2891      1306      1520      6715      3314      1516      1521      6668
 -1      6722    6    0    1
 -2      4299       220       237       238      7742      1002      4759      6096      1003       247
 -1      6723    6    0    1
 -2      4272      2279      2280      2281      6746      2502      6912      4782      2556      2555
 -1      6724    6    0    1
 -2      4272      2280      2279      4209      6912      2502      6746      6747      5494      4637
 -1      6725    6    0    1
 -2      4190      4325      2954      3060      5994      8137      4830      6737      6738      3595
 -1      6726    6    0    1
 -2      4190      2954      4325      4136      4830      8137      5994      4829      4831      6563
 -1      6727    6    0    1
 -2      2972      2954      4325      3060      3813      8137      7531      3815      3595      6738
 -1      6728    6    0    1
 -2      2972      4325      2954      4136      7531      8137      3813      4949      6563      4831
 -1      6729    6    0    1
 -2      1281      2349      4236      2274      7847      7265      6949      6948      2450      6950
 -1      6730    6    0    1
 -2      1281      4236      2349      1315      6949      7265      7847      1553      7264      7262
 -1      6731    6    0    1
 -2      4256      3035      3076      4181      5735      3900      7611      5736      5734      7804
 -1      6732    6    0    1
 -2      4256      3076      3035      3015      7611      3900      5735      6687      3799      3998
 -1      6733    6    0    1
 -2      1306      3088       335      1287      6006      3311      1517      1518      5853      1513
 -1      6734    6    0    1
 -2      1306       335      3088      2891      1517      3311      6006      6668      3313      3315
 -1      6735    6    0    1
 -2      2266        49      2333        29      7485      7963      2394      2392       480      2390
 -1      6736    6    0    1
 -2      2266      2333        49      4326      2394      7963      7485      7218      5895      7486
 -1      6737    6    0    1
 -2      4220      4355      4237      4160      7527      6629      7671      7539      7541      5201
 -1      6738    6    0    1
 -2      4237      4355      4220      4108      6629      7527      7671      5838      6254      6598
 -1      6739    6    0    1
 -2      4335      2950      4142      4215      7684      6802      5164      6023      5524      6801
 -1      6740    6    0    1
 -2      4335      4142      2950      2959      5164      6802      7684      5765      5730      3569
 -1      6741    6    0    1
 -2       635      2872       124      3132      6262      3180       764      6693      3182      3178
 -1      6742    6    0    1
 -2       124      2872       635       613      3180      6262       764       768      6261       769
 -1      6743    6    0    1
 -2      4277      1301      4319      4229      7608      7837      7641      6377      7606      7805
 -1      6744    6    0    1
 -2      4277      4319      1301      1339      7641      7837      7608      7639      7640      1590
 -1      6745    6    0    1
 -2      2974      4257      3035      3118      6961      6581      3902      3897      5605      3396
 -1      6746    6    0    1
 -2      3035      4257      2974      4181      6581      6961      3902      5734      6582      7069
 -1      6747    6    0    1
 -2      4331        99      2268       642      7775      2417      7787      7776       739      7379
 -1      6748    6    0    1
 -2      4331      2268        99      2338      7787      2417      7775      7749      2419      2415
 -1      6749    6    0    1
 -2      1314      2265       376      1277      5648      2437      1543      1544      6047      1539
 -1      6750    6    0    1
 -2      1314       376      2265      2353      1543      2437      5648      6002      2439      2441
 -1      6751    6    0    1
 -2      1663      1276       290      1751      6798      1422      1834      1838      7901      1836
 -1      6752    6    0    1
 -2      1663       290      1276      1312      1834      1422      6798      6799      1418      1423
 -1      6753    6    0    1
 -2      3141      4258      4119      3108      7844      6686      5615      3465      6685      6301
 -1      6754    6    0    1
 -2      4119      4258      3141      4193      6686      7844      5615      5617      7434      5616
 -1      6755    6    0    1
 -2      4267       667       663      4226      7814       916      7866      6610      7830      7918
 -1      6756    6    0    1
 -2      4267       663       667       605      7866       916      7814      7816       915       723
 -1      6757    6    0    1
 -2      4281       608       624       662      7392       930      8038      7393       813       931
 -1      6758    6    0    1
 -2      4281       624       608      4158      8038       930      7392      6807      7759      5842
 -1      6759    6    0    1
 -2      4262       214      4295       244      8112      8138      7461      7891       989      7893
 -1      6760    6    0    1
 -2      4262      4295       214      1740      7461      8138      8112      6786      7462      1799
 -1      6761    6    0    1
 -2       243      4295       214       244      7964      8138       991       253      7893       989
 -1      6762    6    0    1
 -2      4308       128       607       630      7896       780      7803      7276       776       781
 -1      6763    6    0    1
 -2      4308       607       128      3133      7803       780      7896      7802      7534      3192
 -1      6764    6    0    1
 -2      1728       240      1660       218      7570      7953      1813      1811       995      1809
 -1      6765    6    0    1
 -2      1728      1660       240      4263      1813      7953      7570      7294      6939      7571
 -1      6766    6    0    1
 -2      4295       215       214      1740      8119       224      8138      7462      1800      1799
 -1      6767    6    0    1
 -2      4295       214       215       243      8138       224      8119      7964       991       990
 -1      6768    6    0    1
 -2       494      4316       492       502      5337      7627       594       559      4879       596
 -1      6769    6    0    1
 -2       492      4316       494      4182      7627      5337       594      7625      4417      5338
 -1      6770    6    0    1
 -2      1353      4348       325      2884      7302      8003      1479      7429      5796      3281
 -1      6771    6    0    1
 -2       325      4348      1353      1319      8003      7302      1479      1485      7303      1486
 -1      6772    6    0    1
 -2      4267      2350      4294      2270      7911      6410      7898      7906      2523      7959
 -1      6773    6    0    1
 -2      4267      4294      2350      4211      7898      6410      7911      6556      5962      6409
 -1      6774    6    0    1
 -2      4226        47        46       498      6450        56      8122      6418       523       522
 -1      6775    6    0    1
 -2        26      4227        51      2316      7954      5386       476      2383      5385      5383
 -1      6776    6    0    1
 -2        51      4227        26        52      5386      7954       476        61      7957       477
 -1      6777    6    0    1
 -2       236      4229       237      1015      8120      5150       246      1044      5151      1045
 -1      6778    6    0    1
 -2      2981      4355      2967      2969      7642      8017      3873      3874      7681      3803
 -1      6779    6    0    1
 -2      2967      4355      2981      4323      8017      7642      3873      7170      6256      6537
 -1      6780    6    0    1
 -2      4226        47        32        46      6450       485      8123      8122        56       487
 -1      6781    6    0    1
 -2      2279      4315      2266      2278      4638      7215      2499      2500      6414      2397
 -1      6782    6    0    1
 -2      2266      4315      2279      4209      7215      4638      2499      7252      4390      4637
 -1      6783    6    0    1
 -2       236      4229       221       237      8120      8139      1005       246      5150      1001
 -1      6784    6    0    1
 -2       221      4229      4299       237      8139      8128      8140      1001      5150      4759
 -1      6785    6    0    1
 -2      4299       220       221       237      7742       230      8140      4759      1002      1001
 -1      6786    6    0    1
 -2       221       220      4299      1710       230      7742      8140      1818      1817      7156
 -1      6787    6    0    1
 -2      2121      1346      4218      1293      8111      8078      6983      6514      1529      6982
 -1      6788    6    0    1
 -2      2121      4218      1346      2133      6983      8078      8111      2163      8082      8109
 -1      6789    6    0    1
 -2      4315        31      4226        47      7644      8141      6420      6451       486      6450
 -1      6790    6    0    1
 -2      4315      4226        31      2276      6420      8141      7644      6413      6606      2398
 -1      6791    6    0    1
 -2        32      4226        31        47      8123      8141        41       485      6450       486
 -1      6792    6    0    1
 -2        32        31      4226      2276        41      8141      8123      2399      2398      6606
 -1      6793    6    0    1
 -2      4295       215       216       243      8119       225      8133      7964       990       992
 -1      6794    6    0    1
 -2      4295       216       215      1671      8133       225      8119      7578      1803      1802
 -1      6795    6    0    1
 -2       327      4330      2874      3139      8021      8001      3289      3287      6474      3291
 -1      6796    6    0    1
 -2      2874      4330       327      1340      8001      8021      3289      7781      8004      1491
 -1      6797    6    0    1
 -2       214      4262      1026       244      8112      7508      8114       989      7891      1030
 -1      6798    6    0    1
 -2      1026      4262       214      1760      7508      8112      8114      7880      8040      1767
 -1      6799    6    0    1
 -2      4226        32       506        46      8123      8124      7538      8122       487       514
 -1      6800    6    0    1
 -2      4226       506        32      2358      7538      8124      8123      7935      8063      2368
 -1      6801    6    0    1
 -2       214      1026        12       244      8114      1028      8121       989      1030       254
 -1      6802    6    0    1
 -2        12      1026       214       677      1028      8114      8121       702      7881      8113
 -1      6803    6    0    1
 -2      1675      4229       222      1756      6373      8142      1821      1823      7994      1768
 -1      6804    6    0    1
 -2      1294        54      2361       509      8126      8143      7888      7919       510      7927
 -1      6805    6    0    1
 -2      4280      2361        54       509      7355      8143      7944      7921      7927       510
 -1      6806    6    0    1
 -2      4280        54      2361        24      7944      8143      7355      7916       471      2366
 -1      6807    6    0    1
 -2       496       505      4238       498       598      7801      5103       584       527      5445
 -1      6808    6    0    1
 -2      4238       505       496       493      7801       598      5103      7044       588       574
 -1      6809    6    0    1
 -2      1015      1020      4290      1010      1113      7861      5712      1049      1106      5692
 -1      6810    6    0    1
 -2      4290      1020      1015      1017      7861      1113      5712      7682      1074      1103
 -1      6811    6    0    1
 -2      1022      1014      4177      1012      1116      7273      7634      1111      1067      7374
 -1      6812    6    0    1
 -2      4177      1014      1022      1016      7273      1116      7634      6328      1099      1092
 -1      6813    6    0    1
 -2       497       502      4316       499       597      4879      7615       581       556      6378
 -1      6814    6    0    1
 -2      4316       502       497       492      4879       597      7615      7627       596       545
 -1      6815    6    0    1
 -2         4        32       619         3      8127      8125       681       679        42       680
 -1      6816    6    0    1
 -2       619        32         4       506      8125      8127       681      8026      8124       513
 -1      6817    6    0    1
 -2       236       233        14        15       988       234      8144       245       235      1364
 -1      6818    6    0    1
 -2       236        14       233       222      8144       234       988      1004       232       987
 -1      6819    6    0    1
 -2      1352       236        14        15      8145      8144      1365      1366       245      1364
 -1      6820    6    0    1
 -2      1352        14       236       222      1365      8144      8145      8117       232      1004
 -1      6821    6    0    1
 -2      1025       236      1352        15      1035      8145      7875      1034       245      1366
 -1      6822    6    0    1
 -2        21         1        24         2        22      8146       468        23      1354        33
 -1      6823    6    0    1
 -2        21        24         1        54       468      8146        22       467       471        64
 -1      6824    6    0    1
 -2      4255      4347      4202      4139      7261      7672      6326      7281      5958      7737
 -1      6825    6    0    1
 -2      4202      4347      4255      4105      7672      7261      6326      6324      7191      6234
 -1      6826    6    0    1
 -2      4255       239       238      1018      7729       248      6095      5802      1051      1050
 -1      6827    6    0    1
 -2       221       222      4229       236       231      8142      8139      1005      1004      8120
 -1      6828    6    0    1
 -2      4229       222       221      1675      8142       231      8139      6373      1821      1820
 -1      6829    6    0    1
 -2       239       220      4255       238      1000      8147      7729       248      1003      6095
 -1      6830    6    0    1
 -2       239      4255       220      1665      7729      8147      1000      8041      7562      1815
 -1      6831    6    0    1
 -2      4299      4255       220       238      5807      8147      7742      6096      6095      1003
 -1      6832    6    0    1
 -2      4299       220      4255      1665      7742      8147      5807      7563      1815      7562
 -1      6833    6    0    1
 -2      1675      4299       221      4229      6779      8140      1820      6373      8128      8139
 -1      6834    6    0    1
 -2       221      4299      1675      1710      8140      6779      1820      1818      7156      1822
 -1      6835    6    0    1
 -2      4217       645       673       617      8136       937      5877      7990       753       975
 -1      6836    6    0    1
 -2      4217       673       645      4214      5877       937      8136      6523      5905      7981
 -1      6837    6    0    1
 -2       236      1352      1756      1025      8145      7874      8148      1035      7875      7876
 -1      6838    6    0    1
 -2      1756      1352       236       222      7874      8145      8148      1768      8117      1004
 -1      6839    6    0    1
 -2      1756      4229       236      1025      7994      8120      8148      7876      7128      1035
 -1      6840    6    0    1
 -2       236      4229      1756       222      8120      7994      8148      1004      8142      1768
 -1      6841    6    0    1
 -2        54      2361         1      1294      8143      8149        64      8126      7888      1355
 -1      6842    6    0    1
 -2        54         1      2361        24        64      8149      8143       471      8146      2366
 -1      6843    6    0    1
 -2         2         1      2361      1294      1354      8149      2365      1356      1355      7888
 -1      6844    6    0    1
 -2         2      2361         1        24      2365      8149      1354        33      2366      8146
 -3
    1PSTEP                         1           1           1          
  100CL  101 1.000000000        8149                     0    1           1
 -4  DISP        4    1
 -5  D1          1    2    1    0
 -5  D2          1    2    2    0
 -5  D3          1    2    3    0
 -5  ALL         1    2    0    0    1ALL
 -1         1-1.98278E-04-1.44126E-04 6.61406E-03
 -1         2 1.30444E-05-1.12681E-04 6.37959E-03
 -1         3 7.30083E-06 1.15399E-04 6.37747E-03
 -1         4-2.03041E-04 1.46712E-04 6.60968E-03
 -1         5-3.50296E-03-8.42810E-04 9.02568E-03
 -1         6-3.49282E-03 8.43616E-04 9.00649E-03
 -1         7 0.00000E+00 0.00000E+00 0.00000E+00
 -1         8 0.00000E+00 0.00000E+00 0.00000E+00
 -1         9-1.00000E-02 0.00000E+00 0.00000E+00
 -1        10-1.00000E-02 0.00000E+00 0.00000E+00
 -1        11-1.00133E-02 1.12861E-04 6.38295E-03
 -1        12-9.80249E-03 1.44651E-04 6.61504E-03
 -1        13-6.49442E-03 8.43651E-04 9.02699E-03
 -1        14-1.00138E-02-1.12205E-04 6.38149E-03
 -1        15-9.80243E-03-1.44274E-04 6.61335E-03
 -1        16-6.49749E-03-8.43566E-04 9.02469E-03
 -1        17-1.00000E-02 0.00000E+00 0.00000E+00
 -1        18-1.00000E-02 0.00000E+00 0.00000E+00
 -1        19 0.00000E+00 0.00000E+00 0.00000E+00
 -1        20 0.00000E+00 0.00000E+00 0.00000E+00
 -1        21-4.68565E-05-1.23020E-04 6.53724E-03
 -1        22-1.15476E-04-1.32933E-04 6.58968E-03
 -1        23-2.00263E-06-1.16070E-04 6.46397E-03
 -1        24 3.35996E-05-1.19325E-04 6.53574E-03
 -1        25 2.51935E-05-1.09682E-04 6.62327E-03
 -1        26 1.96776E-05-7.88226E-05 6.68056E-03
 -1        27 2.08080E-05-4.06364E-05 6.71723E-03
 -1        28 1.73908E-05-3.21258E-07 6.72598E-03
 -1        29 1.88136E-05 4.05952E-05 6.71376E-03
 -1        30 1.94337E-05 7.98443E-05 6.67875E-03
 -1        31 2.99401E-05 1.09852E-04 6.62456E-03
 -1        32 2.47907E-05 1.23485E-04 6.52987E-03
 -1        33 2.46373E-05-1.17777E-04 6.46595E-03
 -1        34 3.09885E-05-1.17581E-04 6.58525E-03
 -1        35 2.24228E-05-9.54713E-05 6.65523E-03
 -1        36 1.90693E-05-5.98575E-05 6.70101E-03
 -1        37 1.41502E-05-2.07595E-05 6.72046E-03
 -1        38 1.60564E-05 2.00592E-05 6.72019E-03
 -1        39 1.60280E-05 6.09867E-05 6.69589E-03
 -1        40 2.41077E-05 9.64659E-05 6.65455E-03
 -1        41 2.74095E-05 1.19348E-04 6.58180E-03
 -1        42 1.93106E-05 1.20703E-04 6.46334E-03
 -1        43-5.33182E-05 1.25546E-04 6.53413E-03
 -1        44-8.29140E-06 1.18769E-04 6.46144E-03
 -1        45-1.21244E-04 1.35532E-04 6.58589E-03
 -1        46-1.83810E-04 1.45953E-04 6.76366E-03
 -1        47-1.78538E-04 1.23321E-04 6.85547E-03
 -1        48-1.87928E-04 8.94853E-05 6.90612E-03
 -1        49-1.86941E-04 4.50539E-05 6.94128E-03
 -1        50-1.88046E-04-7.43571E-07 6.95304E-03
 -1        51-1.84702E-04-4.40893E-05 6.94561E-03
 -1        52-1.88126E-04-8.62310E-05 6.90970E-03
 -1        53-1.84323E-04-1.21133E-04 6.85362E-03
 -1        54-1.75091E-04-1.44102E-04 6.77027E-03
 -1        55-1.89767E-04 1.48834E-04 6.69625E-03
 -1        56-1.81999E-04 1.37249E-04 6.81422E-03
 -1        57-1.84166E-04 1.06775E-04 6.88491E-03
 -1        58-1.89444E-04 6.73372E-05 6.92280E-03
 -1        59-1.89731E-04 2.24445E-05 6.94712E-03
 -1        60-1.91794E-04-2.26113E-05 6.94774E-03
 -1        61-1.88734E-04-6.59595E-05 6.92996E-03
 -1        62-1.86070E-04-1.05236E-04 6.88496E-03
 -1        63-1.78843E-04-1.34667E-04 6.81781E-03
 -1        64-1.85412E-04-1.45738E-04 6.70091E-03
 -1        65-1.33545E-03-3.30069E-04 7.02997E-03
 -1        66-2.51221E-03-6.26341E-04 7.99684E-03
 -1        67-7.63087E-04-2.24990E-04 6.74753E-03
 -1        68-1.94516E-03-4.71891E-04 7.46870E-03
 -1        69-3.05289E-03-7.59553E-04 8.55227E-03
 -1        70-3.46195E-03-5.90544E-04 8.90948E-03
 -1        71-3.44437E-03-4.02781E-04 8.88202E-03
 -1        72-3.44830E-03-2.42206E-04 8.90313E-03
 -1        73-3.46564E-03-1.16117E-04 8.92597E-03
 -1        74-3.46301E-03-1.40852E-07 8.94800E-03
 -1        75-3.47653E-03 1.18763E-04 8.92832E-03
 -1        76-3.46707E-03 2.46219E-04 8.90790E-03
 -1        77-3.44004E-03 3.90114E-04 8.87234E-03
 -1        78-3.42394E-03 5.90719E-04 8.87813E-03
 -1        79-3.46291E-03-7.09388E-04 8.94250E-03
 -1        80-3.45442E-03-4.92120E-04 8.89019E-03
 -1        81-3.44298E-03-3.19942E-04 8.88405E-03
 -1        82-3.46050E-03-1.78353E-04 8.91573E-03
 -1        83-3.46472E-03-5.65134E-05 8.93674E-03
 -1        84-3.47138E-03 5.89990E-05 8.93900E-03
 -1        85-3.47047E-03 1.81317E-04 8.91839E-03
 -1        86-3.45962E-03 3.15384E-04 8.89020E-03
 -1        87-3.42701E-03 4.85945E-04 8.86217E-03
 -1        88-3.44789E-03 7.09599E-04 8.91837E-03
 -1        89-2.51027E-03 6.27321E-04 7.98674E-03
 -1        90-1.34243E-03 3.35853E-04 7.02602E-03
 -1        91-3.04413E-03 7.50752E-04 8.53119E-03
 -1        92-1.95107E-03 4.76987E-04 7.46325E-03
 -1        93-7.68751E-04 2.28486E-04 6.74357E-03
 -1        94-1.67346E-05 9.11227E-05 5.06802E-03
 -1        95-2.56145E-05 7.38881E-05 3.91239E-03
 -1        96-2.78542E-05 6.36504E-05 2.89903E-03
 -1        97-3.22035E-05 5.88508E-05 2.02901E-03
 -1        98-3.98282E-05 5.77181E-05 1.30486E-03
 -1        99-5.07276E-05 5.79015E-05 7.27632E-04
 -1       100-6.32710E-05 5.46491E-05 2.96758E-04
 -1       101-7.57345E-05 4.57475E-05 1.58634E-05
 -1       102-8.00959E-05 2.93206E-05-1.00022E-04
 -1       103-4.95144E-06 1.02557E-04 5.70373E-03
 -1       104-2.28217E-05 8.15583E-05 4.47217E-03
 -1       105-2.66930E-05 6.80398E-05 3.38790E-03
 -1       106-2.96466E-05 6.07759E-05 2.44595E-03
 -1       107-3.55798E-05 5.80393E-05 1.64867E-03
 -1       108-4.49953E-05 5.79770E-05 9.97996E-04
 -1       109-5.69243E-05 5.69194E-05 4.93899E-04
 -1       110-6.97721E-05 5.11684E-05 1.37279E-04
 -1       111-8.02038E-05 3.83056E-05-6.40635E-05
 -1       112-6.35070E-05 2.23469E-05-8.16977E-05
 -1       113 0.00000E+00 0.00000E+00 0.00000E+00
 -1       114 0.00000E+00 0.00000E+00 0.00000E+00
 -1       115 0.00000E+00 0.00000E+00 0.00000E+00
 -1       116 0.00000E+00 0.00000E+00 0.00000E+00
 -1       117 0.00000E+00 0.00000E+00 0.00000E+00
 -1       118 0.00000E+00 0.00000E+00 0.00000E+00
 -1       119 0.00000E+00 0.00000E+00 0.00000E+00
 -1       120-5.10413E-04 3.24386E-04 1.19051E-04
 -1       121-9.39028E-04 4.77897E-04 2.52245E-04
 -1       122-1.38251E-03 5.63862E-04 5.30531E-04
 -1       123-1.83819E-03 6.13821E-04 9.62829E-04
 -1       124-2.30067E-03 6.42576E-04 1.54715E-03
 -1       125-2.76935E-03 6.57957E-04 2.28129E-03
 -1       126-3.24376E-03 6.63814E-04 3.16539E-03
 -1       127-3.72384E-03 6.61555E-04 4.20399E-03
 -1       128-4.19901E-03 6.46909E-04 5.40681E-03
 -1       129-4.63494E-03 6.09020E-04 6.77761E-03
 -1       130-4.92757E-03 5.56399E-04 8.20179E-03
 -1       131-5.02506E-03 4.98526E-04 9.36891E-03
 -1       132-5.01677E-03 4.72537E-04 9.97897E-03
 -1       133-4.98815E-03 4.68935E-04 9.98812E-03
 -1       134-4.97840E-03 4.96438E-04 9.38627E-03
 -1       135-5.07493E-03 5.42582E-04 8.22333E-03
 -1       136-5.36011E-03 6.09928E-04 6.78390E-03
 -1       137-5.79864E-03 6.45517E-04 5.41190E-03
 -1       138-6.27652E-03 6.59529E-04 4.20765E-03
 -1       139-6.75548E-03 6.62771E-04 3.16812E-03
 -1       140-7.23051E-03 6.57356E-04 2.28315E-03
 -1       141-7.69900E-03 6.42224E-04 1.54848E-03
 -1       142-8.16168E-03 6.13718E-04 9.63466E-04
 -1       143-8.61704E-03 5.63983E-04 5.30776E-04
 -1       144-9.06073E-03 4.77419E-04 2.52792E-04
 -1       145-9.48980E-03 3.24213E-04 1.19041E-04
 -1       146-2.89935E-04 2.08478E-04 9.21871E-05
 -1       147-7.23880E-04 4.12789E-04 1.70579E-04
 -1       148-1.15930E-03 5.26509E-04 3.72505E-04
 -1       149-1.60935E-03 5.91872E-04 7.27789E-04
 -1       150-2.06873E-03 6.30234E-04 1.23630E-03
 -1       151-2.53435E-03 6.51608E-04 1.89560E-03
 -1       152-3.00582E-03 6.61727E-04 2.70456E-03
 -1       153-3.48326E-03 6.63670E-04 3.66497E-03
 -1       154-3.96352E-03 6.56166E-04 4.78456E-03
 -1       155-4.42545E-03 6.31645E-04 6.07422E-03
 -1       156-4.81004E-03 5.83597E-04 7.50183E-03
 -1       157-5.00289E-03 5.26169E-04 8.83787E-03
 -1       158-5.02462E-03 4.81574E-04 9.74885E-03
 -1       159-5.00299E-03 4.68287E-04 1.00585E-02
 -1       160-4.97908E-03 4.79985E-04 9.76130E-03
 -1       161-4.99814E-03 5.19158E-04 8.86298E-03
 -1       162-5.19175E-03 5.79667E-04 7.51075E-03
 -1       163-5.57089E-03 6.30200E-04 6.07933E-03
 -1       164-6.03637E-03 6.53865E-04 4.78887E-03
 -1       165-6.51626E-03 6.62455E-04 3.66824E-03
 -1       166-6.99375E-03 6.60956E-04 2.70685E-03
 -1       167-7.46546E-03 6.51122E-04 1.89714E-03
 -1       168-7.93107E-03 6.29850E-04 1.23730E-03
 -1       169-8.39037E-03 5.91768E-04 7.28130E-04
 -1       170-8.84043E-03 5.26202E-04 3.73159E-04
 -1       171-9.27606E-03 4.12362E-04 1.70664E-04
 -1       172-9.71005E-03 2.08496E-04 9.25927E-05
 -1       173-1.00000E-02 0.00000E+00 0.00000E+00
 -1       174-1.00000E-02 0.00000E+00 0.00000E+00
 -1       175-1.00000E-02 0.00000E+00 0.00000E+00
 -1       176-1.00000E-02 0.00000E+00 0.00000E+00
 -1       177-1.00000E-02 0.00000E+00 0.00000E+00
 -1       178-1.00000E-02 0.00000E+00 0.00000E+00
 -1       179-1.00000E-02 0.00000E+00 0.00000E+00
 -1       180-9.92009E-03 2.92000E-05-1.00124E-04
 -1       181-9.92480E-03 4.56110E-05 1.60374E-05
 -1       182-9.93748E-03 5.46823E-05 2.97219E-04
 -1       183-9.95030E-03 5.77495E-05 7.28374E-04
 -1       184-9.96146E-03 5.79046E-05 1.30626E-03
 -1       185-9.96963E-03 5.88585E-05 2.03098E-03
 -1       186-9.97428E-03 6.35850E-05 2.90172E-03
 -1       187-9.97726E-03 7.37322E-05 3.91602E-03
 -1       188-9.98772E-03 9.08994E-05 5.07305E-03
 -1       189-9.93662E-03 2.23550E-05-8.17016E-05
 -1       190-9.92016E-03 3.79542E-05-6.41962E-05
 -1       191-9.93090E-03 5.12432E-05 1.37657E-04
 -1       192-9.94394E-03 5.68776E-05 4.94515E-04
 -1       193-9.95617E-03 5.79839E-05 9.99077E-04
 -1       194-9.96592E-03 5.81244E-05 1.65036E-03
 -1       195-9.97240E-03 6.06941E-05 2.44826E-03
 -1       196-9.97568E-03 6.80264E-05 3.39111E-03
 -1       197-9.98055E-03 8.16650E-05 4.47604E-03
 -1       198-9.99974E-03 1.01161E-04 5.70771E-03
 -1       199-9.94290E-03 1.24754E-04 6.54967E-03
 -1       200-9.86311E-03 1.36353E-04 6.60076E-03
 -1       201-1.00044E-02 1.15156E-04 6.44647E-03
 -1       202-8.66156E-03 3.31203E-04 7.03788E-03
 -1       203-7.47777E-03 6.28177E-04 8.00118E-03
 -1       204-9.23605E-03 2.24772E-04 6.74733E-03
 -1       205-8.05678E-03 4.74178E-04 7.46987E-03
 -1       206-6.94292E-03 7.60347E-04 8.55170E-03
 -1       207-5.74471E-03 9.17723E-04 9.63517E-03
 -1       208-4.99221E-03 9.38733E-04 9.83823E-03
 -1       209-4.24027E-03 9.18441E-04 9.62503E-03
 -1       210-6.11881E-03 8.89044E-04 9.37850E-03
 -1       211-5.36975E-03 9.32988E-04 9.78770E-03
 -1       212-4.61493E-03 9.33914E-04 9.78315E-03
 -1       213-3.86703E-03 8.89475E-04 9.36227E-03
 -1       214-1.00327E-02 1.22109E-04 6.53836E-03
 -1       215-1.00252E-02 1.10548E-04 6.62487E-03
 -1       216-1.00268E-02 7.90853E-05 6.68810E-03
 -1       217-1.00164E-02 4.07459E-05 6.71640E-03
 -1       218-1.00145E-02 1.20306E-06 6.72696E-03
 -1       219-1.00154E-02-4.11054E-05 6.71439E-03
 -1       220-1.00226E-02-7.98794E-05 6.68475E-03
 -1       221-1.00366E-02-1.08318E-04 6.63261E-03
 -1       222-1.00282E-02-1.20153E-04 6.53392E-03
 -1       223-1.00243E-02 1.18055E-04 6.46959E-03
 -1       224-1.00300E-02 1.19440E-04 6.58618E-03
 -1       225-1.00246E-02 9.56427E-05 6.65798E-03
 -1       226-1.00178E-02 6.12286E-05 6.70157E-03
 -1       227-1.00129E-02 2.10090E-05 6.72196E-03
 -1       228-1.00133E-02-1.99867E-05 6.72113E-03
 -1       229-1.00177E-02-6.13485E-05 6.70113E-03
 -1       230-1.00277E-02-9.58004E-05 6.66083E-03
 -1       231-1.00321E-02-1.17082E-04 6.58789E-03
 -1       232-1.00236E-02-1.17396E-04 6.46747E-03
 -1       233-9.96131E-03-1.21881E-04 6.52892E-03
 -1       234-1.00046E-02-1.14802E-04 6.44675E-03
 -1       235-9.86491E-03-1.35797E-04 6.59862E-03
 -1       236-9.82010E-03-1.43786E-04 6.76812E-03
 -1       237-9.82896E-03-1.22877E-04 6.86357E-03
 -1       238-9.81535E-03-8.76779E-05 6.91397E-03
 -1       239-9.80863E-03-4.54986E-05 6.94115E-03
 -1       240-9.80950E-03 1.76863E-06 6.95357E-03
 -1       241-9.81148E-03 4.39986E-05 6.94350E-03
 -1       242-9.82145E-03 8.81924E-05 6.91727E-03
 -1       243-9.81557E-03 1.22451E-04 6.85460E-03
 -1       244-9.82498E-03 1.45781E-04 6.77354E-03
 -1       245-9.81389E-03-1.45424E-04 6.69973E-03
 -1       246-9.82251E-03-1.35809E-04 6.82095E-03
 -1       247-9.81921E-03-1.06034E-04 6.89087E-03
 -1       248-9.81103E-03-6.68919E-05 6.92935E-03
 -1       249-9.80839E-03-2.19948E-05 6.94693E-03
 -1       250-9.80731E-03 2.29464E-05 6.94898E-03
 -1       251-9.81215E-03 6.66398E-05 6.92835E-03
 -1       252-9.81612E-03 1.06544E-04 6.88798E-03
 -1       253-9.82111E-03 1.35974E-04 6.81882E-03
 -1       254-9.81529E-03 1.47211E-04 6.70210E-03
 -1       255-6.54299E-03-5.90029E-04 8.90589E-03
 -1       256-6.55848E-03-3.98045E-04 8.90795E-03
 -1       257-6.52947E-03-2.45212E-04 8.90753E-03
 -1       258-6.54429E-03-1.16257E-04 8.94970E-03
 -1       259-6.52125E-03 5.09424E-07 8.94297E-03
 -1       260-6.54504E-03 1.17966E-04 8.94722E-03
 -1       261-6.53420E-03 2.45444E-04 8.91721E-03
 -1       262-6.52883E-03 3.97940E-04 8.88700E-03
 -1       263-6.54797E-03 5.92206E-04 8.91704E-03
 -1       264-6.53935E-03-7.10666E-04 8.94104E-03
 -1       265-6.54779E-03-4.90102E-04 8.89322E-03
 -1       266-6.54350E-03-3.19339E-04 8.90107E-03
 -1       267-6.53511E-03-1.79028E-04 8.92568E-03
 -1       268-6.53160E-03-5.79174E-05 8.94517E-03
 -1       269-6.53065E-03 5.93518E-05 8.94500E-03
 -1       270-6.53954E-03 1.81748E-04 8.92984E-03
 -1       271-6.53195E-03 3.18650E-04 8.89899E-03
 -1       272-6.53814E-03 4.91221E-04 8.89196E-03
 -1       273-6.53823E-03 7.10760E-04 8.94551E-03
 -1       274-7.47892E-03-6.26789E-04 7.99966E-03
 -1       275-8.66389E-03-3.31039E-04 7.03608E-03
 -1       276-6.94483E-03-7.60139E-04 8.54976E-03
 -1       277-8.05829E-03-4.73208E-04 7.46920E-03
 -1       278-9.23678E-03-2.23854E-04 6.74558E-03
 -1       279-4.25227E-03-9.15557E-04 9.63277E-03
 -1       280-5.00072E-03-9.37225E-04 9.83999E-03
 -1       281-5.74957E-03-9.15651E-04 9.63327E-03
 -1       282-3.87933E-03-8.86012E-04 9.37568E-03
 -1       283-4.62500E-03-9.31738E-04 9.78743E-03
 -1       284-5.37618E-03-9.31082E-04 9.78723E-03
 -1       285-6.12275E-03-8.87529E-04 9.37592E-03
 -1       286-9.98828E-03-9.01858E-05 5.07192E-03
 -1       287-9.97749E-03-7.33421E-05 3.91464E-03
 -1       288-9.97422E-03-6.31265E-05 2.90051E-03
 -1       289-9.96967E-03-5.84747E-05 2.03002E-03
 -1       290-9.96142E-03-5.76579E-05 1.30561E-03
 -1       291-9.95017E-03-5.78522E-05 7.28111E-04
 -1       292-9.93725E-03-5.46868E-05 2.97029E-04
 -1       293-9.92494E-03-4.58817E-05 1.63347E-05
 -1       294-9.92010E-03-2.90219E-05-1.00340E-04
 -1       295-9.99997E-03-1.00674E-04 5.70667E-03
 -1       296-9.98106E-03-8.10146E-05 4.47466E-03
 -1       297-9.97576E-03-6.76407E-05 3.38969E-03
 -1       298-9.97236E-03-6.03323E-05 2.44718E-03
 -1       299-9.96596E-03-5.78639E-05 1.64956E-03
 -1       300-9.95613E-03-5.78600E-05 9.98568E-04
 -1       301-9.94375E-03-5.67635E-05 4.94110E-04
 -1       302-9.93088E-03-5.11621E-05 1.37600E-04
 -1       303-9.92032E-03-3.80066E-05-6.41181E-05
 -1       304-9.93679E-03-2.23129E-05-8.19511E-05
 -1       305-1.00000E-02 0.00000E+00 0.00000E+00
 -1       306-1.00000E-02 0.00000E+00 0.00000E+00
 -1       307-1.00000E-02 0.00000E+00 0.00000E+00
 -1       308-1.00000E-02 0.00000E+00 0.00000E+00
 -1       309-1.00000E-02 0.00000E+00 0.00000E+00
 -1       310-1.00000E-02 0.00000E+00 0.00000E+00
 -1       311-1.00000E-02 0.00000E+00 0.00000E+00
 -1       312-9.49015E-03-3.24732E-04 1.18829E-04
 -1       313-9.06090E-03-4.77496E-04 2.52356E-04
 -1       314-8.61707E-03-5.63972E-04 5.30522E-04
 -1       315-8.16197E-03-6.13907E-04 9.62948E-04
 -1       316-7.69939E-03-6.42378E-04 1.54784E-03
 -1       317-7.23094E-03-6.57655E-04 2.28228E-03
 -1       318-6.75636E-03-6.63266E-04 3.16687E-03
 -1       319-6.27690E-03-6.60163E-04 4.20626E-03
 -1       320-5.79971E-03-6.44530E-04 5.41013E-03
 -1       321-5.36095E-03-6.09587E-04 6.78210E-03
 -1       322-5.07589E-03-5.42840E-04 8.22022E-03
 -1       323-4.97969E-03-4.96650E-04 9.38331E-03
 -1       324-4.98639E-03-4.68520E-04 9.98690E-03
 -1       325-5.01382E-03-4.71070E-04 9.98449E-03
 -1       326-5.02071E-03-4.92041E-04 9.38726E-03
 -1       327-4.92580E-03-5.47151E-04 8.21876E-03
 -1       328-4.63670E-03-6.07331E-04 6.78147E-03
 -1       329-4.20020E-03-6.45337E-04 5.40907E-03
 -1       330-3.72343E-03-6.59195E-04 4.20616E-03
 -1       331-3.24319E-03-6.62195E-04 3.16724E-03
 -1       332-2.76868E-03-6.56673E-04 2.28268E-03
 -1       333-2.30025E-03-6.41908E-04 1.54809E-03
 -1       334-1.83803E-03-6.13208E-04 9.63475E-04
 -1       335-1.38279E-03-5.63244E-04 5.30913E-04
 -1       336-9.39168E-04-4.77260E-04 2.53015E-04
 -1       337-5.10369E-04-3.24385E-04 1.19184E-04
 -1       338-9.71021E-03-2.08798E-04 9.22104E-05
 -1       339-9.27624E-03-4.12683E-04 1.70256E-04
 -1       340-8.84052E-03-5.26202E-04 3.72845E-04
 -1       341-8.39058E-03-5.91924E-04 7.27723E-04
 -1       342-7.93144E-03-6.29930E-04 1.23675E-03
 -1       343-7.46584E-03-6.51374E-04 1.89640E-03
 -1       344-6.99437E-03-6.61345E-04 2.70578E-03
 -1       345-6.51717E-03-6.62702E-04 3.66692E-03
 -1       346-6.03690E-03-6.54335E-04 4.78739E-03
 -1       347-5.57207E-03-6.29894E-04 6.07846E-03
 -1       348-5.19251E-03-5.80358E-04 7.50812E-03
 -1       349-4.99941E-03-5.19313E-04 8.85942E-03
 -1       350-4.97948E-03-4.79263E-04 9.75928E-03
 -1       351-5.00056E-03-4.67748E-04 1.00602E-02
 -1       352-5.02079E-03-4.79070E-04 9.76005E-03
 -1       353-5.00008E-03-5.16546E-04 8.86053E-03
 -1       354-4.81075E-03-5.80123E-04 7.50750E-03
 -1       355-4.42699E-03-6.29400E-04 6.07744E-03
 -1       356-3.96347E-03-6.53836E-04 4.78696E-03
 -1       357-3.48280E-03-6.61699E-04 3.66706E-03
 -1       358-3.00524E-03-6.60414E-04 2.70611E-03
 -1       359-2.53373E-03-6.50491E-04 1.89684E-03
 -1       360-2.06829E-03-6.29467E-04 1.23711E-03
 -1       361-1.60933E-03-5.91170E-04 7.28191E-04
 -1       362-1.15964E-03-5.25905E-04 3.72755E-04
 -1       363-7.23597E-04-4.12420E-04 1.70864E-04
 -1       364-2.90000E-04-2.08491E-04 9.26319E-05
 -1       365 0.00000E+00 0.00000E+00 0.00000E+00
 -1       366 0.00000E+00 0.00000E+00 0.00000E+00
 -1       367 0.00000E+00 0.00000E+00 0.00000E+00
 -1       368 0.00000E+00 0.00000E+00 0.00000E+00
 -1       369 0.00000E+00 0.00000E+00 0.00000E+00
 -1       370 0.00000E+00 0.00000E+00 0.00000E+00
 -1       371 0.00000E+00 0.00000E+00 0.00000E+00
 -1       372-7.97575E-05-2.92894E-05-9.97938E-05
 -1       373-7.51508E-05-4.57887E-05 1.64358E-05
 -1       374-6.24893E-05-5.46070E-05 2.97537E-04
 -1       375-4.97516E-05-5.76653E-05 7.28458E-04
 -1       376-3.86885E-05-5.75962E-05 1.30601E-03
 -1       377-3.06660E-05-5.83765E-05 2.03040E-03
 -1       378-2.57623E-05-6.29855E-05 2.90082E-03
 -1       379-2.29640E-05-7.30398E-05 3.91456E-03
 -1       380-1.28590E-05-8.99224E-05 5.07053E-03
 -1       381-6.32485E-05-2.23337E-05-8.15172E-05
 -1       382-7.97461E-05-3.83538E-05-6.37012E-05
 -1       383-6.90799E-05-5.11151E-05 1.37912E-04
 -1       384-5.60271E-05-5.69331E-05 4.94791E-04
 -1       385-4.39714E-05-5.76817E-05 9.98985E-04
 -1       386-3.42268E-05-5.77410E-05 1.64999E-03
 -1       387-2.77965E-05-6.02440E-05 2.44750E-03
 -1       388-2.43403E-05-6.72494E-05 3.38991E-03
 -1       389-1.96409E-05-8.06738E-05 4.47448E-03
 -1       390 1.72869E-08-1.00607E-04 5.70664E-03
 -1       391-1.00000E-02 0.00000E+00 0.00000E+00
 -1       392-1.00000E-02 0.00000E+00 0.00000E+00
 -1       393-1.00000E-02 0.00000E+00 0.00000E+00
 -1       394-1.00000E-02 0.00000E+00 0.00000E+00
 -1       395-1.00000E-02 0.00000E+00 0.00000E+00
 -1       396-1.00000E-02 0.00000E+00 0.00000E+00
 -1       397-1.00000E-02 0.00000E+00 0.00000E+00
 -1       398-1.00000E-02 0.00000E+00 0.00000E+00
 -1       399-1.00000E-02 0.00000E+00 0.00000E+00
 -1       400-1.00000E-02 0.00000E+00 0.00000E+00
 -1       401-1.00000E-02 0.00000E+00 0.00000E+00
 -1       402-1.00000E-02 0.00000E+00 0.00000E+00
 -1       403-1.00000E-02 0.00000E+00 0.00000E+00
 -1       404-1.00000E-02 0.00000E+00 0.00000E+00
 -1       405-1.00000E-02 0.00000E+00 0.00000E+00
 -1       406-1.00000E-02 0.00000E+00 0.00000E+00
 -1       407-1.00000E-02 0.00000E+00 0.00000E+00
 -1       408-1.00000E-02 0.00000E+00 0.00000E+00
 -1       409-1.00000E-02 0.00000E+00 0.00000E+00
 -1       410 0.00000E+00 0.00000E+00 0.00000E+00
 -1       411 0.00000E+00 0.00000E+00 0.00000E+00
 -1       412 0.00000E+00 0.00000E+00 0.00000E+00
 -1       413 0.00000E+00 0.00000E+00 0.00000E+00
 -1       414 0.00000E+00 0.00000E+00 0.00000E+00
 -1       415 0.00000E+00 0.00000E+00 0.00000E+00
 -1       416 0.00000E+00 0.00000E+00 0.00000E+00
 -1       417 0.00000E+00 0.00000E+00 0.00000E+00
 -1       418 0.00000E+00 0.00000E+00 0.00000E+00
 -1       419 0.00000E+00 0.00000E+00 0.00000E+00
 -1       420 0.00000E+00 0.00000E+00 0.00000E+00
 -1       421 0.00000E+00 0.00000E+00 0.00000E+00
 -1       422 0.00000E+00 0.00000E+00 0.00000E+00
 -1       423 0.00000E+00 0.00000E+00 0.00000E+00
 -1       424 0.00000E+00 0.00000E+00 0.00000E+00
 -1       425 0.00000E+00 0.00000E+00 0.00000E+00
 -1       426 0.00000E+00 0.00000E+00 0.00000E+00
 -1       427 0.00000E+00 0.00000E+00 0.00000E+00
 -1       428 0.00000E+00 0.00000E+00 0.00000E+00
 -1       429 0.00000E+00 0.00000E+00 0.00000E+00
 -1       430 0.00000E+00 0.00000E+00 0.00000E+00
 -1       431 0.00000E+00 0.00000E+00 0.00000E+00
 -1       432 0.00000E+00 0.00000E+00 0.00000E+00
 -1       433 0.00000E+00 0.00000E+00 0.00000E+00
 -1       434 0.00000E+00 0.00000E+00 0.00000E+00
 -1       435 0.00000E+00 0.00000E+00 0.00000E+00
 -1       436 0.00000E+00 0.00000E+00 0.00000E+00
 -1       437 0.00000E+00 0.00000E+00 0.00000E+00
 -1       438 0.00000E+00 0.00000E+00 0.00000E+00
 -1       439 0.00000E+00 0.00000E+00 0.00000E+00
 -1       440 0.00000E+00 0.00000E+00 0.00000E+00
 -1       441 0.00000E+00 0.00000E+00 0.00000E+00
 -1       442 0.00000E+00 0.00000E+00 0.00000E+00
 -1       443 0.00000E+00 0.00000E+00 0.00000E+00
 -1       444 0.00000E+00 0.00000E+00 0.00000E+00
 -1       445 0.00000E+00 0.00000E+00 0.00000E+00
 -1       446 0.00000E+00 0.00000E+00 0.00000E+00
 -1       447 0.00000E+00 0.00000E+00 0.00000E+00
 -1       448-1.00000E-02 0.00000E+00 0.00000E+00
 -1       449-1.00000E-02 0.00000E+00 0.00000E+00
 -1       450-1.00000E-02 0.00000E+00 0.00000E+00
 -1       451-1.00000E-02 0.00000E+00 0.00000E+00
 -1       452-1.00000E-02 0.00000E+00 0.00000E+00
 -1       453-1.00000E-02 0.00000E+00 0.00000E+00
 -1       454-1.00000E-02 0.00000E+00 0.00000E+00
 -1       455-1.00000E-02 0.00000E+00 0.00000E+00
 -1       456-1.00000E-02 0.00000E+00 0.00000E+00
 -1       457-1.00000E-02 0.00000E+00 0.00000E+00
 -1       458-1.00000E-02 0.00000E+00 0.00000E+00
 -1       459-1.00000E-02 0.00000E+00 0.00000E+00
 -1       460-1.00000E-02 0.00000E+00 0.00000E+00
 -1       461-1.00000E-02 0.00000E+00 0.00000E+00
 -1       462-1.00000E-02 0.00000E+00 0.00000E+00
 -1       463-1.00000E-02 0.00000E+00 0.00000E+00
 -1       464-1.00000E-02 0.00000E+00 0.00000E+00
 -1       465-1.00000E-02 0.00000E+00 0.00000E+00
 -1       466-1.00000E-02 0.00000E+00 0.00000E+00
 -1       467-1.03104E-04-1.35915E-04 6.67645E-03
 -1       468 9.71750E-06-1.20906E-04 6.55056E-03
 -1       469 4.13512E-06 1.24132E-04 6.54764E-03
 -1       470-1.08184E-04 1.38966E-04 6.67237E-03
 -1       471-2.53277E-05-1.27674E-04 6.69383E-03
 -1       472-2.86327E-05-1.23272E-04 6.74226E-03
 -1       473-3.80150E-05-9.76756E-05 6.81050E-03
 -1       474-3.51460E-05-1.12617E-04 6.77895E-03
 -1       475-3.78027E-05-4.17656E-05 6.87157E-03
 -1       476-3.99111E-05-6.18782E-05 6.85567E-03
 -1       477-3.98839E-05-8.07055E-05 6.83564E-03
 -1       478-4.13882E-05-5.74851E-07 6.87948E-03
 -1       479-4.47835E-05-2.12981E-05 6.87418E-03
 -1       480-4.00792E-05 4.20778E-05 6.86752E-03
 -1       481-4.29974E-05 2.09401E-05 6.87372E-03
 -1       482-3.98724E-05 8.32669E-05 6.83247E-03
 -1       483-4.29032E-05 6.32942E-05 6.84936E-03
 -1       484-3.54397E-05 9.98415E-05 6.81006E-03
 -1       485-3.21795E-05 1.25122E-04 6.73886E-03
 -1       486-2.94981E-05 1.13930E-04 6.78077E-03
 -1       487-3.43261E-05 1.30407E-04 6.68760E-03
 -1       488-1.88103E-03-4.04821E-04 7.53657E-03
 -1       489-1.89986E-03 4.09390E-04 7.52776E-03
 -1       490-1.39168E-03 1.10170E-04 7.33302E-03
 -1       491-2.37889E-03-5.02916E-05 8.07144E-03
 -1       492-1.38587E-03-1.85335E-04 7.30152E-03
 -1       493-2.35688E-03 2.52805E-04 8.00436E-03
 -1       494-2.37233E-03-1.37620E-04 8.05021E-03
 -1       495-2.37620E-03 4.88242E-05 8.06622E-03
 -1       496-2.46920E-03 3.81412E-04 8.00548E-03
 -1       497-1.33269E-03-2.56206E-04 7.22082E-03
 -1       498-1.20736E-03 2.44038E-04 7.13009E-03
 -1       499-2.54089E-03-3.99295E-04 8.12376E-03
 -1       500-1.17757E-03-1.01375E-04 7.22557E-03
 -1       501-1.17425E-03 3.52644E-05 7.24418E-03
 -1       502-2.63261E-03-2.68852E-04 8.17881E-03
 -1       503-2.58459E-03 1.52483E-04 8.21777E-03
 -1       504-1.17278E-03-3.38316E-05 7.24402E-03
 -1       505-1.16585E-03 1.71262E-04 7.19064E-03
 -1       506-9.06990E-04 2.46629E-04 6.89813E-03
 -1       507-2.85213E-03-6.06072E-04 8.37809E-03
 -1       508-2.82940E-03 5.85293E-04 8.31591E-03
 -1       509-9.73127E-04-2.52879E-04 6.93734E-03
 -1       510-5.76161E-04-1.93850E-04 6.81930E-03
 -1       511-5.85821E-04-1.98521E-04 6.74290E-03
 -1       512-1.15006E-03-2.89926E-04 6.98650E-03
 -1       513-5.55988E-04 1.96636E-04 6.72709E-03
 -1       514-5.46666E-04 1.91888E-04 6.80310E-03
 -1       515-1.12077E-03 2.88820E-04 6.96132E-03
 -1       516-2.66791E-03-6.23169E-04 8.20061E-03
 -1       517-3.19112E-03-7.24854E-04 8.69365E-03
 -1       518-3.16828E-03-6.04892E-04 8.66007E-03
 -1       519-3.14336E-03 5.94648E-04 8.61242E-03
 -1       520-3.15944E-03 7.08576E-04 8.64162E-03
 -1       521-2.64263E-03 6.12154E-04 8.16002E-03
 -1       522-6.95828E-04 1.97394E-04 6.89409E-03
 -1       523-6.91621E-04 1.74588E-04 6.93571E-03
 -1       524-1.05154E-03 2.50769E-04 7.02120E-03
 -1       525-6.76400E-04 1.47903E-04 6.96915E-03
 -1       526-6.78256E-04 1.24654E-04 6.99433E-03
 -1       527-1.18141E-03 2.06863E-04 7.16477E-03
 -1       528-7.87795E-04 1.03245E-04 7.04560E-03
 -1       529-7.90124E-04 7.19652E-05 7.06307E-03
 -1       530-1.27595E-03 1.42742E-04 7.26492E-03
 -1       531-6.82181E-04 4.33993E-05 7.04178E-03
 -1       532-6.81401E-04 1.38166E-05 7.04681E-03
 -1       533-1.27837E-03 7.22625E-05 7.29274E-03
 -1       534-6.82766E-04-1.36482E-05 7.04683E-03
 -1       535-6.82613E-04-4.18108E-05 7.04275E-03
 -1       536-1.17174E-03 1.77901E-06 7.24898E-03
 -1       537-6.81718E-04-6.88686E-05 7.03208E-03
 -1       538-6.83038E-04-9.56886E-05 7.01457E-03
 -1       539-1.17503E-03-6.76943E-05 7.23914E-03
 -1       540-7.84895E-04-1.28036E-04 7.02720E-03
 -1       541-7.80265E-04-1.54992E-04 7.00252E-03
 -1       542-1.28151E-03-1.41310E-04 7.26441E-03
 -1       543-7.54314E-04-1.78423E-04 6.96449E-03
 -1       544-7.56501E-04-2.03189E-04 6.92539E-03
 -1       545-1.35541E-03-2.21327E-04 7.26421E-03
 -1       546-1.15116E-03-2.59497E-04 7.08171E-03
 -1       547-1.60439E-03-3.75447E-04 7.28919E-03
 -1       548-2.17808E-03-5.03181E-04 7.75464E-03
 -1       549-1.42710E-03-3.28391E-04 7.19677E-03
 -1       550-2.39017E-03-5.00523E-04 7.94597E-03
 -1       551-3.03013E-03-4.90860E-04 8.51863E-03
 -1       552-3.02703E-03-4.03406E-04 8.52024E-03
 -1       553-2.69163E-03-4.92368E-04 8.23514E-03
 -1       554-3.07126E-03-3.35722E-04 8.54914E-03
 -1       555-3.07208E-03-2.58256E-04 8.56107E-03
 -1       556-2.57326E-03-3.34773E-04 8.14645E-03
 -1       557-2.95191E-03-1.94169E-04 8.49624E-03
 -1       558-2.95451E-03-1.33803E-04 8.51141E-03
 -1       559-2.49140E-03-1.97646E-04 8.11281E-03
 -1       560-2.95528E-03-8.05745E-05 8.52029E-03
 -1       561-2.96340E-03-2.79487E-05 8.53342E-03
 -1       562-2.37291E-03-9.30801E-05 8.06639E-03
 -1       563-2.96184E-03 2.95079E-05 8.53322E-03
 -1       564-2.96111E-03 8.09042E-05 8.52312E-03
 -1       565-2.37593E-03 6.15716E-07 8.07116E-03
 -1       566-3.05513E-03 1.39751E-04 8.58857E-03
 -1       567-3.05579E-03 1.97426E-04 8.58254E-03
 -1       568-2.47419E-03 9.90026E-05 8.14678E-03
 -1       569-2.95346E-03 2.55163E-04 8.47656E-03
 -1       570-2.94823E-03 3.23440E-04 8.45816E-03
 -1       571-2.47326E-03 2.01722E-04 8.11136E-03
 -1       572-2.99764E-03 3.90983E-04 8.46495E-03
 -1       573-2.98243E-03 4.82829E-04 8.44797E-03
 -1       574-2.39851E-03 3.14143E-04 8.00404E-03
 -1       575-2.64487E-03 4.76327E-04 8.15119E-03
 -1       576-2.18744E-03 5.09761E-04 7.74225E-03
 -1       577-1.61363E-03 3.80798E-04 7.28365E-03
 -1       578-2.37272E-03 5.01052E-04 7.89495E-03
 -1       579-1.40027E-03 3.28096E-04 7.16704E-03
 -1       580-1.60497E-03-3.24412E-04 7.36675E-03
 -1       581-1.95804E-03-3.27918E-04 7.62402E-03
 -1       582-2.21251E-03-4.10874E-04 7.83097E-03
 -1       583-2.16670E-03 4.00619E-04 7.75304E-03
 -1       584-1.85045E-03 3.12772E-04 7.51146E-03
 -1       585-1.55077E-03 3.19977E-04 7.31194E-03
 -1       586-1.88479E-03 1.74700E-04 7.64086E-03
 -1       587-2.00721E-03 1.32073E-04 7.72930E-03
 -1       588-1.77550E-03 2.11998E-04 7.54908E-03
 -1       589-1.88636E-03 8.49345E-05 7.67495E-03
 -1       590-1.79182E-03 4.50905E-05 7.60169E-03
 -1       591-1.78036E-03-8.05454E-05 7.59831E-03
 -1       592-1.79186E-03-4.14819E-05 7.60083E-03
 -1       593-1.77922E-03 3.21413E-07 7.60675E-03
 -1       594-1.89250E-03-1.69969E-04 7.64634E-03
 -1       595-1.78371E-03-1.21785E-04 7.58452E-03
 -1       596-2.01535E-03-2.26894E-04 7.69538E-03
 -1       597-1.97998E-03-2.78350E-04 7.65837E-03
 -1       598-1.80712E-03 2.60004E-04 7.54014E-03
 -1       599-3.30094E-04 1.66332E-04 1.53525E-04
 -1       600-9.67020E-03 1.66173E-04 1.53600E-04
 -1       601-5.56015E-04 2.01090E-04 1.01060E-03
 -1       602-9.44454E-03 2.00819E-04 1.01171E-03
 -1       603-7.84920E-04 2.13243E-04 2.45875E-03
 -1       604-9.21638E-03 2.13022E-04 2.46092E-03
 -1       605-9.74056E-04 2.26332E-04 4.41306E-03
 -1       606-9.05124E-03 2.22397E-04 4.50228E-03
 -1       607-3.34481E-03 5.31887E-04 5.97462E-03
 -1       608-6.66599E-03 5.27950E-04 6.00540E-03
 -1       609-5.44035E-04 3.14728E-04 6.06996E-05
 -1       610-9.45603E-03 3.14593E-04 6.04554E-05
 -1       611-1.21960E-03 4.53052E-04 6.24403E-04
 -1       612-8.78039E-03 4.52741E-04 6.24917E-04
 -1       613-1.89627E-03 4.98821E-04 1.78877E-03
 -1       614-8.10382E-03 4.98626E-04 1.79042E-03
 -1       615-2.60578E-03 5.15263E-04 3.54899E-03
 -1       616-7.43105E-03 5.08605E-04 3.54105E-03
 -1       617-1.59690E-04 1.20272E-04-7.06233E-05
 -1       618-9.84310E-03 1.20508E-04-6.94012E-05
 -1       619-5.74956E-04 1.86647E-04 6.05357E-03
 -1       620-9.06528E-03 2.28817E-04 5.59630E-03
 -1       621-1.59242E-03 3.21931E-04 5.90609E-03
 -1       622-3.79475E-03 6.47143E-04 8.41609E-03
 -1       623-6.19052E-03 6.43786E-04 8.38142E-03
 -1       624-7.29084E-03 4.87560E-04 6.82678E-03
 -1       625-3.17753E-03 5.39035E-04 7.17644E-03
 -1       626-7.97484E-03 3.76994E-04 5.34654E-03
 -1       627-7.05608E-03 5.14359E-04 4.68189E-03
 -1       628-4.37019E-03 7.13211E-04 9.50336E-03
 -1       629-5.62361E-03 7.11439E-04 9.51649E-03
 -1       630-2.97070E-03 5.20916E-04 4.65104E-03
 -1       631-9.10953E-03 4.04207E-04 2.69566E-04
 -1       632-8.90320E-04 4.03960E-04 2.69168E-04
 -1       633-7.75464E-03 5.08731E-04 2.59028E-03
 -1       634-8.44358E-03 4.82441E-04 1.13176E-03
 -1       635-1.55644E-03 4.82879E-04 1.13078E-03
 -1       636-2.25098E-03 5.10391E-04 2.58966E-03
 -1       637-9.33236E-03 2.07470E-04 1.66311E-03
 -1       638-9.12520E-03 2.15725E-04 3.39294E-03
 -1       639-8.84498E-04 2.17344E-04 3.39437E-03
 -1       640-6.68896E-04 2.07580E-04 1.66147E-03
 -1       641-9.55443E-03 1.89114E-04 5.06750E-04
 -1       642-4.46388E-04 1.89180E-04 5.06250E-04
 -1       643-4.78651E-03 7.30827E-04 9.93541E-03
 -1       644-5.20632E-03 7.30424E-04 9.93958E-03
 -1       645-2.33778E-04 1.76924E-04-3.44702E-05
 -1       646-9.76299E-03 1.78668E-04-3.54756E-05
 -1       647-1.85958E-03 3.71764E-04 3.95672E-03
 -1       648-5.08352E-04 2.63137E-04 8.71002E-05
 -1       649-9.49199E-03 2.63101E-04 8.73502E-05
 -1       650-9.28121E-03 3.04417E-04 3.54486E-04
 -1       651-7.19191E-04 3.04583E-04 3.54061E-04
 -1       652-9.42103E-04 3.31628E-04 7.84256E-04
 -1       653-9.05846E-03 3.31580E-04 7.84897E-04
 -1       654-1.16698E-03 3.47493E-04 1.36406E-03
 -1       655-8.83371E-03 3.47360E-04 1.36516E-03
 -1       656-2.14298E-04 1.32908E-04-5.33872E-05
 -1       657-9.78618E-03 1.32753E-04-5.32880E-05
 -1       658-1.39571E-03 3.57174E-04 2.08997E-03
 -1       659-8.60782E-03 3.56189E-04 2.08989E-03
 -1       660-1.62356E-03 3.63221E-04 2.95755E-03
 -1       661-8.38251E-03 3.61846E-04 2.95607E-03
 -1       662-6.14413E-03 5.67225E-04 7.26647E-03
 -1       663-2.05836E-03 3.81741E-04 5.12177E-03
 -1       664-8.17033E-03 3.64852E-04 4.01634E-03
 -1       665-4.07573E-03 5.81128E-04 7.40422E-03
 -1       666-2.50393E-03 4.46257E-04 6.18268E-03
 -1       667-8.58608E-04 2.14918E-04 5.30122E-03
 -1       668-8.36654E-03 3.34339E-04 6.17973E-03
 -1       669-2.88248E-04 2.09395E-04 2.36498E-05
 -1       670-9.71203E-03 2.09945E-04 2.36195E-05
 -1       671-9.91435E-03 6.48335E-05-8.28117E-05
 -1       672-8.59105E-05 6.47422E-05-8.28989E-05
 -1       673-3.31705E-04 2.11184E-04-2.91728E-05
 -1       674-9.66949E-03 2.10711E-04-2.93553E-05
 -1       675-5.49091E-03 6.03188E-04 8.96457E-03
 -1       676-4.51171E-03 6.04170E-04 8.95372E-03
 -1       677-9.18700E-03 2.23058E-04 6.30912E-03
 -1       678-4.99952E-03 5.93984E-04 1.00447E-02
 -1       679-8.55617E-05 1.29875E-04 6.50456E-03
 -1       680-2.84022E-04 1.50771E-04 6.21771E-03
 -1       681-3.87031E-04 1.66742E-04 6.32502E-03
 -1       682-2.85529E-04 1.38586E-04 5.55307E-03
 -1       683-9.66437E-04 2.51461E-04 6.48738E-03
 -1       684-3.26263E-03 6.57698E-04 8.19064E-03
 -1       685-3.62290E-03 7.35388E-04 8.75806E-03
 -1       686-3.98769E-03 7.86283E-04 9.27551E-03
 -1       687-4.26816E-03 8.12760E-04 9.58906E-03
 -1       688-4.08625E-03 6.96680E-04 9.04168E-03
 -1       689-3.70064E-05 2.84197E-05-5.15549E-05
 -1       690-8.46195E-05 5.07518E-05-9.69225E-05
 -1       691-4.77555E-05 4.22694E-05-5.12206E-05
 -1       692-1.63614E-04 1.35467E-04 2.62880E-05
 -1       693-1.43722E-04 1.26577E-04-2.86590E-06
 -1       694-4.01426E-04 2.65208E-04 7.31618E-05
 -1       695-9.83644E-03 1.35627E-04 2.64944E-05
 -1       696-9.59882E-03 2.65317E-04 7.32473E-05
 -1       697-9.85626E-03 1.26790E-04-2.55719E-06
 -1       698-9.96313E-03 2.84059E-05-5.15461E-05
 -1       699-9.95237E-03 4.24315E-05-5.13240E-05
 -1       700-9.91550E-03 5.06794E-05-9.69929E-05
 -1       701-9.92006E-03 1.27478E-04 6.50508E-03
 -1       702-9.49965E-03 1.82693E-04 6.45208E-03
 -1       703-9.61208E-03 1.66084E-04 6.34597E-03
 -1       704-9.52963E-03 1.69786E-04 5.97255E-03
 -1       705-9.54180E-03 1.58448E-04 5.32905E-03
 -1       706-9.12249E-03 2.25018E-04 5.94873E-03
 -1       707-8.91191E-03 2.71971E-04 6.63814E-03
 -1       708-6.36877E-03 7.32436E-04 8.75637E-03
 -1       709-6.72868E-03 6.55678E-04 8.17750E-03
 -1       710-5.72205E-03 8.11797E-04 9.60178E-03
 -1       711-6.00066E-03 7.85554E-04 9.29291E-03
 -1       712-5.90622E-03 6.92407E-04 9.03759E-03
 -1       713-2.34896E-03 4.73833E-04 7.03698E-03
 -1       714-2.90662E-03 5.73555E-04 7.56678E-03
 -1       715-3.48426E-03 6.04838E-04 7.80726E-03
 -1       716-1.08804E-03 2.56268E-04 5.96796E-03
 -1       717-1.50027E-03 3.26892E-04 6.43384E-03
 -1       718-2.04884E-03 3.85753E-04 6.03807E-03
 -1       719-2.00471E-03 3.99844E-04 6.55957E-03
 -1       720-2.83273E-03 4.92423E-04 6.66420E-03
 -1       721-4.84918E-04 1.49825E-04 4.15548E-03
 -1       722-5.11957E-04 1.58488E-04 4.72848E-03
 -1       723-9.21503E-04 2.19796E-04 4.84740E-03
 -1       724-4.30282E-04 1.52618E-04 5.18158E-03
 -1       725-7.27196E-04 2.01406E-04 5.67041E-03
 -1       726-4.40685E-04 1.40140E-04 3.13840E-03
 -1       727-4.69819E-04 1.45363E-04 3.64433E-03
 -1       728-9.29576E-04 2.21000E-04 3.88870E-03
 -1       729-3.92526E-04 1.35457E-04 2.23539E-03
 -1       730-4.21220E-04 1.38265E-04 2.67019E-03
 -1       731-8.34833E-04 2.14931E-04 2.90901E-03
 -1       732-3.37658E-04 1.31808E-04 1.47458E-03
 -1       733-3.64751E-04 1.33543E-04 1.83671E-03
 -1       734-7.26475E-04 2.10427E-04 2.04197E-03
 -1       735-2.86428E-04 1.27898E-04 8.60583E-04
 -1       736-3.11574E-04 1.30011E-04 1.14920E-03
 -1       737-6.12154E-04 2.04635E-04 1.31779E-03
 -1       738-2.36660E-04 1.19899E-04 3.92921E-04
 -1       739-2.61632E-04 1.24493E-04 6.08464E-04
 -1       740-5.01058E-04 1.95987E-04 7.40100E-04
 -1       741-1.83042E-04 1.02820E-04 7.56263E-05
 -1       742-2.08608E-04 1.11891E-04 2.16574E-04
 -1       743-3.87995E-04 1.78984E-04 3.11740E-04
 -1       744-1.24165E-04 7.63932E-05-8.51153E-05
 -1       745-1.57233E-04 9.18820E-05-2.94914E-05
 -1       746-2.74699E-04 1.52299E-04 2.74879E-05
 -1       747-1.44868E-04 9.87227E-05-8.58710E-05
 -1       748-9.46633E-05 8.43086E-05-4.69666E-05
 -1       749-7.30536E-05 6.47085E-05-5.41108E-05
 -1       750-1.19977E-04 9.24056E-05-7.84450E-05
 -1       751-1.27949E-04 1.14066E-04-1.92568E-05
 -1       752-1.09292E-04 9.68138E-05-3.49679E-05
 -1       753-1.97620E-04 1.50406E-04-5.51430E-05
 -1       754-2.62800E-04 1.96408E-04-7.76050E-06
 -1       755-7.34545E-04 3.91915E-04 1.49286E-04
 -1       756-5.45191E-04 3.27289E-04 8.51769E-05
 -1       757-4.25703E-04 2.74296E-04 3.54800E-05
 -1       758-1.12549E-03 4.81932E-04 3.91583E-04
 -1       759-9.34147E-04 4.44596E-04 2.53236E-04
 -1       760-7.17413E-04 3.65024E-04 1.45910E-04
 -1       761-1.51550E-03 5.32611E-04 7.84911E-04
 -1       762-1.31950E-03 5.10690E-04 5.69208E-04
 -1       763-1.05472E-03 4.31709E-04 4.27392E-04
 -1       764-1.91409E-03 5.62366E-04 1.33021E-03
 -1       765-1.71422E-03 5.49615E-04 1.03834E-03
 -1       766-1.38724E-03 4.69580E-04 8.58658E-04
 -1       767-2.31750E-03 5.78531E-04 2.02625E-03
 -1       768-2.11476E-03 5.71330E-04 1.65956E-03
 -1       769-1.72597E-03 4.91921E-04 1.44112E-03
 -1       770-2.73102E-03 5.87337E-04 2.86819E-03
 -1       771-2.52534E-03 5.84243E-04 2.42749E-03
 -1       772-2.07262E-03 5.05320E-04 2.17100E-03
 -1       773-3.14693E-03 5.89490E-04 3.86676E-03
 -1       774-2.93907E-03 5.89311E-04 3.34898E-03
 -1       775-2.42775E-03 5.13117E-04 3.05023E-03
 -1       776-3.56771E-03 5.87819E-04 5.01976E-03
 -1       777-3.35832E-03 5.89941E-04 4.41985E-03
 -1       778-2.78716E-03 5.17988E-04 4.08025E-03
 -1       779-3.97175E-03 5.79180E-04 6.37555E-03
 -1       780-3.77251E-03 5.83571E-04 5.68554E-03
 -1       781-3.15427E-03 5.23827E-04 5.28974E-03
 -1       782-4.51118E-03 5.76555E-04 7.81949E-03
 -1       783-4.34118E-03 5.87527E-04 7.08956E-03
 -1       784-3.71071E-03 5.56830E-04 6.67696E-03
 -1       785-4.78256E-03 5.54254E-04 9.17660E-03
 -1       786-4.69434E-03 5.65070E-04 8.59272E-03
 -1       787-3.92075E-03 6.03442E-04 7.91856E-03
 -1       788-4.33087E-03 5.93608E-04 8.31862E-03
 -1       789-4.17642E-03 6.35187E-04 8.70219E-03
 -1       790-4.78304E-03 6.00081E-04 9.80266E-03
 -1       791-4.65853E-03 5.98707E-04 9.45687E-03
 -1       792-4.40763E-03 6.52339E-04 9.26418E-03
 -1       793-5.02713E-03 5.31068E-04 1.00398E-02
 -1       794-4.97553E-03 5.31094E-04 1.00352E-02
 -1       795-4.88782E-03 5.97928E-04 9.97644E-03
 -1       796-4.57813E-03 7.25314E-04 9.77105E-03
 -1       797-4.92038E-03 6.62816E-04 1.00082E-02
 -1       798-5.33784E-03 5.96695E-04 9.47192E-03
 -1       799-5.21532E-03 6.00096E-04 9.81424E-03
 -1       800-5.41603E-03 7.25263E-04 9.78124E-03
 -1       801-5.11167E-03 5.98336E-04 9.98340E-03
 -1       802-5.07480E-03 6.62597E-04 1.00103E-02
 -1       803-5.30909E-03 5.61346E-04 8.60988E-03
 -1       804-5.21844E-03 5.51309E-04 9.19230E-03
 -1       805-5.58700E-03 6.50858E-04 9.27366E-03
 -1       806-5.77120E-03 5.82202E-04 7.02594E-03
 -1       807-5.59767E-03 5.73242E-04 7.76290E-03
 -1       808-6.18133E-03 5.92223E-04 7.83309E-03
 -1       809-5.66500E-03 5.87349E-04 8.31486E-03
 -1       810-5.82021E-03 6.30409E-04 8.68923E-03
 -1       811-6.23294E-03 5.82345E-04 5.70217E-03
 -1       812-6.03282E-03 5.77582E-04 6.39406E-03
 -1       813-6.40411E-03 5.49109E-04 6.62645E-03
 -1       814-6.65465E-03 5.85245E-04 4.43658E-03
 -1       815-6.44808E-03 5.82833E-04 5.03811E-03
 -1       816-6.86423E-03 5.20334E-04 5.32074E-03
 -1       817-7.07863E-03 5.85296E-04 3.34627E-03
 -1       818-6.87166E-03 5.85657E-04 3.86413E-03
 -1       819-7.24554E-03 5.11090E-04 4.09018E-03
 -1       820-7.47722E-03 5.83300E-04 2.42867E-03
 -1       821-7.27161E-03 5.86380E-04 2.86976E-03
 -1       822-7.59241E-03 5.08888E-04 3.04664E-03
 -1       823-7.88519E-03 5.71027E-04 1.66100E-03
 -1       824-7.68248E-03 5.77919E-04 2.02792E-03
 -1       825-7.93007E-03 5.04405E-04 2.17201E-03
 -1       826-8.28577E-03 5.49289E-04 1.03919E-03
 -1       827-8.08571E-03 5.62068E-04 1.33137E-03
 -1       828-8.27412E-03 4.91700E-04 1.44241E-03
 -1       829-8.68072E-03 5.10433E-04 5.69362E-04
 -1       830-8.48441E-03 5.32369E-04 7.85514E-04
 -1       831-8.61281E-03 4.69394E-04 8.59414E-04
 -1       832-9.06578E-03 4.44448E-04 2.53837E-04
 -1       833-8.87452E-03 4.82353E-04 3.91944E-04
 -1       834-8.94546E-03 4.31280E-04 4.27772E-04
 -1       835-9.45492E-03 3.27122E-04 8.49625E-05
 -1       836-9.26540E-03 3.91630E-04 1.49503E-04
 -1       837-9.28257E-03 3.65205E-04 1.46281E-04
 -1       838-9.57427E-03 2.74301E-04 3.50259E-05
 -1       839-9.88941E-03 9.73949E-05-3.53030E-05
 -1       840-9.87083E-03 1.14388E-04-1.93912E-05
 -1       841-9.73644E-03 1.97355E-04-8.23759E-06
 -1       842-9.92762E-03 6.49345E-05-5.41248E-05
 -1       843-9.90571E-03 8.52837E-05-4.77486E-05
 -1       844-9.80243E-03 1.50364E-04-5.60285E-05
 -1       845-9.88110E-03 9.26299E-05-7.79706E-05
 -1       846-9.84264E-03 9.17341E-05-2.93166E-05
 -1       847-9.87605E-03 7.63208E-05-8.51455E-05
 -1       848-9.85540E-03 9.86231E-05-8.58265E-05
 -1       849-9.79189E-03 1.11922E-04 2.16907E-04
 -1       850-9.81699E-03 1.03143E-04 7.58887E-05
 -1       851-9.72583E-03 1.52049E-04 2.78910E-05
 -1       852-9.73923E-03 1.24438E-04 6.09046E-04
 -1       853-9.76408E-03 1.19864E-04 3.93452E-04
 -1       854-9.61258E-03 1.78886E-04 3.12132E-04
 -1       855-9.68944E-03 1.30091E-04 1.15047E-03
 -1       856-9.71452E-03 1.27818E-04 8.61412E-04
 -1       857-9.49969E-03 1.95942E-04 7.40868E-04
 -1       858-9.63658E-03 1.33342E-04 1.83847E-03
 -1       859-9.66357E-03 1.31655E-04 1.47616E-03
 -1       860-9.38875E-03 2.04523E-04 1.31913E-03
 -1       861-9.58054E-03 1.38246E-04 2.67269E-03
 -1       862-9.60894E-03 1.35426E-04 2.23739E-03
 -1       863-9.27480E-03 2.10314E-04 2.04390E-03
 -1       864-9.53627E-03 1.44372E-04 3.64533E-03
 -1       865-9.56490E-03 1.39435E-04 3.13930E-03
 -1       866-9.17022E-03 2.13911E-04 2.90970E-03
 -1       867-9.50578E-03 1.56377E-04 4.77681E-03
 -1       868-9.53110E-03 1.47454E-04 4.20060E-03
 -1       869-9.08730E-03 2.18004E-04 3.92960E-03
 -1       870-9.05401E-03 2.24417E-04 5.03519E-03
 -1       871-7.34632E-03 5.36176E-04 7.40716E-03
 -1       872-7.91905E-03 4.28849E-04 6.88024E-03
 -1       873-7.83828E-03 4.14772E-04 6.48779E-03
 -1       874-8.48428E-03 3.31788E-04 6.58189E-03
 -1       875-8.77321E-03 2.80881E-04 6.24206E-03
 -1       876-6.72858E-03 5.83192E-04 7.62305E-03
 -1       877-5.14064E-03 8.35774E-04 9.91296E-03
 -1       878-5.43180E-03 8.27637E-04 9.81040E-03
 -1       879-4.55815E-03 8.28539E-04 9.80346E-03
 -1       880-4.84836E-03 8.35578E-04 9.91096E-03
 -1       881-4.99614E-03 7.33189E-04 9.98998E-03
 -1       882-5.09608E-04 2.33479E-04 2.45667E-04
 -1       883-5.95668E-04 2.48370E-04 4.21819E-04
 -1       884-6.13969E-04 2.85976E-04 2.03549E-04
 -1       885-4.30094E-04 2.16577E-04 1.11961E-04
 -1       886-3.43279E-04 1.95437E-04 5.61690E-06
 -1       887-9.40471E-03 2.48341E-04 4.22217E-04
 -1       888-9.49063E-03 2.33434E-04 2.45928E-04
 -1       889-9.38645E-03 2.85837E-04 2.03745E-04
 -1       890-9.57019E-03 2.16555E-04 1.12239E-04
 -1       891-9.65708E-03 1.95290E-04 5.97528E-06
 -1       892-8.46732E-04 2.73373E-04 1.17892E-03
 -1       893-9.31460E-04 2.77970E-04 1.50467E-03
 -1       894-6.79374E-04 2.59235E-04 6.37059E-04
 -1       895-7.62704E-04 2.67195E-04 8.89145E-04
 -1       896-1.05414E-03 3.40598E-04 1.05554E-03
 -1       897-9.06941E-03 2.77808E-04 1.50605E-03
 -1       898-9.15393E-03 2.73223E-04 1.18003E-03
 -1       899-9.23792E-03 2.67044E-04 8.90118E-04
 -1       900-9.32119E-03 2.59112E-04 6.37574E-04
 -1       901-8.94647E-03 3.40412E-04 1.05647E-03
 -1       902-1.18952E-03 2.88125E-04 2.69945E-03
 -1       903-1.26845E-03 2.90092E-04 3.16777E-03
 -1       904-1.01744E-03 2.81955E-04 1.86726E-03
 -1       905-1.10418E-03 2.85205E-04 2.26631E-03
 -1       906-1.50919E-03 3.60206E-04 2.50579E-03
 -1       907-8.89827E-03 2.84716E-04 2.26731E-03
 -1       908-8.98482E-03 2.81407E-04 1.86811E-03
 -1       909-8.73916E-03 2.88558E-04 3.16628E-03
 -1       910-8.81398E-03 2.87262E-04 2.70006E-03
 -1       911-8.49553E-03 3.59176E-04 2.50500E-03
 -1       912-1.35714E-03 2.94683E-04 3.66603E-03
 -1       913-1.43239E-03 2.99144E-04 4.17687E-03
 -1       914-1.95756E-03 3.74568E-04 4.52193E-03
 -1       915-1.49829E-03 3.04348E-04 4.75397E-03
 -1       916-1.47043E-03 2.99785E-04 5.19992E-03
 -1       917-8.50596E-03 3.04954E-04 5.45961E-03
 -1       918-8.53564E-03 2.99268E-04 4.90802E-03
 -1       919-8.07367E-03 3.67612E-04 4.65900E-03
 -1       920-8.59462E-03 2.93443E-04 4.25070E-03
 -1       921-8.66410E-03 2.90526E-04 3.69419E-03
 -1       922-3.63959E-03 5.65381E-04 7.29222E-03
 -1       923-3.25809E-03 5.23668E-04 6.56436E-03
 -1       924-2.93480E-03 4.88383E-04 6.07941E-03
 -1       925-2.69266E-03 4.61986E-04 5.53348E-03
 -1       926-2.53009E-03 4.50626E-04 4.88221E-03
 -1       927-2.27177E-03 4.10861E-04 5.63914E-03
 -1       928-7.32134E-03 4.59200E-04 5.66416E-03
 -1       929-7.65795E-03 4.23138E-04 6.05939E-03
 -1       930-6.96888E-03 5.01943E-04 6.41586E-03
 -1       931-6.69006E-03 5.41744E-04 7.05542E-03
 -1       932-7.49375E-03 4.43238E-04 5.00716E-03
 -1       933-6.87221E-04 3.31360E-04 1.71303E-04
 -1       934-5.41510E-04 2.95325E-04 6.44811E-05
 -1       935-3.79689E-04 2.47632E-04 1.79091E-06
 -1       936-4.32619E-04 2.60712E-04 1.08481E-05
 -1       937-2.91297E-04 2.00824E-04-3.72303E-05
 -1       938-4.20564E-04 2.39929E-04 1.77340E-05
 -1       939-9.45850E-03 2.95452E-04 6.46283E-05
 -1       940-9.31295E-03 3.31673E-04 1.71659E-04
 -1       941-9.61950E-03 2.47435E-04 9.55595E-07
 -1       942-9.70762E-03 1.99983E-04-3.73896E-05
 -1       943-9.56754E-03 2.60485E-04 1.05001E-05
 -1       944-9.58012E-03 2.39800E-04 1.79650E-05
 -1       945-9.55691E-04 3.77726E-04 4.81184E-04
 -1       946-8.18449E-04 3.56779E-04 3.03171E-04
 -1       947-1.23515E-03 4.06441E-04 9.49053E-04
 -1       948-1.09495E-03 3.93804E-04 6.96158E-04
 -1       949-8.30430E-04 3.19567E-04 5.50387E-04
 -1       950-9.18163E-03 3.56765E-04 3.03446E-04
 -1       951-9.04441E-03 3.77558E-04 4.81617E-04
 -1       952-8.90530E-03 3.93563E-04 6.96750E-04
 -1       953-8.76514E-03 4.06271E-04 9.49878E-04
 -1       954-9.17001E-03 3.19640E-04 5.50938E-04
 -1       955-1.51694E-03 4.22787E-04 1.56785E-03
 -1       956-1.37604E-03 4.16091E-04 1.23937E-03
 -1       957-1.80829E-03 4.33748E-04 2.33106E-03
 -1       958-1.65993E-03 4.28360E-04 1.93148E-03
 -1       959-1.28076E-03 3.52806E-04 1.70867E-03
 -1       960-8.34191E-03 4.27711E-04 1.93227E-03
 -1       961-8.19624E-03 4.32478E-04 2.33126E-03
 -1       962-8.62429E-03 4.15793E-04 1.24041E-03
 -1       963-8.48338E-03 4.22685E-04 1.56929E-03
 -1       964-8.72124E-03 3.52205E-04 1.70929E-03
 -1       965-2.40080E-03 4.47742E-04 4.29290E-03
 -1       966-2.24563E-03 4.43055E-04 3.74620E-03
 -1       967-2.09921E-03 4.39816E-04 3.24360E-03
 -1       968-1.95129E-03 4.36744E-04 2.76579E-03
 -1       969-1.74045E-03 3.66977E-04 3.43969E-03
 -1       970-7.78576E-03 4.36056E-04 3.77111E-03
 -1       971-7.62674E-03 4.41368E-04 4.33838E-03
 -1       972-8.05455E-03 4.35296E-04 2.76535E-03
 -1       973-7.92141E-03 4.35757E-04 3.23919E-03
 -1       974-8.27660E-03 3.62529E-04 3.46672E-03
 -1       975-2.38822E-04 1.65565E-04-5.97365E-05
 -1       976-1.96828E-04 1.33578E-04-7.40540E-05
 -1       977-2.75718E-04 1.72758E-04-4.48480E-05
 -1       978-9.76326E-03 1.66034E-04-5.88942E-05
 -1       979-9.80416E-03 1.33110E-04-7.38746E-05
 -1       980-9.72464E-03 1.72316E-04-4.48297E-05
 -1       981-1.21225E-03 2.67477E-04 5.59520E-03
 -1       982-8.72725E-03 2.79636E-04 5.87931E-03
 -1       983-8.15635E-03 3.54825E-04 5.75427E-03
 -1       984-1.84013E-03 3.52815E-04 5.50753E-03
 -1       985-1.00105E-02 1.21513E-04 6.55078E-03
 -1       986-9.90891E-03 1.35829E-04 6.67196E-03
 -1       987-1.00035E-02-1.21181E-04 6.56362E-03
 -1       988-9.89171E-03-1.35841E-04 6.67881E-03
 -1       989-9.99961E-03 1.26596E-04 6.66338E-03
 -1       990-9.96567E-03 1.13843E-04 6.77920E-03
 -1       991-9.97096E-03 1.24230E-04 6.74201E-03
 -1       992-9.96495E-03 9.83361E-05 6.81294E-03
 -1       993-9.93130E-03 6.37980E-05 6.88070E-03
 -1       994-9.94393E-03 8.29050E-05 6.86654E-03
 -1       995-9.90913E-03 1.63380E-06 6.91884E-03
 -1       996-9.92802E-03 2.17529E-05 6.89967E-03
 -1       997-9.91323E-03 4.24401E-05 6.90745E-03
 -1       998-9.92330E-03-4.31588E-05 6.89682E-03
 -1       999-9.92790E-03-2.10117E-05 6.89865E-03
 -1      1000-9.93903E-03-6.36449E-05 6.87453E-03
 -1      1001-9.97454E-03-1.13275E-04 6.79207E-03
 -1      1002-9.96518E-03-9.92551E-05 6.81925E-03
 -1      1003-9.96064E-03-8.21003E-05 6.84251E-03
 -1      1004-9.94194E-03-1.30954E-04 6.71925E-03
 -1      1005-9.97179E-03-1.23185E-04 6.74578E-03
 -1      1006-8.11733E-03 4.07183E-04 7.53825E-03
 -1      1007-8.11680E-03-4.04019E-04 7.53950E-03
 -1      1008-7.62447E-03-1.54356E-04 8.04490E-03
 -1      1009-7.62044E-03 1.48215E-04 8.04873E-03
 -1      1010-8.61723E-03-1.85921E-04 7.30070E-03
 -1      1011-8.61289E-03-3.76775E-05 7.35687E-03
 -1      1012-8.62513E-03 1.89601E-04 7.30244E-03
 -1      1013-7.62350E-03 4.39883E-05 8.06756E-03
 -1      1014-8.66577E-03 2.51850E-04 7.22172E-03
 -1      1015-8.66660E-03-2.54231E-04 7.21982E-03
 -1      1016-7.45043E-03 3.92174E-04 8.13260E-03
 -1      1017-7.44258E-03-4.01543E-04 8.11188E-03
 -1      1018-8.82697E-03-9.97052E-05 7.22449E-03
 -1      1019-8.82241E-03 1.00670E-04 7.22333E-03
 -1      1020-7.41601E-03-2.61035E-04 8.16129E-03
 -1      1021-7.40969E-03-4.51630E-05 8.21879E-03
 -1      1022-7.41775E-03 2.72578E-04 8.18012E-03
 -1      1023-8.82855E-03 3.38795E-05 7.25106E-03
 -1      1024-7.15045E-03 6.11499E-04 8.37887E-03
 -1      1025-9.03040E-03-2.53879E-04 6.93758E-03
 -1      1026-9.03080E-03 2.55119E-04 6.94069E-03
 -1      1027-7.15051E-03-6.12175E-04 8.37842E-03
 -1      1028-9.41768E-03 1.99211E-04 6.74294E-03
 -1      1029-8.85104E-03 2.91671E-04 6.99200E-03
 -1      1030-9.42799E-03 1.94969E-04 6.82190E-03
 -1      1031-7.32608E-03 6.25736E-04 8.20266E-03
 -1      1032-6.80817E-03 7.25898E-04 8.69253E-03
 -1      1033-6.83528E-03 6.06300E-04 8.66268E-03
 -1      1034-9.41523E-03-1.98234E-04 6.74210E-03
 -1      1035-9.42549E-03-1.93462E-04 6.81885E-03
 -1      1036-8.85267E-03-2.90879E-04 6.98928E-03
 -1      1037-6.83357E-03-6.06100E-04 8.65879E-03
 -1      1038-6.80953E-03-7.26673E-04 8.69100E-03
 -1      1039-7.32663E-03-6.25128E-04 8.20143E-03
 -1      1040-8.39399E-03 3.78305E-04 7.29728E-03
 -1      1041-7.82054E-03 5.05207E-04 7.75366E-03
 -1      1042-8.56860E-03 3.29132E-04 7.19998E-03
 -1      1043-7.61475E-03 5.04395E-04 7.94130E-03
 -1      1044-9.24215E-03-2.02058E-04 6.92606E-03
 -1      1045-9.24463E-03-1.79963E-04 6.96850E-03
 -1      1046-8.85250E-03-2.61219E-04 7.08276E-03
 -1      1047-9.21927E-03-1.58037E-04 7.00552E-03
 -1      1048-9.21679E-03-1.28901E-04 7.03037E-03
 -1      1049-8.64196E-03-2.20269E-04 7.26381E-03
 -1      1050-9.32020E-03-9.58934E-05 7.01678E-03
 -1      1051-9.31758E-03-6.84613E-05 7.03105E-03
 -1      1052-8.72108E-03-1.41914E-04 7.26555E-03
 -1      1053-9.21238E-03-4.50524E-05 7.07518E-03
 -1      1054-9.21163E-03-1.34499E-05 7.08087E-03
 -1      1055-8.72314E-03-6.98221E-05 7.29837E-03
 -1      1056-9.31788E-03 1.46596E-05 7.05000E-03
 -1      1057-9.31734E-03 4.16512E-05 7.04474E-03
 -1      1058-8.72099E-03-1.87627E-07 7.30742E-03
 -1      1059-9.31815E-03 6.82538E-05 7.03205E-03
 -1      1060-9.31983E-03 9.74326E-05 7.01812E-03
 -1      1061-8.82649E-03 6.81842E-05 7.24109E-03
 -1      1062-9.21744E-03 1.30053E-04 7.03326E-03
 -1      1063-9.22007E-03 1.56475E-04 7.00373E-03
 -1      1064-8.72213E-03 1.44379E-04 7.26503E-03
 -1      1065-9.24523E-03 1.78162E-04 6.96548E-03
 -1      1066-9.24318E-03 2.02497E-04 6.92804E-03
 -1      1067-8.64518E-03 2.21111E-04 7.26837E-03
 -1      1068-8.85127E-03 2.59332E-04 7.08285E-03
 -1      1069-6.96629E-03-4.06347E-04 8.52709E-03
 -1      1070-6.96298E-03-4.90715E-04 8.51211E-03
 -1      1071-7.30633E-03-4.96270E-04 8.22702E-03
 -1      1072-6.94577E-03-2.60588E-04 8.55252E-03
 -1      1073-6.95088E-03-3.28560E-04 8.54636E-03
 -1      1074-7.42847E-03-3.32783E-04 8.12513E-03
 -1      1075-7.03593E-03-1.37058E-04 8.51562E-03
 -1      1076-7.03874E-03-1.96389E-04 8.49092E-03
 -1      1077-7.51874E-03-2.05199E-04 8.10891E-03
 -1      1078-6.94087E-03-2.60179E-05 8.59927E-03
 -1      1079-6.94244E-03-8.02406E-05 8.60198E-03
 -1      1080-7.51647E-03-9.69799E-05 8.12132E-03
 -1      1081-7.03815E-03 7.91880E-05 8.52778E-03
 -1      1082-7.03750E-03 2.59984E-05 8.52271E-03
 -1      1083-7.51880E-03-3.30280E-07 8.15165E-03
 -1      1084-7.04062E-03 1.95444E-04 8.49102E-03
 -1      1085-7.03635E-03 1.37881E-04 8.51780E-03
 -1      1086-7.62220E-03 9.65902E-05 8.05833E-03
 -1      1087-6.94846E-03 3.30898E-04 8.54603E-03
 -1      1088-6.94586E-03 2.63393E-04 8.56832E-03
 -1      1089-7.51806E-03 2.06688E-04 8.10613E-03
 -1      1090-6.96528E-03 4.91829E-04 8.53311E-03
 -1      1091-6.96564E-03 4.05036E-04 8.52488E-03
 -1      1092-7.43830E-03 3.31329E-04 8.16127E-03
 -1      1093-7.30579E-03 4.93596E-04 8.22893E-03
 -1      1094-7.82125E-03-5.03254E-04 7.75315E-03
 -1      1095-8.39586E-03-3.77780E-04 7.29692E-03
 -1      1096-7.61427E-03-5.03487E-04 7.94257E-03
 -1      1097-8.57405E-03-3.29346E-04 7.19921E-03
 -1      1098-8.39467E-03 3.24989E-04 7.36347E-03
 -1      1099-8.04120E-03 3.23808E-04 7.62229E-03
 -1      1100-7.78247E-03 4.09301E-04 7.83310E-03
 -1      1101-8.39188E-03-3.24643E-04 7.36673E-03
 -1      1102-7.78122E-03-4.12776E-04 7.82987E-03
 -1      1103-8.03537E-03-3.24979E-04 7.62019E-03
 -1      1104-8.10943E-03-1.76086E-04 7.65086E-03
 -1      1105-8.20612E-03-1.22356E-04 7.58393E-03
 -1      1106-7.98805E-03-2.21425E-04 7.70265E-03
 -1      1107-8.10753E-03-8.60893E-05 7.68304E-03
 -1      1108-7.98533E-03-3.72930E-05 7.76229E-03
 -1      1109-8.10638E-03 1.72434E-04 7.64963E-03
 -1      1110-8.20368E-03 1.26951E-04 7.57999E-03
 -1      1111-7.99426E-03 2.26580E-04 7.70407E-03
 -1      1112-8.22102E-03 8.25383E-05 7.59411E-03
 -1      1113-8.02423E-03-2.69071E-04 7.65991E-03
 -1      1114-8.10782E-03-5.24417E-06 7.69375E-03
 -1      1115-8.21819E-03 3.86374E-05 7.60650E-03
 -1      1116-8.03321E-03 2.74260E-04 7.66075E-03
 -1      1117-4.24729E-03-3.48832E-04 9.41343E-03
 -1      1118-4.26466E-03-6.35141E-05 9.44949E-03
 -1      1119-4.26520E-03 1.95694E-04 9.43156E-03
 -1      1120-4.23976E-03 5.50924E-04 9.42475E-03
 -1      1121-5.76087E-03 3.49019E-04 9.40593E-03
 -1      1122-5.74735E-03-5.53716E-04 9.43101E-03
 -1      1123-5.73537E-03-1.95667E-04 9.43411E-03
 -1      1124-5.73425E-03 6.32805E-05 9.44877E-03
 -1      1125-5.35481E-03 7.48118E-04 9.64216E-03
 -1      1126-4.63958E-03-7.44305E-04 9.64144E-03
 -1      1127-4.23841E-03 3.48755E-04 9.40575E-03
 -1      1128-5.75366E-03 1.97975E-04 9.42682E-03
 -1      1129-5.76015E-03-3.49477E-04 9.40761E-03
 -1      1130-4.26353E-03-1.93387E-04 9.43402E-03
 -1      1131-4.26133E-03 6.46093E-05 9.44609E-03
 -1      1132-5.73477E-03-6.13927E-05 9.44892E-03
 -1      1133-5.74247E-03 5.53803E-04 9.43199E-03
 -1      1134-4.99623E-03 4.47539E-04 9.58262E-03
 -1      1135-4.63085E-03 7.52069E-04 9.64121E-03
 -1      1136-5.35984E-03-7.52642E-04 9.64514E-03
 -1      1137-4.25698E-03-5.53248E-04 9.43169E-03
 -1      1138-5.00223E-03-4.47402E-04 9.58526E-03
 -1      1139-4.98979E-03 2.79240E-04 9.58487E-03
 -1      1140-5.00305E-03 1.32371E-04 9.60264E-03
 -1      1141-4.99918E-03-2.75105E-04 9.58666E-03
 -1      1142-4.99988E-03 9.67181E-07 9.61156E-03
 -1      1143-4.99964E-03-1.30271E-04 9.60359E-03
 -1      1144-4.99321E-03 6.07923E-04 9.61719E-03
 -1      1145-3.99893E-03 7.37942E-04 9.36105E-03
 -1      1146-5.00032E-03-6.07962E-04 9.61891E-03
 -1      1147-5.98206E-03 7.36573E-04 9.37315E-03
 -1      1148-5.98456E-03-7.36213E-04 9.37121E-03
 -1      1149-4.01574E-03-7.33520E-04 9.37190E-03
 -1      1150-3.73899E-03-6.63086E-04 9.15538E-03
 -1      1151-3.75236E-03-7.90203E-04 9.21615E-03
 -1      1152-4.13322E-03-8.24652E-04 9.49511E-03
 -1      1153-3.73885E-03 7.94491E-04 9.20038E-03
 -1      1154-3.71370E-03 6.66262E-04 9.13607E-03
 -1      1155-4.11977E-03 8.28233E-04 9.48581E-03
 -1      1156-6.24648E-03 7.93259E-04 9.21794E-03
 -1      1157-5.86393E-03 8.27113E-04 9.49691E-03
 -1      1158-6.26281E-03 6.66534E-04 9.15682E-03
 -1      1159-6.24924E-03-7.92790E-04 9.21529E-03
 -1      1160-6.26220E-03-6.65550E-04 9.15148E-03
 -1      1161-5.86795E-03-8.25840E-04 9.49524E-03
 -1      1162-3.85739E-03-4.77528E-04 9.19169E-03
 -1      1163-3.86174E-03-5.78791E-04 9.21242E-03
 -1      1164-4.13455E-03-6.39689E-04 9.39716E-03
 -1      1165-3.84912E-03-2.96422E-04 9.19246E-03
 -1      1166-3.84452E-03-3.79260E-04 9.19019E-03
 -1      1167-4.25237E-03-4.46284E-04 9.41208E-03
 -1      1168-3.86542E-03-1.53806E-04 9.21971E-03
 -1      1169-3.85646E-03-2.19394E-04 9.21073E-03
 -1      1170-4.25448E-03-2.69165E-04 9.42196E-03
 -1      1171-3.86338E-03-3.13038E-05 9.23846E-03
 -1      1172-3.86602E-03-9.12382E-05 9.22833E-03
 -1      1173-4.26581E-03-1.27729E-04 9.44377E-03
 -1      1174-3.86712E-03 9.34638E-05 9.22804E-03
 -1      1175-3.86381E-03 3.26282E-05 9.23169E-03
 -1      1176-4.26289E-03 1.07548E-06 9.44976E-03
 -1      1177-3.86472E-03 2.22246E-04 9.21024E-03
 -1      1178-3.87057E-03 1.56168E-04 9.21795E-03
 -1      1179-4.26418E-03 1.29435E-04 9.44057E-03
 -1      1180-3.83883E-03 3.73684E-04 9.17987E-03
 -1      1181-3.85257E-03 2.96471E-04 9.18815E-03
 -1      1182-4.25216E-03 2.70699E-04 9.41724E-03
 -1      1183-3.83140E-03 5.76510E-04 9.19846E-03
 -1      1184-3.83963E-03 4.71541E-04 9.18135E-03
 -1      1185-4.23890E-03 4.46259E-04 9.40693E-03
 -1      1186-4.11535E-03 6.40978E-04 9.38779E-03
 -1      1187-5.55461E-03 8.33247E-04 9.64221E-03
 -1      1188-5.17251E-03 8.42817E-04 9.73878E-03
 -1      1189-5.66921E-03 7.45269E-04 9.54045E-03
 -1      1190-4.81328E-03 8.45780E-04 9.73988E-03
 -1      1191-4.43067E-03 8.36566E-04 9.63788E-03
 -1      1192-4.99311E-03 7.52820E-04 9.68544E-03
 -1      1193-4.31469E-03 7.48013E-04 9.53374E-03
 -1      1194-6.14758E-03-5.78268E-04 9.21251E-03
 -1      1195-6.14927E-03-4.76321E-04 9.19389E-03
 -1      1196-5.86924E-03-6.43168E-04 9.39601E-03
 -1      1197-6.15925E-03-3.76530E-04 9.19232E-03
 -1      1198-6.14569E-03-2.96009E-04 9.19086E-03
 -1      1199-5.75577E-03-4.48318E-04 9.41158E-03
 -1      1200-6.13463E-03-2.23388E-04 9.21218E-03
 -1      1201-6.13653E-03-1.56388E-04 9.22218E-03
 -1      1202-5.74684E-03-2.70751E-04 9.41860E-03
 -1      1203-6.13942E-03-8.99688E-05 9.23516E-03
 -1      1204-6.12916E-03-2.87274E-05 9.23285E-03
 -1      1205-5.73558E-03-1.27983E-04 9.44278E-03
 -1      1206-6.13005E-03 3.03728E-05 9.23659E-03
 -1      1207-6.13598E-03 9.12559E-05 9.22984E-03
 -1      1208-5.73307E-03 6.94207E-07 9.45044E-03
 -1      1209-6.14904E-03 1.58046E-04 9.22185E-03
 -1      1210-6.14387E-03 2.25258E-04 9.20562E-03
 -1      1211-5.74410E-03 1.29141E-04 9.43913E-03
 -1      1212-6.14864E-03 2.97184E-04 9.19536E-03
 -1      1213-6.14723E-03 3.77665E-04 9.18626E-03
 -1      1214-5.75609E-03 2.71134E-04 9.41511E-03
 -1      1215-6.13768E-03 4.75039E-04 9.19204E-03
 -1      1216-6.14605E-03 5.77923E-04 9.21546E-03
 -1      1217-5.75096E-03 4.47539E-04 9.41007E-03
 -1      1218-5.86621E-03 6.43260E-04 9.39778E-03
 -1      1219-4.44093E-03-8.31392E-04 9.64132E-03
 -1      1220-4.82170E-03-8.41054E-04 9.73950E-03
 -1      1221-4.32697E-03-7.42454E-04 9.53839E-03
 -1      1222-5.17909E-03-8.44843E-04 9.74225E-03
 -1      1223-5.55933E-03-8.34408E-04 9.64347E-03
 -1      1224-4.99974E-03-7.51537E-04 9.68721E-03
 -1      1225-5.67301E-03-7.47448E-04 9.54122E-03
 -1      1226-4.63118E-03-2.34971E-04 9.54987E-03
 -1      1227-4.62334E-03-3.13416E-04 9.54122E-03
 -1      1228-4.62529E-03-3.99751E-04 9.53997E-03
 -1      1229-4.62914E-03-5.02326E-04 9.54852E-03
 -1      1230-5.00058E-03-3.58667E-04 9.58139E-03
 -1      1231-4.63280E-03-9.66775E-05 9.56680E-03
 -1      1232-4.63156E-03-1.62976E-04 9.55926E-03
 -1      1233-4.63061E-03 3.30096E-05 9.56998E-03
 -1      1234-4.63283E-03-3.12888E-05 9.57068E-03
 -1      1235-5.00013E-03-6.41207E-05 9.60959E-03
 -1      1236-4.61390E-03 3.15907E-04 9.53684E-03
 -1      1237-4.62729E-03 2.37484E-04 9.54703E-03
 -1      1238-4.63393E-03 1.65051E-04 9.55796E-03
 -1      1239-4.63245E-03 9.82572E-05 9.56547E-03
 -1      1240-4.99634E-03 2.04169E-04 9.59418E-03
 -1      1241-4.61931E-03 5.01648E-04 9.54534E-03
 -1      1242-4.61739E-03 4.00198E-04 9.53608E-03
 -1      1243-4.61740E-03 5.83457E-04 9.56425E-03
 -1      1244-4.99408E-03 5.24174E-04 9.59385E-03
 -1      1245-4.43473E-03 6.48926E-04 9.53333E-03
 -1      1246-4.81122E-03 6.78989E-04 9.63494E-03
 -1      1247-5.37145E-03 2.38999E-04 9.54845E-03
 -1      1248-5.37496E-03 3.16174E-04 9.53974E-03
 -1      1249-5.37827E-03 3.99337E-04 9.53631E-03
 -1      1250-5.36934E-03 5.02763E-04 9.54856E-03
 -1      1251-4.99215E-03 3.60862E-04 9.58037E-03
 -1      1252-5.37584E-03-5.02563E-04 9.54922E-03
 -1      1253-5.38114E-03-3.99861E-04 9.53708E-03
 -1      1254-5.55364E-03-6.51705E-04 9.53883E-03
 -1      1255-5.18091E-03-6.78822E-04 9.63757E-03
 -1      1256-5.37351E-03-5.84002E-04 9.56840E-03
 -1      1257-5.00118E-03-5.24194E-04 9.59533E-03
 -1      1258-5.37992E-03-3.14462E-04 9.53991E-03
 -1      1259-5.36730E-03-2.35691E-04 9.55000E-03
 -1      1260-5.36753E-03-1.63961E-04 9.55896E-03
 -1      1261-5.36720E-03-9.60827E-05 9.56626E-03
 -1      1262-4.99926E-03-2.01154E-04 9.59548E-03
 -1      1263-5.36867E-03 9.77936E-05 9.56581E-03
 -1      1264-5.37783E-03 1.65751E-04 9.55626E-03
 -1      1265-5.36721E-03-3.08455E-05 9.57081E-03
 -1      1266-5.36669E-03 3.26247E-05 9.57036E-03
 -1      1267-5.00142E-03 6.61247E-05 9.60925E-03
 -1      1268-5.54958E-03 6.49129E-04 9.53835E-03
 -1      1269-5.36767E-03 5.84204E-04 9.56795E-03
 -1      1270-5.17467E-03 6.76819E-04 9.63516E-03
 -1      1271-4.81904E-03-6.75656E-04 9.63629E-03
 -1      1272-4.44772E-03-6.46085E-04 9.53769E-03
 -1      1273-4.62833E-03-5.84063E-04 9.56770E-03
 -1      1274-9.67040E-03-1.66052E-04 1.53342E-04
 -1      1275-3.29669E-04-1.65944E-04 1.54049E-04
 -1      1276-9.44461E-03-2.00839E-04 1.01110E-03
 -1      1277-5.55347E-04-2.00526E-04 1.01154E-03
 -1      1278-9.21647E-03-2.12886E-04 2.45991E-03
 -1      1279-7.83435E-04-2.12562E-04 2.46022E-03
 -1      1280-9.05147E-03-2.22197E-04 4.50035E-03
 -1      1281-9.71335E-04-2.24934E-04 4.41554E-03
 -1      1282-6.66697E-03-5.29485E-04 6.00428E-03
 -1      1283-3.34494E-03-5.30660E-04 5.97778E-03
 -1      1284-9.45593E-03-3.14666E-04 6.03095E-05
 -1      1285-5.43625E-04-3.14907E-04 6.06914E-05
 -1      1286-8.78065E-03-4.52868E-04 6.24525E-04
 -1      1287-1.21946E-03-4.52859E-04 6.25182E-04
 -1      1288-8.10416E-03-4.98740E-04 1.78965E-03
 -1      1289-1.89538E-03-4.98177E-04 1.79016E-03
 -1      1290-7.43110E-03-5.08851E-04 3.53994E-03
 -1      1291-2.60463E-03-5.13885E-04 3.55087E-03
 -1      1292-9.84302E-03-1.21363E-04-6.97735E-05
 -1      1293-1.56821E-04-1.20250E-04-6.92134E-05
 -1      1294-5.69615E-04-1.83736E-04 6.05671E-03
 -1      1295-9.06601E-03-2.28217E-04 5.59534E-03
 -1      1296-1.58834E-03-3.20456E-04 5.90809E-03
 -1      1297-6.19232E-03-6.43017E-04 8.37918E-03
 -1      1298-3.81073E-03-6.51739E-04 8.43439E-03
 -1      1299-7.29177E-03-4.86598E-04 6.82610E-03
 -1      1300-3.18296E-03-5.40135E-04 7.18020E-03
 -1      1301-7.97453E-03-3.76494E-04 5.34313E-03
 -1      1302-7.05865E-03-5.14436E-04 4.68060E-03
 -1      1303-5.62705E-03-7.10300E-04 9.51393E-03
 -1      1304-4.37549E-03-7.12749E-04 9.51535E-03
 -1      1305-2.96999E-03-5.19446E-04 4.65342E-03
 -1      1306-8.88971E-04-4.02712E-04 2.69609E-04
 -1      1307-9.10956E-03-4.04280E-04 2.69438E-04
 -1      1308-1.55535E-03-4.81835E-04 1.13213E-03
 -1      1309-7.75511E-03-5.08829E-04 2.58918E-03
 -1      1310-2.25010E-03-5.09128E-04 2.59103E-03
 -1      1311-8.44436E-03-4.82397E-04 1.13178E-03
 -1      1312-9.33231E-03-2.07555E-04 1.66232E-03
 -1      1313-9.12531E-03-2.15633E-04 3.39173E-03
 -1      1314-6.67562E-04-2.07003E-04 1.66265E-03
 -1      1315-8.82581E-04-2.16384E-04 3.39610E-03
 -1      1316-9.55415E-03-1.89134E-04 5.06575E-04
 -1      1317-4.45962E-04-1.88921E-04 5.07110E-04
 -1      1318-5.20994E-03-7.28285E-04 9.93797E-03
 -1      1319-4.79035E-03-7.28849E-04 9.94008E-03
 -1      1320-9.76451E-03-1.76655E-04-3.44663E-05
 -1      1321-2.35922E-04-1.76603E-04-3.41029E-05
 -1      1322-1.85836E-03-3.70552E-04 3.95828E-03
 -1      1323-9.49200E-03-2.63026E-04 8.69577E-05
 -1      1324-5.07609E-04-2.62964E-04 8.71987E-05
 -1      1325-9.28159E-03-3.04572E-04 3.54214E-04
 -1      1326-7.18998E-04-3.04611E-04 3.55142E-04
 -1      1327-9.05861E-03-3.31365E-04 7.84356E-04
 -1      1328-9.41284E-04-3.31080E-04 7.84763E-04
 -1      1329-8.83408E-03-3.47193E-04 1.36481E-03
 -1      1330-1.16576E-03-3.46763E-04 1.36530E-03
 -1      1331-2.14404E-04-1.32636E-04-5.28333E-05
 -1      1332-9.78622E-03-1.32527E-04-5.35798E-05
 -1      1333-8.60802E-03-3.56256E-04 2.08923E-03
 -1      1334-1.39471E-03-3.56214E-04 2.09119E-03
 -1      1335-1.62211E-03-3.62174E-04 2.95904E-03
 -1      1336-8.38270E-03-3.61914E-04 2.95480E-03
 -1      1337-6.14250E-03-5.69190E-04 7.26306E-03
 -1      1338-2.05666E-03-3.80186E-04 5.12377E-03
 -1      1339-8.17092E-03-3.65002E-04 4.01525E-03
 -1      1340-4.07099E-03-5.73827E-04 7.41239E-03
 -1      1341-2.50335E-03-4.45094E-04 6.18455E-03
 -1      1342-8.54884E-04-2.12547E-04 5.30381E-03
 -1      1343-8.36802E-03-3.34125E-04 6.17858E-03
 -1      1344-9.71299E-03-2.11323E-04 2.28580E-05
 -1      1345-2.86758E-04-2.10779E-04 2.33150E-05
 -1      1346-8.56578E-05-6.47318E-05-8.26057E-05
 -1      1347-9.91464E-03-6.37959E-05-8.25286E-05
 -1      1348-3.30948E-04-2.10546E-04-2.86917E-05
 -1      1349-9.66963E-03-2.10697E-04-2.96044E-05
 -1      1350-4.50438E-03-5.96796E-04 8.97556E-03
 -1      1351-5.49237E-03-6.02261E-04 8.96054E-03
 -1      1352-9.18685E-03-2.22523E-04 6.30807E-03
 -1      1353-5.00070E-03-5.92682E-04 1.00470E-02
 -1      1354-7.97623E-05-1.27052E-04 6.50737E-03
 -1      1355-3.82064E-04-1.64161E-04 6.32793E-03
 -1      1356-2.78068E-04-1.48258E-04 6.22041E-03
 -1      1357-9.60595E-04-2.48226E-04 6.49073E-03
 -1      1358-2.81004E-04-1.36677E-04 5.55600E-03
 -1      1359-3.63137E-03-7.36790E-04 8.77950E-03
 -1      1360-3.27323E-03-6.60816E-04 8.20638E-03
 -1      1361-4.27628E-03-8.10228E-04 9.59904E-03
 -1      1362-3.99692E-03-7.84173E-04 9.29199E-03
 -1      1363-4.09491E-03-6.94586E-04 9.05766E-03
 -1      1364-9.91874E-03-1.27222E-04 6.50613E-03
 -1      1365-9.61484E-03-1.65009E-04 6.34601E-03
 -1      1366-9.49967E-03-1.82123E-04 6.45008E-03
 -1      1367-9.54229E-03-1.57893E-04 5.32800E-03
 -1      1368-9.53021E-03-1.69290E-04 5.97133E-03
 -1      1369-9.12340E-03-2.24618E-04 5.94764E-03
 -1      1370-8.91341E-03-2.71151E-04 6.63654E-03
 -1      1371-6.73092E-03-6.54872E-04 8.17558E-03
 -1      1372-6.37124E-03-7.32048E-04 8.75398E-03
 -1      1373-6.00425E-03-7.84439E-04 9.29027E-03
 -1      1374-5.72581E-03-8.09914E-04 9.59922E-03
 -1      1375-5.90935E-03-6.91997E-04 9.03496E-03
 -1      1376-9.96347E-03-2.85283E-05-5.18097E-05
 -1      1377-9.91559E-03-5.04338E-05-9.69690E-05
 -1      1378-9.95024E-03-4.53448E-05-5.22161E-05
 -1      1379-9.83623E-03-1.35466E-04 2.60912E-05
 -1      1380-9.86173E-03-1.21514E-04-1.93983E-06
 -1      1381-9.59910E-03-2.65989E-04 7.30344E-05
 -1      1382-1.63569E-04-1.35357E-04 2.63781E-05
 -1      1383-4.01042E-04-2.65712E-04 7.34552E-05
 -1      1384-1.37889E-04-1.21490E-04-1.65430E-06
 -1      1385-3.68415E-05-2.83507E-05-5.14440E-05
 -1      1386-4.76057E-05-4.23764E-05-5.12246E-05
 -1      1387-8.44132E-05-5.06736E-05-9.67164E-05
 -1      1388-2.90903E-03-5.69403E-04 7.57582E-03
 -1      1389-2.34522E-03-4.70611E-04 7.03982E-03
 -1      1390-1.49494E-03-3.22957E-04 6.43631E-03
 -1      1391-1.08381E-03-2.53932E-04 5.97016E-03
 -1      1392-2.00066E-03-3.96533E-04 6.56118E-03
 -1      1393-2.04683E-03-3.84280E-04 6.03981E-03
 -1      1394-2.83424E-03-4.92081E-04 6.66587E-03
 -1      1395-3.49585E-03-6.02567E-04 7.82351E-03
 -1      1396-7.92023E-03-4.28682E-04 6.87933E-03
 -1      1397-7.34778E-03-5.34681E-04 7.40671E-03
 -1      1398-6.73111E-03-5.82151E-04 7.62074E-03
 -1      1399-8.48642E-03-3.31933E-04 6.58009E-03
 -1      1400-7.83855E-03-4.14646E-04 6.48691E-03
 -1      1401-8.77442E-03-2.80256E-04 6.24097E-03
 -1      1402-4.85453E-03-8.34063E-04 9.91367E-03
 -1      1403-4.56523E-03-8.26401E-04 9.80899E-03
 -1      1404-4.58264E-03-7.23635E-04 9.77864E-03
 -1      1405-5.43606E-03-8.25690E-04 9.80874E-03
 -1      1406-5.14570E-03-8.32938E-04 9.91326E-03
 -1      1407-5.00009E-03-7.31707E-04 9.99086E-03
 -1      1408-5.41951E-03-7.23597E-04 9.77900E-03
 -1      1409-9.53149E-03-1.47158E-04 4.19903E-03
 -1      1410-9.50621E-03-1.55953E-04 4.77539E-03
 -1      1411-9.05430E-03-2.24054E-04 5.03397E-03
 -1      1412-9.56500E-03-1.39104E-04 3.13795E-03
 -1      1413-9.53638E-03-1.44127E-04 3.64395E-03
 -1      1414-9.08747E-03-2.17931E-04 3.92829E-03
 -1      1415-9.60911E-03-1.35303E-04 2.23645E-03
 -1      1416-9.58055E-03-1.37840E-04 2.67148E-03
 -1      1417-9.17046E-03-2.13884E-04 2.90838E-03
 -1      1418-9.66355E-03-1.31704E-04 1.47540E-03
 -1      1419-9.63671E-03-1.33196E-04 1.83762E-03
 -1      1420-9.27478E-03-2.10129E-04 2.04299E-03
 -1      1421-9.71436E-03-1.27774E-04 8.60989E-04
 -1      1422-9.68936E-03-1.29874E-04 1.14983E-03
 -1      1423-9.38878E-03-2.04497E-04 1.31847E-03
 -1      1424-9.76411E-03-1.19644E-04 3.93142E-04
 -1      1425-9.73893E-03-1.24335E-04 6.08774E-04
 -1      1426-9.49963E-03-1.95873E-04 7.40403E-04
 -1      1427-9.81657E-03-1.02914E-04 7.57145E-05
 -1      1428-9.79190E-03-1.11912E-04 2.16642E-04
 -1      1429-9.61243E-03-1.78893E-04 3.11686E-04
 -1      1430-9.87601E-03-7.60124E-05-8.54627E-05
 -1      1431-9.84233E-03-9.16239E-05-2.92748E-05
 -1      1432-9.72587E-03-1.51761E-04 2.72709E-05
 -1      1433-9.85562E-03-9.83556E-05-8.61010E-05
 -1      1434-9.90605E-03-8.49009E-05-4.76786E-05
 -1      1435-9.92945E-03-6.33797E-05-5.28887E-05
 -1      1436-9.88155E-03-9.15142E-05-7.81628E-05
 -1      1437-9.86420E-03-1.20060E-04-2.04725E-05
 -1      1438-9.89034E-03-9.71964E-05-3.54498E-05
 -1      1439-9.80266E-03-1.50016E-04-5.59309E-05
 -1      1440-9.73558E-03-1.97303E-04-9.35791E-06
 -1      1441-9.26555E-03-3.91726E-04 1.49128E-04
 -1      1442-9.45498E-03-3.27427E-04 8.46253E-05
 -1      1443-9.57430E-03-2.74488E-04 3.45815E-05
 -1      1444-8.87459E-03-4.82357E-04 3.91752E-04
 -1      1445-9.06587E-03-4.44363E-04 2.53510E-04
 -1      1446-9.28263E-03-3.65112E-04 1.46066E-04
 -1      1447-8.48468E-03-5.32520E-04 7.85039E-04
 -1      1448-8.68083E-03-5.10542E-04 5.69058E-04
 -1      1449-8.94559E-03-4.31449E-04 4.27570E-04
 -1      1450-8.08634E-03-5.62074E-04 1.33106E-03
 -1      1451-8.28643E-03-5.49332E-04 1.03889E-03
 -1      1452-8.61324E-03-4.69317E-04 8.59123E-04
 -1      1453-7.68284E-03-5.78136E-04 2.02714E-03
 -1      1454-7.88548E-03-5.71208E-04 1.66030E-03
 -1      1455-8.27480E-03-4.91652E-04 1.44205E-03
 -1      1456-7.27204E-03-5.86513E-04 2.86862E-03
 -1      1457-7.47763E-03-5.83551E-04 2.42772E-03
 -1      1458-7.93046E-03-5.04527E-04 2.17118E-03
 -1      1459-6.87276E-03-5.85693E-04 3.86293E-03
 -1      1460-7.07931E-03-5.85703E-04 3.34509E-03
 -1      1461-7.59282E-03-5.09096E-04 3.04559E-03
 -1      1462-6.44734E-03-5.83318E-04 5.03660E-03
 -1      1463-6.65578E-03-5.85838E-04 4.43509E-03
 -1      1464-7.24607E-03-5.11495E-04 4.08914E-03
 -1      1465-6.03435E-03-5.77414E-04 6.39192E-03
 -1      1466-6.23293E-03-5.81598E-04 5.70138E-03
 -1      1467-6.86603E-03-5.19655E-04 5.31882E-03
 -1      1468-5.59771E-03-5.73719E-04 7.75969E-03
 -1      1469-5.77146E-03-5.82277E-04 7.02370E-03
 -1      1470-6.40519E-03-5.48861E-04 6.62228E-03
 -1      1471-5.22005E-03-5.51400E-04 9.18887E-03
 -1      1472-5.31047E-03-5.60847E-04 8.60639E-03
 -1      1473-6.18240E-03-5.92135E-04 7.83069E-03
 -1      1474-5.66646E-03-5.87342E-04 8.31164E-03
 -1      1475-5.82195E-03-6.29903E-04 8.68636E-03
 -1      1476-5.21668E-03-5.99589E-04 9.81201E-03
 -1      1477-5.33981E-03-5.96822E-04 9.46932E-03
 -1      1478-5.58975E-03-6.50157E-04 9.27078E-03
 -1      1479-4.97491E-03-5.29949E-04 1.00390E-02
 -1      1480-5.02624E-03-5.29705E-04 1.00397E-02
 -1      1481-5.11243E-03-5.98252E-04 9.98151E-03
 -1      1482-5.07724E-03-6.61149E-04 1.00105E-02
 -1      1483-4.65951E-03-5.95299E-04 9.47225E-03
 -1      1484-4.78362E-03-5.98279E-04 9.81183E-03
 -1      1485-4.88856E-03-5.96545E-04 9.98143E-03
 -1      1486-4.92262E-03-6.61373E-04 1.00112E-02
 -1      1487-4.68810E-03-5.60128E-04 8.61350E-03
 -1      1488-4.77881E-03-5.47635E-04 9.19723E-03
 -1      1489-4.41051E-03-6.49060E-04 9.27828E-03
 -1      1490-4.33973E-03-5.84268E-04 7.09537E-03
 -1      1491-4.50642E-03-5.70384E-04 7.82887E-03
 -1      1492-3.91716E-03-5.95655E-04 7.93536E-03
 -1      1493-4.32790E-03-5.89014E-04 8.33801E-03
 -1      1494-4.17118E-03-6.32473E-04 8.72186E-03
 -1      1495-3.77218E-03-5.81964E-04 5.68821E-03
 -1      1496-3.97186E-03-5.77809E-04 6.37919E-03
 -1      1497-3.70970E-03-5.55377E-04 6.68262E-03
 -1      1498-3.35780E-03-5.87949E-04 4.42228E-03
 -1      1499-3.56705E-03-5.85829E-04 5.02190E-03
 -1      1500-3.15392E-03-5.22107E-04 5.29198E-03
 -1      1501-2.93831E-03-5.87772E-04 3.35091E-03
 -1      1502-3.14680E-03-5.87920E-04 3.86876E-03
 -1      1503-2.78608E-03-5.16339E-04 4.08224E-03
 -1      1504-2.52465E-03-5.83217E-04 2.42890E-03
 -1      1505-2.73036E-03-5.86071E-04 2.86984E-03
 -1      1506-2.42677E-03-5.11888E-04 3.05189E-03
 -1      1507-2.11394E-03-5.70702E-04 1.66065E-03
 -1      1508-2.31676E-03-5.77313E-04 2.02760E-03
 -1      1509-2.07175E-03-5.04309E-04 2.17229E-03
 -1      1510-1.71345E-03-5.48869E-04 1.03935E-03
 -1      1511-1.91325E-03-5.61531E-04 1.33132E-03
 -1      1512-1.72476E-03-4.91075E-04 1.44239E-03
 -1      1513-1.31954E-03-5.09550E-04 5.69755E-04
 -1      1514-1.51526E-03-5.32066E-04 7.85529E-04
 -1      1515-1.38655E-03-4.69006E-04 8.59579E-04
 -1      1516-9.33919E-04-4.43727E-04 2.53657E-04
 -1      1517-1.12509E-03-4.81780E-04 3.91861E-04
 -1      1518-1.05409E-03-4.30960E-04 4.28240E-04
 -1      1519-5.45019E-04-3.27032E-04 8.50775E-05
 -1      1520-7.34276E-04-3.93005E-04 1.49481E-04
 -1      1521-7.16291E-04-3.64296E-04 1.45689E-04
 -1      1522-4.25377E-04-2.74360E-04 3.49813E-05
 -1      1523-1.09527E-04-9.70826E-05-3.55274E-05
 -1      1524-1.35058E-04-1.19891E-04-2.03582E-05
 -1      1525-2.64427E-04-1.96916E-04-8.95070E-06
 -1      1526-7.23005E-05-6.48282E-05-5.40216E-05
 -1      1527-9.41197E-05-8.51375E-05-4.76989E-05
 -1      1528-1.97358E-04-1.49511E-04-5.55471E-05
 -1      1529-1.18895E-04-9.24516E-05-7.77742E-05
 -1      1530-1.56922E-04-9.19102E-05-2.89765E-05
 -1      1531-1.23967E-04-7.63201E-05-8.47812E-05
 -1      1532-1.44802E-04-9.84984E-05-8.55398E-05
 -1      1533-2.07951E-04-1.11685E-04 2.17236E-04
 -1      1534-1.82511E-04-1.02714E-04 7.62054E-05
 -1      1535-2.74486E-04-1.52093E-04 2.80689E-05
 -1      1536-2.60485E-04-1.24537E-04 6.09305E-04
 -1      1537-2.35956E-04-1.19737E-04 3.93746E-04
 -1      1538-3.87571E-04-1.78508E-04 3.12350E-04
 -1      1539-3.10537E-04-1.29802E-04 1.15025E-03
 -1      1540-2.85130E-04-1.27445E-04 8.61527E-04
 -1      1541-5.00506E-04-1.95644E-04 7.41023E-04
 -1      1542-3.63442E-04-1.32889E-04 1.83798E-03
 -1      1543-3.36404E-04-1.31367E-04 1.47581E-03
 -1      1544-6.11179E-04-2.04198E-04 1.31886E-03
 -1      1545-4.19407E-04-1.37599E-04 2.67181E-03
 -1      1546-3.91080E-04-1.34982E-04 2.23673E-03
 -1      1547-7.25056E-04-2.09868E-04 2.04331E-03
 -1      1548-4.67521E-04-1.44275E-04 3.64623E-03
 -1      1549-4.38586E-04-1.39431E-04 3.14024E-03
 -1      1550-8.33287E-04-2.13933E-04 2.91060E-03
 -1      1551-5.08720E-04-1.57242E-04 4.73086E-03
 -1      1552-4.82271E-04-1.48661E-04 4.15780E-03
 -1      1553-9.27268E-04-2.19798E-04 3.89052E-03
 -1      1554-4.26471E-04-1.51031E-04 5.18407E-03
 -1      1555-9.18357E-04-2.17947E-04 4.84982E-03
 -1      1556-7.23018E-04-1.98829E-04 5.67314E-03
 -1      1557-9.49086E-03-2.33397E-04 2.45671E-04
 -1      1558-9.40471E-03-2.48278E-04 4.22001E-04
 -1      1559-9.38651E-03-2.85999E-04 2.03548E-04
 -1      1560-9.57016E-03-2.16474E-04 1.11845E-04
 -1      1561-9.65704E-03-1.95097E-04 5.41316E-06
 -1      1562-5.95394E-04-2.48163E-04 4.22698E-04
 -1      1563-5.08974E-04-2.33164E-04 2.46135E-04
 -1      1564-6.13057E-04-2.85271E-04 2.03804E-04
 -1      1565-4.29453E-04-2.16476E-04 1.12291E-04
 -1      1566-3.43199E-04-1.94805E-04 6.24079E-06
 -1      1567-9.15421E-03-2.73114E-04 1.17965E-03
 -1      1568-9.06961E-03-2.77770E-04 1.50542E-03
 -1      1569-9.32126E-03-2.59000E-04 6.37154E-04
 -1      1570-9.23813E-03-2.67063E-04 8.89520E-04
 -1      1571-8.94674E-03-3.40373E-04 1.05604E-03
 -1      1572-9.30294E-04-2.77346E-04 1.50587E-03
 -1      1573-8.45729E-04-2.72839E-04 1.17999E-03
 -1      1574-7.61821E-04-2.66735E-04 8.89932E-04
 -1      1575-6.78765E-04-2.58757E-04 6.37681E-04
 -1      1576-1.05309E-03-3.39987E-04 1.05644E-03
 -1      1577-8.98495E-03-2.81436E-04 1.86735E-03
 -1      1578-8.89838E-03-2.84583E-04 2.26648E-03
 -1      1579-8.81417E-03-2.87344E-04 2.69876E-03
 -1      1580-8.73946E-03-2.88559E-04 3.16501E-03
 -1      1581-8.49578E-03-3.59096E-04 2.50402E-03
 -1      1582-1.10290E-03-2.84493E-04 2.26760E-03
 -1      1583-1.01625E-03-2.81240E-04 1.86842E-03
 -1      1584-1.26694E-03-2.89035E-04 3.16938E-03
 -1      1585-1.18810E-03-2.87135E-04 2.70111E-03
 -1      1586-1.50801E-03-3.59325E-04 2.50719E-03
 -1      1587-8.53539E-03-2.98854E-04 4.90662E-03
 -1      1588-8.50694E-03-3.04256E-04 5.45770E-03
 -1      1589-8.59518E-03-2.93633E-04 4.24936E-03
 -1      1590-8.07386E-03-3.67893E-04 4.65758E-03
 -1      1591-8.66437E-03-2.90280E-04 3.69325E-03
 -1      1592-1.43049E-03-2.97527E-04 4.17871E-03
 -1      1593-1.35558E-03-2.93692E-04 3.66754E-03
 -1      1594-1.49587E-03-3.02771E-04 4.75579E-03
 -1      1595-1.95587E-03-3.73164E-04 4.52361E-03
 -1      1596-1.46827E-03-2.98192E-04 5.20193E-03
 -1      1597-7.65777E-03-4.23284E-04 6.05796E-03
 -1      1598-7.32231E-03-4.58684E-04 5.66314E-03
 -1      1599-6.96955E-03-5.02392E-04 6.41467E-03
 -1      1600-6.69360E-03-5.40311E-04 7.05174E-03
 -1      1601-7.49498E-03-4.44121E-04 5.00532E-03
 -1      1602-3.63643E-03-5.63612E-04 7.30066E-03
 -1      1603-3.25701E-03-5.23550E-04 6.56952E-03
 -1      1604-2.93562E-03-4.87995E-04 6.08244E-03
 -1      1605-2.52904E-03-4.49179E-04 4.88455E-03
 -1      1606-2.69249E-03-4.60694E-04 5.53571E-03
 -1      1607-2.27012E-03-4.09481E-04 5.64093E-03
 -1      1608-9.31298E-03-3.31623E-04 1.71400E-04
 -1      1609-9.45863E-03-2.95392E-04 6.44353E-05
 -1      1610-9.61973E-03-2.47602E-04 1.10064E-06
 -1      1611-9.56778E-03-2.60620E-04 1.03654E-05
 -1      1612-9.70806E-03-1.99825E-04-3.74973E-05
 -1      1613-9.58018E-03-2.39674E-04 1.76414E-05
 -1      1614-5.40868E-04-2.95182E-04 6.45694E-05
 -1      1615-6.86326E-04-3.31207E-04 1.71587E-04
 -1      1616-3.80309E-04-2.47486E-04 1.39701E-06
 -1      1617-2.92302E-04-1.99596E-04-3.70182E-05
 -1      1618-4.32329E-04-2.60386E-04 1.09351E-05
 -1      1619-4.20147E-04-2.39471E-04 1.85074E-05
 -1      1620-9.04469E-03-3.77707E-04 4.81295E-04
 -1      1621-9.18174E-03-3.56899E-04 3.03239E-04
 -1      1622-8.76567E-03-4.06104E-04 9.49609E-04
 -1      1623-8.90549E-03-3.93510E-04 6.96266E-04
 -1      1624-9.17026E-03-3.19476E-04 5.50520E-04
 -1      1625-8.17772E-04-3.56374E-04 3.03912E-04
 -1      1626-9.55811E-04-3.77648E-04 4.82215E-04
 -1      1627-1.09443E-03-3.93265E-04 6.96759E-04
 -1      1628-1.23411E-03-4.05774E-04 9.50006E-04
 -1      1629-8.29888E-04-3.19290E-04 5.51113E-04
 -1      1630-8.19658E-03-4.32608E-04 2.33044E-03
 -1      1631-8.34218E-03-4.27836E-04 1.93151E-03
 -1      1632-8.48375E-03-4.22579E-04 1.56860E-03
 -1      1633-8.62492E-03-4.15741E-04 1.24028E-03
 -1      1634-8.72154E-03-3.52191E-04 1.70870E-03
 -1      1635-1.37482E-03-4.15207E-04 1.24065E-03
 -1      1636-1.51594E-03-4.22064E-04 1.56900E-03
 -1      1637-1.65906E-03-4.27617E-04 1.93279E-03
 -1      1638-1.80733E-03-4.32700E-04 2.33230E-03
 -1      1639-1.27963E-03-3.51995E-04 1.70984E-03
 -1      1640-7.62781E-03-4.41273E-04 4.33749E-03
 -1      1641-7.78603E-03-4.36337E-04 3.76997E-03
 -1      1642-7.92175E-03-4.35910E-04 3.23808E-03
 -1      1643-8.05495E-03-4.35304E-04 2.76416E-03
 -1      1644-8.27680E-03-3.62817E-04 3.46563E-03
 -1      1645-2.24460E-03-4.41753E-04 3.74800E-03
 -1      1646-2.39996E-03-4.46606E-04 4.29485E-03
 -1      1647-1.95015E-03-4.35641E-04 2.76717E-03
 -1      1648-2.09798E-03-4.38611E-04 3.24544E-03
 -1      1649-1.73910E-03-3.65743E-04 3.44124E-03
 -1      1650-9.76333E-03-1.66264E-04-5.91255E-05
 -1      1651-9.80432E-03-1.33227E-04-7.40530E-05
 -1      1652-9.72465E-03-1.72294E-04-4.51180E-05
 -1      1653-2.36812E-04-1.65733E-04-5.85368E-05
 -1      1654-1.96040E-04-1.32992E-04-7.36354E-05
 -1      1655-2.75794E-04-1.72843E-04-4.44205E-05
 -1      1656-1.20824E-03-2.65440E-04 5.59739E-03
 -1      1657-8.15690E-03-3.54445E-04 5.75198E-03
 -1      1658-8.72831E-03-2.79004E-04 5.87853E-03
 -1      1659-1.83754E-03-3.51136E-04 5.50962E-03
 -1      1660-1.00048E-02 1.91046E-05 5.61493E-03
 -1      1661-1.00153E-02-2.74617E-06 9.85829E-06
 -1      1662-9.97020E-03 5.96037E-05 1.18194E-03
 -1      1663-9.97508E-03-5.91767E-05 1.72196E-03
 -1      1664-1.00108E-02 7.65900E-06 5.39375E-06
 -1      1665-1.00073E-02-5.44935E-05 5.62297E-03
 -1      1666-9.98052E-03 6.13893E-05 2.58433E-03
 -1      1667-9.96326E-03-5.84580E-05 6.11549E-04
 -1      1668-9.95765E-03 5.13485E-05 2.14602E-04
 -1      1669-9.98529E-03-6.83563E-05 3.52657E-03
 -1      1670-9.99765E-03-1.15237E-05-5.99798E-06
 -1      1671-1.00130E-02 8.40874E-05 5.62899E-03
 -1      1672-9.95479E-03-3.80767E-05 2.66327E-05
 -1      1673-9.99332E-03 8.38448E-05 4.60578E-03
 -1      1674-9.97813E-03 1.55465E-05-2.95181E-05
 -1      1675-1.00133E-02-9.78612E-05 5.47076E-03
 -1      1676-9.99730E-03 1.10876E-05-6.79049E-06
 -1      1677-1.00220E-02 2.25899E-05 1.42801E-04
 -1      1678-1.00363E-02 1.18028E-05 1.59031E-04
 -1      1679-1.00391E-02 2.52459E-05 4.17932E-04
 -1      1680-1.00493E-02 8.63010E-06 4.33961E-04
 -1      1681-1.00443E-02 2.01740E-05 8.00856E-04
 -1      1682-1.00496E-02 3.78957E-07 8.11550E-04
 -1      1683-1.00417E-02 1.12448E-05 1.28266E-03
 -1      1684-1.00419E-02-1.01112E-05 1.28600E-03
 -1      1685-1.00346E-02 6.03211E-07 1.86057E-03
 -1      1686-1.00301E-02 2.24980E-05 1.84558E-03
 -1      1687-1.00302E-02-2.13247E-05 1.85237E-03
 -1      1688-1.00444E-02-1.97772E-05 8.11176E-04
 -1      1689-1.00249E-02-1.07099E-05 2.53314E-03
 -1      1690-1.00185E-02-3.20997E-05 2.50881E-03
 -1      1691-1.00179E-02-4.01712E-05 1.81386E-03
 -1      1692-1.00275E-02 3.83451E-05 7.69786E-04
 -1      1693-1.00148E-02-2.29382E-05 3.28471E-03
 -1      1694-1.00169E-02 9.67309E-07 3.30704E-03
 -1      1695-1.00083E-02-4.44384E-05 3.23122E-03
 -1      1696-1.00082E-02-1.25910E-05 4.10468E-03
 -1      1697-1.00076E-02 1.51857E-05 4.15135E-03
 -1      1698-1.00144E-02 2.53975E-05 3.28762E-03
 -1      1699-1.00058E-02 4.17903E-05 4.12170E-03
 -1      1700-1.00076E-02 4.56228E-05 3.24196E-03
 -1      1701-1.00014E-02 6.16809E-05 4.06871E-03
 -1      1702-9.99533E-03 6.04207E-05 3.16066E-03
 -1      1703-1.00052E-02 4.96256E-05 2.43996E-03
 -1      1704-1.00406E-02-5.97902E-08 1.63894E-04
 -1      1705-9.99200E-03 3.56571E-05 1.21992E-04
 -1      1706-1.00177E-02 3.33832E-05 2.49857E-03
 -1      1707-1.00172E-02 4.12725E-05 1.80421E-03
 -1      1708-9.99470E-03 5.50442E-05 1.66185E-03
 -1      1709-1.00114E-02 4.80183E-05 1.20883E-03
 -1      1710-1.00098E-02-8.32364E-05 5.53163E-03
 -1      1711-9.99934E-03-7.36916E-05 4.39621E-03
 -1      1712-1.00033E-02-5.70626E-05 4.64853E-03
 -1      1713-1.00098E-02-7.25223E-06 4.88270E-06
 -1      1714-1.00226E-02-2.26408E-05 1.43497E-04
 -1      1715-9.99591E-03-3.20058E-05 1.05733E-04
 -1      1716-1.00169E-02-3.96216E-05 3.88772E-04
 -1      1717-9.98289E-03-4.94856E-05 3.11051E-04
 -1      1718-9.99884E-03-5.25265E-05 7.16571E-04
 -1      1719-9.98395E-03-5.78247E-05 1.15490E-03
 -1      1720-1.00099E-02-4.84907E-05 1.22960E-03
 -1      1721-9.99730E-03-5.38929E-05 1.77723E-03
 -1      1722-9.99043E-03-5.77112E-05 2.35225E-03
 -1      1723-1.00270E-02-3.79117E-05 7.78055E-04
 -1      1724-1.00384E-02-2.49168E-05 4.21118E-04
 -1      1725-1.00068E-02 5.58622E-05 5.65313E-03
 -1      1726-1.00168E-02 3.96711E-05 3.85194E-04
 -1      1727-1.00055E-02-4.90316E-05 2.47290E-03
 -1      1728-1.00045E-02-1.86047E-05 5.65198E-03
 -1      1729-1.00312E-02 3.16545E-05 1.25932E-03
 -1      1730-1.00358E-02-1.17265E-05 1.59322E-04
 -1      1731-1.00138E-02 2.68200E-06 9.21016E-06
 -1      1732-1.00499E-02-8.28783E-06 4.35260E-04
 -1      1733-1.00007E-02 5.18366E-05 7.15202E-04
 -1      1734-1.00248E-02 1.22092E-05 2.52903E-03
 -1      1735-9.96732E-03 5.83379E-05 6.27302E-04
 -1      1736-9.97574E-03 5.94816E-05 1.82334E-03
 -1      1737-9.98546E-03 6.88718E-05 3.52746E-03
 -1      1738-1.00315E-02-3.14087E-05 1.26870E-03
 -1      1739-9.97785E-03-1.43103E-05-2.95969E-05
 -1      1740-1.00102E-02 9.61258E-05 5.37425E-03
 -1      1741-9.95298E-03 3.62512E-05 5.74071E-06
 -1      1742-9.99388E-03-8.41932E-05 4.62995E-03
 -1      1743-9.99562E-03-5.98490E-05 3.16964E-03
 -1      1744-9.99604E-03 7.37497E-05 4.14422E-03
 -1      1745-9.99086E-03 5.78671E-05 2.30404E-03
 -1      1746-9.97935E-03-6.11129E-05 2.57142E-03
 -1      1747-9.94911E-03-5.24956E-05 2.25932E-04
 -1      1748-9.98905E-03 5.05651E-05 3.90582E-04
 -1      1749-9.98939E-03 5.65552E-05 1.05664E-03
 -1      1750-1.00067E-02-3.88742E-05 3.97675E-03
 -1      1751-9.96383E-03-5.94539E-05 1.09499E-03
 -1      1752-1.00019E-02-5.74962E-05 3.81411E-03
 -1      1753-1.00027E-02 6.08425E-05 4.80793E-03
 -1      1754-1.00042E-02 3.27828E-05 4.85505E-03
 -1      1755-9.95433E-03 1.74912E-05-5.85158E-05
 -1      1756-1.00076E-02-1.02499E-04 5.51334E-03
 -1      1757-1.00049E-02 1.24232E-06 4.86205E-03
 -1      1758-1.00050E-02-3.12047E-05 4.79587E-03
 -1      1759-9.95396E-03-1.73857E-05-5.89039E-05
 -1      1760-1.00081E-02 1.03857E-04 5.54621E-03
 -1      1761-1.00027E-02 7.70777E-05 4.77779E-03
 -1      1762-9.96075E-03 8.70423E-06-5.27778E-05
 -1      1763-9.93573E-03 2.48953E-05-7.49206E-05
 -1      1764-9.97409E-03 5.82898E-06-4.00462E-05
 -1      1765-9.99785E-03 9.67422E-05 5.31114E-03
 -1      1766-1.00127E-02 1.08042E-04 5.95975E-03
 -1      1767-1.00201E-02 1.12860E-04 6.03336E-03
 -1      1768-1.00186E-02-1.11856E-04 6.01367E-03
 -1      1769-1.00124E-02-1.07380E-04 5.94192E-03
 -1      1770-9.99816E-03-9.57550E-05 5.29493E-03
 -1      1771-9.93568E-03-2.47484E-05-7.54790E-05
 -1      1772-9.96095E-03-8.76445E-06-5.24226E-05
 -1      1773-9.97413E-03-6.02140E-06-3.98130E-05
 -1      1774-9.93459E-03 3.27073E-05-5.20725E-05
 -1      1775-9.93577E-03 4.24088E-05 1.38751E-05
 -1      1776-9.95157E-03 2.77171E-05-3.95537E-05
 -1      1777-9.93976E-03 4.92571E-05 1.14648E-04
 -1      1778-9.94393E-03 5.41997E-05 2.57615E-04
 -1      1779-9.95466E-03 4.53541E-05 9.31018E-05
 -1      1780-9.95057E-03 5.74051E-05 4.61716E-04
 -1      1781-9.95528E-03 5.88716E-05 6.81336E-04
 -1      1782-9.96242E-03 5.62250E-05 3.99432E-04
 -1      1783-9.95899E-03 5.91765E-05 9.52123E-04
 -1      1784-9.96344E-03 5.90857E-05 1.24647E-03
 -1      1785-9.96847E-03 5.95345E-05 8.84258E-04
 -1      1786-9.96732E-03 5.89446E-05 1.56290E-03
 -1      1787-9.97138E-03 5.92816E-05 1.92840E-03
 -1      1788-9.97306E-03 5.94998E-05 1.48614E-03
 -1      1789-9.97437E-03 6.02847E-05 2.30700E-03
 -1      1790-9.97703E-03 6.24010E-05 2.74279E-03
 -1      1791-9.97830E-03 6.00205E-05 2.18783E-03
 -1      1792-9.97922E-03 6.60520E-05 3.21438E-03
 -1      1793-9.98154E-03 7.12833E-05 3.72154E-03
 -1      1794-9.98295E-03 6.43269E-05 3.03816E-03
 -1      1795-9.98486E-03 7.84068E-05 4.26093E-03
 -1      1796-9.99084E-03 8.78936E-05 4.83871E-03
 -1      1797-9.98856E-03 7.51945E-05 4.04906E-03
 -1      1798-9.99938E-03 9.31434E-05 5.06421E-03
 -1      1799-1.00195E-02 1.10172E-04 5.93965E-03
 -1      1800-1.00192E-02 1.06436E-04 5.98625E-03
 -1      1801-1.00099E-02 1.01329E-04 5.46316E-03
 -1      1802-1.00188E-02 9.82788E-05 6.11557E-03
 -1      1803-1.00185E-02 8.31220E-05 6.14667E-03
 -1      1804-1.00118E-02 9.26751E-05 5.50638E-03
 -1      1805-1.00154E-02 6.76470E-05 6.15701E-03
 -1      1806-1.00117E-02 5.01739E-05 6.17225E-03
 -1      1807-1.00098E-02 7.09257E-05 5.64509E-03
 -1      1808-1.00093E-02 3.00621E-05 6.14973E-03
 -1      1809-1.00087E-02 1.03621E-05 6.15675E-03
 -1      1810-1.00053E-02 3.78062E-05 5.63631E-03
 -1      1811-1.00093E-02-9.96322E-06 6.17582E-03
 -1      1812-1.00092E-02-2.89178E-05 6.17101E-03
 -1      1813-1.00047E-02 1.25013E-07 5.63639E-03
 -1      1814-1.00107E-02-4.89699E-05 6.15530E-03
 -1      1815-1.00132E-02-6.75259E-05 6.13735E-03
 -1      1816-1.00062E-02-3.69274E-05 5.63993E-03
 -1      1817-1.00160E-02-8.39554E-05 6.09464E-03
 -1      1818-1.00210E-02-9.74960E-05 6.06534E-03
 -1      1819-1.00082E-02-7.00645E-05 5.58037E-03
 -1      1820-1.00241E-02-1.05230E-04 6.03908E-03
 -1      1821-1.00204E-02-1.10609E-04 5.98915E-03
 -1      1822-1.00121E-02-9.26199E-05 5.50527E-03
 -1      1823-1.00112E-02-1.01466E-04 5.49577E-03
 -1      1824-9.99148E-03-8.75567E-05 4.85059E-03
 -1      1825-9.98523E-03-7.82777E-05 4.27186E-03
 -1      1826-9.99960E-03-9.26318E-05 5.06140E-03
 -1      1827-9.98161E-03-7.09203E-05 3.72036E-03
 -1      1828-9.97922E-03-6.56420E-05 3.21330E-03
 -1      1829-9.98851E-03-7.50525E-05 4.05953E-03
 -1      1830-9.97646E-03-6.20229E-05 2.73499E-03
 -1      1831-9.97371E-03-5.98688E-05 2.29918E-03
 -1      1832-9.98239E-03-6.39310E-05 3.03139E-03
 -1      1833-9.97074E-03-5.89032E-05 1.87506E-03
 -1      1834-9.96673E-03-5.87701E-05 1.51458E-03
 -1      1835-9.97731E-03-5.97006E-05 2.12574E-03
 -1      1836-9.96115E-03-5.86977E-05 1.19894E-03
 -1      1837-9.95630E-03-5.88710E-05 9.08379E-04
 -1      1838-9.96978E-03-5.94971E-05 1.39351E-03
 -1      1839-9.95377E-03-5.87497E-05 6.71350E-04
 -1      1840-9.94838E-03-5.72195E-05 4.52530E-04
 -1      1841-9.96286E-03-5.94420E-05 8.36633E-04
 -1      1842-9.94071E-03-5.42575E-05 2.61679E-04
 -1      1843-9.93651E-03-4.96361E-05 1.16167E-04
 -1      1844-9.95626E-03-5.66035E-05 4.01155E-04
 -1      1845-9.93774E-03-4.31517E-05 2.58805E-05
 -1      1846-9.93599E-03-3.36128E-05-4.42810E-05
 -1      1847-9.95140E-03-4.68717E-05 1.11695E-04
 -1      1848-9.95183E-03-2.86878E-05-3.40060E-05
 -1      1849-9.97869E-03-5.39989E-06-3.53134E-05
 -1      1850-9.98671E-03-5.37849E-06-2.90986E-05
 -1      1851-9.96556E-03-1.50661E-05-4.40577E-05
 -1      1852-9.99233E-03-4.09089E-06-2.39634E-05
 -1      1853-9.99630E-03-4.34638E-06-1.99073E-05
 -1      1854-9.98863E-03-1.26788E-05-1.58352E-05
 -1      1855-9.99996E-03-2.42752E-06-1.68021E-05
 -1      1856-1.00022E-02-2.14348E-06-1.33847E-05
 -1      1857-1.00044E-02-9.33875E-06 9.51134E-07
 -1      1858-1.00024E-02-1.28391E-06-1.12876E-05
 -1      1859-1.00046E-02-5.16054E-07-1.13605E-05
 -1      1860-1.00129E-02-4.89245E-06 8.01353E-06
 -1      1861-1.00027E-02 4.61147E-07-1.06305E-05
 -1      1862-1.00034E-02 1.50287E-06-1.20464E-05
 -1      1863-1.00149E-02-6.39340E-08 1.00379E-05
 -1      1864-1.00012E-02 2.33221E-06-1.28066E-05
 -1      1865-9.99898E-03 2.86769E-06-1.50515E-05
 -1      1866-1.00126E-02 5.38957E-06 7.98767E-06
 -1      1867-9.99649E-03 3.46774E-06-1.87291E-05
 -1      1868-9.99090E-03 4.22320E-06-2.24026E-05
 -1      1869-1.00045E-02 9.16034E-06 3.04355E-07
 -1      1870-9.98741E-03 4.77347E-06-2.78997E-05
 -1      1871-9.97845E-03 5.30281E-06-3.55626E-05
 -1      1872-9.98816E-03 1.30569E-05-1.73142E-05
 -1      1873-9.96564E-03 1.56442E-05-4.38165E-05
 -1      1874-1.00043E-02 4.39545E-05 5.24729E-03
 -1      1875-1.00034E-02 2.66391E-05 5.22849E-03
 -1      1876-1.00038E-02 9.55636E-06 5.23188E-03
 -1      1877-1.00037E-02-8.39630E-06 5.25058E-03
 -1      1878-1.00047E-02 1.71364E-05 4.86208E-03
 -1      1879-1.00278E-02-6.29382E-06 6.98265E-05
 -1      1880-1.00395E-02-5.86783E-06 1.62829E-04
 -1      1881-1.00297E-02-2.45296E-06 7.09081E-05
 -1      1882-1.00296E-02 2.16867E-06 7.08404E-05
 -1      1883-1.00238E-02-1.05621E-05 6.56796E-05
 -1      1884-9.98431E-03 5.81066E-05 1.74574E-03
 -1      1885-9.98305E-03 5.82802E-05 1.41951E-03
 -1      1886-9.97910E-03 5.86862E-05 1.12076E-03
 -1      1887-9.99224E-03 5.61307E-05 1.34371E-03
 -1      1888-9.97928E-03 5.81614E-05 8.33097E-04
 -1      1889-9.98577E-03-5.77572E-05 1.75582E-03
 -1      1890-9.99120E-03-5.62240E-05 1.45307E-03
 -1      1891-9.97848E-03-5.90252E-05 1.42450E-03
 -1      1892-9.97311E-03-5.92799E-05 1.12851E-03
 -1      1893-9.98333E-03-5.87540E-05 2.03019E-03
 -1      1894-9.99347E-03-5.58181E-05 2.05467E-03
 -1      1895-9.98448E-03-5.98767E-05 2.46309E-03
 -1      1896-1.00185E-02 1.43191E-05 5.95671E-05
 -1      1897-1.00101E-02 1.83565E-05 5.14025E-05
 -1      1898-1.00248E-02 1.08148E-05 6.56189E-05
 -1      1899-1.00304E-02 1.72844E-05 1.52489E-04
 -1      1900-1.00278E-02 6.28465E-06 6.89914E-05
 -1      1901-1.00045E-02-5.65195E-05 5.12540E-03
 -1      1902-1.00049E-02-6.94862E-05 5.07948E-03
 -1      1903-1.00048E-02-4.23275E-05 5.20020E-03
 -1      1904-1.00043E-02-4.49485E-05 4.72606E-03
 -1      1905-1.00038E-02-2.52702E-05 5.21651E-03
 -1      1906-9.99007E-03 6.53765E-05 3.34465E-03
 -1      1907-9.98825E-03 6.15528E-05 2.87307E-03
 -1      1908-9.98523E-03 5.99747E-05 2.44400E-03
 -1      1909-9.99326E-03 5.86592E-05 2.71696E-03
 -1      1910-9.98352E-03 5.90324E-05 2.06173E-03
 -1      1911-9.98128E-03-5.64963E-05 6.69868E-04
 -1      1912-9.99132E-03-5.22225E-05 4.97908E-04
 -1      1913-9.97208E-03-5.55309E-05 4.50928E-04
 -1      1914-9.96608E-03-5.18525E-05 2.71727E-04
 -1      1915-9.97428E-03-5.88485E-05 8.67638E-04
 -1      1916-9.99078E-03-5.59038E-05 9.23909E-04
 -1      1917-9.97376E-03 3.65100E-05 6.35538E-05
 -1      1918-9.97619E-03 4.47525E-05 1.69500E-04
 -1      1919-9.99105E-03 4.44332E-05 2.41344E-04
 -1      1920-9.97408E-03 5.15059E-05 3.01573E-04
 -1      1921-9.97760E-03 5.55839E-05 5.03773E-04
 -1      1922-9.99727E-03-8.04785E-05 4.51681E-03
 -1      1923-9.99310E-03-7.18488E-05 3.95902E-03
 -1      1924-9.99698E-03-6.52951E-05 3.75852E-03
 -1      1925-9.99026E-03-6.48188E-05 3.34925E-03
 -1      1926-9.98797E-03-6.14146E-05 2.87239E-03
 -1      1927-1.00105E-02-1.83491E-05 5.18253E-05
 -1      1928-1.00185E-02-1.41343E-05 6.02359E-05
 -1      1929-9.99897E-03-2.11451E-05 3.75322E-05
 -1      1930-1.00109E-02-2.73490E-05 1.26915E-04
 -1      1931-9.98579E-03-2.45632E-05 1.92429E-05
 -1      1932-1.00061E-02 7.22603E-05 5.20924E-03
 -1      1933-1.00042E-02 5.88645E-05 5.22410E-03
 -1      1934-1.00056E-02 8.65467E-05 5.07197E-03
 -1      1935-1.00071E-02 8.09440E-05 5.19606E-03
 -1      1936-1.00029E-02 6.98221E-05 4.79532E-03
 -1      1937-9.96956E-03-4.53604E-05 1.49172E-04
 -1      1938-9.99054E-03-4.17703E-05 1.98405E-04
 -1      1939-9.97770E-03-3.52734E-05 6.97056E-05
 -1      1940-9.96799E-03-2.66998E-05-8.98082E-06
 -1      1941-9.99094E-03 7.14127E-05 3.83446E-03
 -1      1942-9.99492E-03 7.89916E-05 4.37361E-03
 -1      1943-1.00013E-02 8.34938E-05 4.73831E-03
 -1      1944-1.00021E-02 9.04633E-05 4.98711E-03
 -1      1945-9.99790E-03 2.28274E-05 4.33737E-05
 -1      1946-9.98413E-03 2.68701E-05 2.42326E-05
 -1      1947-9.96697E-03 2.61475E-05-1.56335E-05
 -1      1948-1.00043E-02-7.93742E-05 4.95095E-03
 -1      1949-1.00044E-02-8.50695E-05 4.91741E-03
 -1      1950-1.00033E-02-9.11471E-05 5.04634E-03
 -1      1951-1.00094E-02 2.89350E-05 1.35666E-04
 -1      1952-1.00400E-02 1.82345E-05 2.76306E-04
 -1      1953-1.00322E-02 2.51500E-05 2.66309E-04
 -1      1954-1.00293E-02 3.27513E-05 4.03860E-04
 -1      1955-1.00213E-02 3.13971E-05 2.52383E-04
 -1      1956-1.00055E-02 3.90184E-05 2.41112E-04
 -1      1957-1.00446E-02 1.13114E-05 2.82699E-04
 -1      1958-1.00458E-02 1.70499E-05 4.27818E-04
 -1      1959-1.00401E-02 5.90068E-06 1.62813E-04
 -1      1960-1.00470E-02 3.50641E-06 2.85763E-04
 -1      1961-1.00482E-02 1.42128E-05 6.05773E-04
 -1      1962-1.00427E-02 2.35406E-05 5.96354E-04
 -1      1963-1.00371E-02 2.94778E-05 7.87928E-04
 -1      1964-1.00343E-02 3.19893E-05 5.82632E-04
 -1      1965-1.00230E-02 4.00298E-05 5.64248E-04
 -1      1966-1.00509E-02 5.00072E-06 6.10431E-04
 -1      1967-1.00484E-02 1.03745E-05 8.08589E-04
 -1      1968-1.00508E-02 2.00163E-07 4.36515E-04
 -1      1969-1.00509E-02-4.60640E-06 6.11410E-04
 -1      1970-1.00475E-02-3.57400E-06 2.86569E-04
 -1      1971-1.00464E-02 5.60310E-06 1.03560E-03
 -1      1972-1.00438E-02 1.61144E-05 1.02954E-03
 -1      1973-1.00377E-02 2.17410E-05 1.27390E-03
 -1      1974-1.00382E-02 2.60872E-05 1.01871E-03
 -1      1975-1.00299E-02 3.55338E-05 1.00171E-03
 -1      1976-1.00464E-02-4.65645E-06 1.03687E-03
 -1      1977-1.00430E-02 5.29056E-07 1.28706E-03
 -1      1978-1.00484E-02-9.76997E-06 8.13805E-04
 -1      1979-1.00439E-02-1.54235E-05 1.03688E-03
 -1      1980-1.00482E-02-1.37509E-05 6.11192E-04
 -1      1981-1.00386E-02-4.94813E-06 1.56162E-03
 -1      1982-1.00386E-02 6.10883E-06 1.55961E-03
 -1      1983-1.00334E-02 1.17462E-05 1.85635E-03
 -1      1984-1.00361E-02 1.68981E-05 1.55264E-03
 -1      1985-1.00311E-02 2.74080E-05 1.54023E-03
 -1      1986-1.00364E-02-1.56692E-05 1.55762E-03
 -1      1987-1.00336E-02-1.04952E-05 1.85965E-03
 -1      1988-1.00380E-02-2.10269E-05 1.28049E-03
 -1      1989-1.00315E-02-2.64621E-05 1.54861E-03
 -1      1990-1.00384E-02-2.56716E-05 1.02896E-03
 -1      1991-1.00299E-02 6.27562E-06 2.18315E-03
 -1      1992-1.00279E-02 1.74663E-05 2.17537E-03
 -1      1993-1.00281E-02-1.61666E-05 2.18093E-03
 -1      1994-1.00300E-02-4.96178E-06 2.18508E-03
 -1      1995-1.00257E-02 7.29087E-07 2.53446E-03
 -1      1996-1.00181E-02 3.74616E-05 2.13926E-03
 -1      1997-1.00246E-02 3.23928E-05 1.82851E-03
 -1      1998-1.00238E-02 2.78996E-05 2.16062E-03
 -1      1999-1.00222E-02 2.32281E-05 2.51726E-03
 -1      2000-1.00241E-02 3.66561E-05 1.52060E-03
 -1      2001-1.00244E-02-2.66336E-05 2.16906E-03
 -1      2002-1.00225E-02-2.17573E-05 2.52446E-03
 -1      2003-1.00251E-02-3.11102E-05 1.83667E-03
 -1      2004-1.00187E-02-3.62725E-05 2.14920E-03
 -1      2005-1.00246E-02-3.59131E-05 1.53017E-03
 -1      2006-1.00427E-02-2.31890E-05 6.03047E-04
 -1      2007-1.00340E-02-3.17742E-05 5.88242E-04
 -1      2008-1.00372E-02-2.91658E-05 7.97460E-04
 -1      2009-1.00299E-02-3.52628E-05 1.01067E-03
 -1      2010-1.00457E-02-1.67811E-05 4.30338E-04
 -1      2011-1.00172E-02-2.76709E-05 2.88559E-03
 -1      2012-1.00199E-02-1.65204E-05 2.89767E-03
 -1      2013-1.00164E-02-1.11561E-05 3.29912E-03
 -1      2014-1.00212E-02-5.10578E-06 2.90859E-03
 -1      2015-1.00211E-02 6.83933E-06 2.90636E-03
 -1      2016-1.00113E-02-4.47783E-05 2.13131E-03
 -1      2017-1.00127E-02-4.13993E-05 2.49506E-03
 -1      2018-1.00131E-02-3.80321E-05 2.85920E-03
 -1      2019-1.00121E-02-3.43505E-05 3.26195E-03
 -1      2020-1.00075E-02-4.67836E-05 2.84182E-03
 -1      2021-1.00031E-02-5.15294E-05 1.49143E-03
 -1      2022-1.00082E-02-4.80117E-05 1.80017E-03
 -1      2023-1.00147E-02-4.46838E-05 1.51032E-03
 -1      2024-1.00219E-02-4.05262E-05 1.25331E-03
 -1      2025-1.00020E-02-5.16942E-05 2.11360E-03
 -1      2026-1.00222E-02 4.03424E-05 1.23753E-03
 -1      2027-1.00195E-02 4.36734E-05 9.78393E-04
 -1      2028-1.00067E-02 5.04702E-05 9.48639E-04
 -1      2029-1.00153E-02 4.56741E-05 7.45751E-04
 -1      2030-1.00093E-02 4.65470E-05 5.39684E-04
 -1      2031-1.00118E-02-1.80544E-05 3.68477E-03
 -1      2032-1.00125E-02-5.31429E-06 3.69621E-03
 -1      2033-1.00080E-02-4.18673E-05 3.59607E-03
 -1      2034-1.00106E-02-3.04469E-05 3.62318E-03
 -1      2035-1.00082E-02-2.63829E-05 4.04411E-03
 -1      2036-1.00083E-02 1.28394E-06 4.13123E-03
 -1      2037-1.00122E-02 7.68260E-06 3.71848E-03
 -1      2038-1.00112E-02 2.06051E-05 3.70873E-03
 -1      2039-1.00161E-02 1.33934E-05 3.30074E-03
 -1      2040-1.00196E-02 1.85478E-05 2.89690E-03
 -1      2041-1.00000E-02-5.43820E-05 2.81103E-03
 -1      2042-1.00024E-02-5.34022E-05 3.20624E-03
 -1      2043-9.99926E-03-5.89300E-05 3.48766E-03
 -1      2044-1.00047E-02-5.08703E-05 3.51714E-03
 -1      2045-1.00050E-02-4.93543E-05 3.89900E-03
 -1      2046-1.00060E-02-6.19111E-06 4.47592E-03
 -1      2047-1.00061E-02 8.64813E-06 4.50076E-03
 -1      2048-1.00059E-02-3.54885E-05 4.37843E-03
 -1      2049-1.00060E-02-2.14783E-05 4.44443E-03
 -1      2050-1.00040E-02-1.53433E-05 4.83165E-03
 -1      2051-1.00071E-02 2.89342E-05 4.13990E-03
 -1      2052-1.00097E-02 3.28687E-05 3.69357E-03
 -1      2053-1.00054E-02 2.35858E-05 4.49687E-03
 -1      2054-1.00046E-02 3.76205E-05 4.48234E-03
 -1      2055-1.00071E-02 4.37733E-05 3.67094E-03
 -1      2056-1.00116E-02 3.60205E-05 3.26849E-03
 -1      2057-1.00124E-02 3.92489E-05 2.85867E-03
 -1      2058-1.00165E-02 2.95346E-05 2.88145E-03
 -1      2059-1.00038E-02 5.25287E-05 4.09892E-03
 -1      2060-1.00039E-02 5.30006E-05 3.64359E-03
 -1      2061-1.00035E-02 5.06552E-05 4.45864E-03
 -1      2062-1.00023E-02 6.15665E-05 4.43285E-03
 -1      2063-1.00031E-02 4.74812E-05 4.83476E-03
 -1      2064-9.99902E-03 6.10891E-05 3.60452E-03
 -1      2065-1.00019E-02 5.42021E-05 3.20694E-03
 -1      2066-9.99966E-03 5.49300E-05 2.78917E-03
 -1      2067-1.00070E-02 4.75988E-05 2.82900E-03
 -1      2068-1.00122E-02 4.22066E-05 2.47323E-03
 -1      2069-9.99893E-03 6.85250E-05 4.10939E-03
 -1      2070-9.99516E-03 6.60490E-05 3.63548E-03
 -1      2071-1.00012E-02 6.87461E-05 4.41577E-03
 -1      2072-9.99947E-03 7.57486E-05 4.45821E-03
 -1      2073-9.99829E-03 5.44850E-05 2.37528E-03
 -1      2074-1.00108E-02 4.55402E-05 2.11076E-03
 -1      2075-1.00008E-02 5.26900E-05 2.03632E-03
 -1      2076-1.00068E-02 4.93272E-05 1.73826E-03
 -1      2077-9.99252E-03 5.64519E-05 1.96987E-03
 -1      2078-1.00450E-02-1.10205E-05 2.83682E-04
 -1      2079-1.00037E-02 4.54134E-05 3.90337E-04
 -1      2080-1.00025E-02 5.21453E-05 1.42755E-03
 -1      2081-1.00148E-02 4.49293E-05 1.49393E-03
 -1      2082-1.00009E-02 5.28416E-05 1.13491E-03
 -1      2083-9.99476E-03 5.46303E-05 8.78359E-04
 -1      2084-1.00022E-02-6.76420E-05 4.52703E-03
 -1      2085-1.00029E-02-5.77690E-05 4.22347E-03
 -1      2086-1.00001E-02-6.54720E-05 4.10062E-03
 -1      2087-1.00045E-02-4.75996E-05 4.30661E-03
 -1      2088-1.00303E-02-1.71401E-05 1.52960E-04
 -1      2089-1.00077E-02-3.73808E-05 2.31240E-04
 -1      2090-1.00217E-02-3.14985E-05 2.54292E-04
 -1      2091-1.00290E-02-3.23718E-05 4.07532E-04
 -1      2092-1.00316E-02-2.50632E-05 2.67703E-04
 -1      2093-1.00396E-02-1.80359E-05 2.77774E-04
 -1      2094-1.00008E-02-4.52326E-05 3.52956E-04
 -1      2095-1.00084E-02-4.67864E-05 5.42502E-04
 -1      2096-1.00144E-02-4.59248E-05 7.50982E-04
 -1      2097-1.00226E-02-3.99075E-05 5.69693E-04
 -1      2098-9.99723E-03-5.39875E-05 1.19650E-03
 -1      2099-1.00051E-02-5.10208E-05 9.58739E-04
 -1      2100-1.00186E-02-4.38554E-05 9.92515E-04
 -1      2101-9.99827E-03-5.42083E-05 2.41631E-03
 -1      2102-9.99326E-03-5.83889E-05 2.74747E-03
 -1      2103-9.99514E-03 5.19723E-05 5.43292E-04
 -1      2104-9.98460E-03 5.61007E-05 6.76191E-04
 -1      2105 0.00000E+00 0.00000E+00 0.00000E+00
 -1      2106 0.00000E+00 0.00000E+00 0.00000E+00
 -1      2107 0.00000E+00 0.00000E+00 0.00000E+00
 -1      2108 0.00000E+00 0.00000E+00 0.00000E+00
 -1      2109 0.00000E+00 0.00000E+00 0.00000E+00
 -1      2110 0.00000E+00 0.00000E+00 0.00000E+00
 -1      2111 0.00000E+00 0.00000E+00 0.00000E+00
 -1      2112 0.00000E+00 0.00000E+00 0.00000E+00
 -1      2113 0.00000E+00 0.00000E+00 0.00000E+00
 -1      2114 0.00000E+00 0.00000E+00 0.00000E+00
 -1      2115 0.00000E+00 0.00000E+00 0.00000E+00
 -1      2116 0.00000E+00 0.00000E+00 0.00000E+00
 -1      2117 0.00000E+00 0.00000E+00 0.00000E+00
 -1      2118 0.00000E+00 0.00000E+00 0.00000E+00
 -1      2119 0.00000E+00 0.00000E+00 0.00000E+00
 -1      2120 0.00000E+00 0.00000E+00 0.00000E+00
 -1      2121 0.00000E+00 0.00000E+00 0.00000E+00
 -1      2122 0.00000E+00 0.00000E+00 0.00000E+00
 -1      2123 0.00000E+00 0.00000E+00 0.00000E+00
 -1      2124 0.00000E+00 0.00000E+00 0.00000E+00
 -1      2125 0.00000E+00 0.00000E+00 0.00000E+00
 -1      2126 0.00000E+00 0.00000E+00 0.00000E+00
 -1      2127 0.00000E+00 0.00000E+00 0.00000E+00
 -1      2128 0.00000E+00 0.00000E+00 0.00000E+00
 -1      2129 0.00000E+00 0.00000E+00 0.00000E+00
 -1      2130 0.00000E+00 0.00000E+00 0.00000E+00
 -1      2131 0.00000E+00 0.00000E+00 0.00000E+00
 -1      2132 0.00000E+00 0.00000E+00 0.00000E+00
 -1      2133 0.00000E+00 0.00000E+00 0.00000E+00
 -1      2134 0.00000E+00 0.00000E+00 0.00000E+00
 -1      2135 0.00000E+00 0.00000E+00 0.00000E+00
 -1      2136 0.00000E+00 0.00000E+00 0.00000E+00
 -1      2137 0.00000E+00 0.00000E+00 0.00000E+00
 -1      2138 0.00000E+00 0.00000E+00 0.00000E+00
 -1      2139 0.00000E+00 0.00000E+00 0.00000E+00
 -1      2140 0.00000E+00 0.00000E+00 0.00000E+00
 -1      2141 0.00000E+00 0.00000E+00 0.00000E+00
 -1      2142 0.00000E+00 0.00000E+00 0.00000E+00
 -1      2143 0.00000E+00 0.00000E+00 0.00000E+00
 -1      2144 0.00000E+00 0.00000E+00 0.00000E+00
 -1      2145 0.00000E+00 0.00000E+00 0.00000E+00
 -1      2146 0.00000E+00 0.00000E+00 0.00000E+00
 -1      2147 0.00000E+00 0.00000E+00 0.00000E+00
 -1      2148 0.00000E+00 0.00000E+00 0.00000E+00
 -1      2149 0.00000E+00 0.00000E+00 0.00000E+00
 -1      2150 0.00000E+00 0.00000E+00 0.00000E+00
 -1      2151 0.00000E+00 0.00000E+00 0.00000E+00
 -1      2152 0.00000E+00 0.00000E+00 0.00000E+00
 -1      2153 0.00000E+00 0.00000E+00 0.00000E+00
 -1      2154 0.00000E+00 0.00000E+00 0.00000E+00
 -1      2155 0.00000E+00 0.00000E+00 0.00000E+00
 -1      2156 0.00000E+00 0.00000E+00 0.00000E+00
 -1      2157 0.00000E+00 0.00000E+00 0.00000E+00
 -1      2158 0.00000E+00 0.00000E+00 0.00000E+00
 -1      2159 0.00000E+00 0.00000E+00 0.00000E+00
 -1      2160 0.00000E+00 0.00000E+00 0.00000E+00
 -1      2161 0.00000E+00 0.00000E+00 0.00000E+00
 -1      2162 0.00000E+00 0.00000E+00 0.00000E+00
 -1      2163 0.00000E+00 0.00000E+00 0.00000E+00
 -1      2164 0.00000E+00 0.00000E+00 0.00000E+00
 -1      2165 0.00000E+00 0.00000E+00 0.00000E+00
 -1      2166 0.00000E+00 0.00000E+00 0.00000E+00
 -1      2167 0.00000E+00 0.00000E+00 0.00000E+00
 -1      2168 0.00000E+00 0.00000E+00 0.00000E+00
 -1      2169 0.00000E+00 0.00000E+00 0.00000E+00
 -1      2170 0.00000E+00 0.00000E+00 0.00000E+00
 -1      2171 0.00000E+00 0.00000E+00 0.00000E+00
 -1      2172 0.00000E+00 0.00000E+00 0.00000E+00
 -1      2173 0.00000E+00 0.00000E+00 0.00000E+00
 -1      2174 0.00000E+00 0.00000E+00 0.00000E+00
 -1      2175 0.00000E+00 0.00000E+00 0.00000E+00
 -1      2176 0.00000E+00 0.00000E+00 0.00000E+00
 -1      2177 0.00000E+00 0.00000E+00 0.00000E+00
 -1      2178 0.00000E+00 0.00000E+00 0.00000E+00
 -1      2179 0.00000E+00 0.00000E+00 0.00000E+00
 -1      2180 0.00000E+00 0.00000E+00 0.00000E+00
 -1      2181 0.00000E+00 0.00000E+00 0.00000E+00
 -1      2182 0.00000E+00 0.00000E+00 0.00000E+00
 -1      2183 0.00000E+00 0.00000E+00 0.00000E+00
 -1      2184 0.00000E+00 0.00000E+00 0.00000E+00
 -1      2185 0.00000E+00 0.00000E+00 0.00000E+00
 -1      2186 0.00000E+00 0.00000E+00 0.00000E+00
 -1      2187 0.00000E+00 0.00000E+00 0.00000E+00
 -1      2188 0.00000E+00 0.00000E+00 0.00000E+00
 -1      2189 0.00000E+00 0.00000E+00 0.00000E+00
 -1      2190 0.00000E+00 0.00000E+00 0.00000E+00
 -1      2191 0.00000E+00 0.00000E+00 0.00000E+00
 -1      2192 0.00000E+00 0.00000E+00 0.00000E+00
 -1      2193 0.00000E+00 0.00000E+00 0.00000E+00
 -1      2194 0.00000E+00 0.00000E+00 0.00000E+00
 -1      2195 0.00000E+00 0.00000E+00 0.00000E+00
 -1      2196 0.00000E+00 0.00000E+00 0.00000E+00
 -1      2197 0.00000E+00 0.00000E+00 0.00000E+00
 -1      2198 0.00000E+00 0.00000E+00 0.00000E+00
 -1      2199 0.00000E+00 0.00000E+00 0.00000E+00
 -1      2200 0.00000E+00 0.00000E+00 0.00000E+00
 -1      2201 0.00000E+00 0.00000E+00 0.00000E+00
 -1      2202 0.00000E+00 0.00000E+00 0.00000E+00
 -1      2203 0.00000E+00 0.00000E+00 0.00000E+00
 -1      2204 0.00000E+00 0.00000E+00 0.00000E+00
 -1      2205 0.00000E+00 0.00000E+00 0.00000E+00
 -1      2206 0.00000E+00 0.00000E+00 0.00000E+00
 -1      2207 0.00000E+00 0.00000E+00 0.00000E+00
 -1      2208 0.00000E+00 0.00000E+00 0.00000E+00
 -1      2209 0.00000E+00 0.00000E+00 0.00000E+00
 -1      2210 0.00000E+00 0.00000E+00 0.00000E+00
 -1      2211 0.00000E+00 0.00000E+00 0.00000E+00
 -1      2212 0.00000E+00 0.00000E+00 0.00000E+00
 -1      2213 0.00000E+00 0.00000E+00 0.00000E+00
 -1      2214 0.00000E+00 0.00000E+00 0.00000E+00
 -1      2215 0.00000E+00 0.00000E+00 0.00000E+00
 -1      2216 0.00000E+00 0.00000E+00 0.00000E+00
 -1      2217 0.00000E+00 0.00000E+00 0.00000E+00
 -1      2218 0.00000E+00 0.00000E+00 0.00000E+00
 -1      2219 0.00000E+00 0.00000E+00 0.00000E+00
 -1      2220 0.00000E+00 0.00000E+00 0.00000E+00
 -1      2221 0.00000E+00 0.00000E+00 0.00000E+00
 -1      2222 0.00000E+00 0.00000E+00 0.00000E+00
 -1      2223 0.00000E+00 0.00000E+00 0.00000E+00
 -1      2224 0.00000E+00 0.00000E+00 0.00000E+00
 -1      2225 0.00000E+00 0.00000E+00 0.00000E+00
 -1      2226 0.00000E+00 0.00000E+00 0.00000E+00
 -1      2227 0.00000E+00 0.00000E+00 0.00000E+00
 -1      2228 0.00000E+00 0.00000E+00 0.00000E+00
 -1      2229 0.00000E+00 0.00000E+00 0.00000E+00
 -1      2230 0.00000E+00 0.00000E+00 0.00000E+00
 -1      2231 0.00000E+00 0.00000E+00 0.00000E+00
 -1      2232 0.00000E+00 0.00000E+00 0.00000E+00
 -1      2233 0.00000E+00 0.00000E+00 0.00000E+00
 -1      2234 0.00000E+00 0.00000E+00 0.00000E+00
 -1      2235 0.00000E+00 0.00000E+00 0.00000E+00
 -1      2236 0.00000E+00 0.00000E+00 0.00000E+00
 -1      2237 0.00000E+00 0.00000E+00 0.00000E+00
 -1      2238 0.00000E+00 0.00000E+00 0.00000E+00
 -1      2239 0.00000E+00 0.00000E+00 0.00000E+00
 -1      2240 0.00000E+00 0.00000E+00 0.00000E+00
 -1      2241 0.00000E+00 0.00000E+00 0.00000E+00
 -1      2242 0.00000E+00 0.00000E+00 0.00000E+00
 -1      2243 0.00000E+00 0.00000E+00 0.00000E+00
 -1      2244 0.00000E+00 0.00000E+00 0.00000E+00
 -1      2245 0.00000E+00 0.00000E+00 0.00000E+00
 -1      2246 0.00000E+00 0.00000E+00 0.00000E+00
 -1      2247 0.00000E+00 0.00000E+00 0.00000E+00
 -1      2248 0.00000E+00 0.00000E+00 0.00000E+00
 -1      2249 0.00000E+00 0.00000E+00 0.00000E+00
 -1      2250 0.00000E+00 0.00000E+00 0.00000E+00
 -1      2251 0.00000E+00 0.00000E+00 0.00000E+00
 -1      2252 0.00000E+00 0.00000E+00 0.00000E+00
 -1      2253 0.00000E+00 0.00000E+00 0.00000E+00
 -1      2254 0.00000E+00 0.00000E+00 0.00000E+00
 -1      2255 0.00000E+00 0.00000E+00 0.00000E+00
 -1      2256 0.00000E+00 0.00000E+00 0.00000E+00
 -1      2257 0.00000E+00 0.00000E+00 0.00000E+00
 -1      2258 0.00000E+00 0.00000E+00 0.00000E+00
 -1      2259 0.00000E+00 0.00000E+00 0.00000E+00
 -1      2260 0.00000E+00 0.00000E+00 0.00000E+00
 -1      2261 0.00000E+00 0.00000E+00 0.00000E+00
 -1      2262 1.50071E-05 2.24038E-06 8.55960E-06
 -1      2263 4.16403E-06-1.84212E-05 5.58780E-03
 -1      2264-2.76847E-05 5.92480E-05 1.73813E-03
 -1      2265-3.00259E-05-5.91684E-05 1.18169E-03
 -1      2266 3.60714E-06 5.44700E-05 5.56435E-03
 -1      2267 8.97017E-06-6.76546E-06 1.27559E-06
 -1      2268-3.85879E-05 5.84465E-05 6.07467E-04
 -1      2269-1.92285E-05-6.08743E-05 2.58672E-03
 -1      2270-1.63826E-05 6.96605E-05 3.61051E-03
 -1      2271-4.30263E-05-5.23522E-05 2.34561E-04
 -1      2272 9.01528E-06-8.28074E-05 5.52192E-03
 -1      2273-4.31573E-06 9.42815E-06-1.20996E-05
 -1      2274-7.46766E-06-8.17352E-05 4.50338E-03
 -1      2275-4.70294E-05 3.62741E-05 7.99355E-06
 -1      2276 9.09975E-06 9.94906E-05 5.48316E-03
 -1      2277-2.19547E-05-1.61754E-05-2.86007E-05
 -1      2278 1.06852E-05 8.30870E-05 5.52187E-03
 -1      2279 2.33021E-06 5.71255E-05 4.52075E-03
 -1      2280 3.92980E-06 3.05611E-05 4.55974E-03
 -1      2281 8.13765E-06 3.76446E-05 3.62601E-03
 -1      2282 1.18712E-05 1.35325E-05 3.65270E-03
 -1      2283 1.83985E-05 2.34510E-05 2.82647E-03
 -1      2284 2.15654E-05 5.29514E-07 2.83993E-03
 -1      2285 2.92982E-05 1.15989E-05 2.12107E-03
 -1      2286 2.98412E-05-1.05826E-05 2.11886E-03
 -1      2287 3.90125E-05 2.28109E-07 1.50922E-03
 -1      2288 3.39995E-05 2.20269E-05 1.49739E-03
 -1      2289 3.47565E-05-2.10489E-05 1.49511E-03
 -1      2290 1.91060E-05-2.26231E-05 2.81007E-03
 -1      2291 4.60168E-05-9.98183E-06 9.91470E-04
 -1      2292 3.49567E-05-2.99055E-05 9.70225E-04
 -1      2293 2.07361E-05-4.00538E-05 1.45935E-03
 -1      2294 9.10242E-06 4.28501E-05 2.78440E-03
 -1      2295 4.63347E-05-1.75054E-05 5.77461E-04
 -1      2296 5.11483E-05 4.58368E-07 5.79601E-04
 -1      2297 2.91202E-05-3.53996E-05 5.55412E-04
 -1      2298 4.58308E-05-6.69315E-06 2.84638E-04
 -1      2299 4.47407E-05 7.54263E-06 2.62103E-04
 -1      2300 4.51824E-05 1.84460E-05 5.70737E-04
 -1      2301 3.49290E-05 2.08308E-05 2.50437E-04
 -1      2302 2.77927E-05 3.57281E-05 5.44807E-04
 -1      2303 1.40779E-05 3.32057E-05 2.24379E-04
 -1      2304-4.96314E-06 5.02667E-05 4.83337E-04
 -1      2305 1.24948E-05 4.69684E-05 9.26289E-04
 -1      2306 4.25965E-06 1.68593E-07 4.57383E-03
 -1      2307-4.13923E-06 7.36787E-05 4.35420E-03
 -1      2308 3.40070E-05 3.06793E-05 9.71236E-04
 -1      2309 1.93069E-05 4.05984E-05 1.45975E-03
 -1      2310-4.53036E-07 5.27497E-05 1.44631E-03
 -1      2311 6.09893E-06 4.82902E-05 2.04626E-03
 -1      2312-3.71540E-06-1.10360E-05-7.78790E-06
 -1      2313-6.10682E-06-3.41285E-05 1.18225E-04
 -1      2314 2.14551E-05-2.10172E-05 1.18553E-04
 -1      2315 9.88810E-07 5.57949E-05 3.56813E-03
 -1      2316 7.32789E-06-5.33652E-05 5.56650E-03
 -1      2317 2.97477E-06-5.62868E-05 4.52217E-03
 -1      2318 3.59144E-07-7.39605E-05 4.48414E-03
 -1      2319 1.90273E-06-5.55020E-05 3.55939E-03
 -1      2320-8.17151E-06-6.57394E-05 3.52918E-03
 -1      2321-3.61393E-06-5.60237E-05 2.69969E-03
 -1      2322-1.34430E-05-5.76184E-05 1.90183E-03
 -1      2323 5.76986E-06-4.90196E-05 2.00434E-03
 -1      2324-2.42507E-06-5.38500E-05 1.35391E-03
 -1      2325-1.32712E-05-5.64260E-05 8.65892E-04
 -1      2326 1.00822E-05-4.26478E-05 2.77063E-03
 -1      2327 8.60904E-06-3.69022E-05 3.61888E-03
 -1      2328 8.32597E-06 6.79793E-06 4.88960E-07
 -1      2329 1.42670E-05-4.62809E-05 9.14993E-04
 -1      2330 1.30521E-05-1.94545E-06 5.34388E-06
 -1      2331 2.10592E-05 3.24067E-05 2.09583E-03
 -1      2332 4.24598E-06-2.97876E-05 4.55974E-03
 -1      2333 4.91890E-06 1.87503E-05 5.58892E-03
 -1      2334 1.22414E-05-1.27423E-05 3.64954E-03
 -1      2335-3.75110E-06 5.57133E-05 2.71578E-03
 -1      2336 4.56428E-05 1.09347E-05 9.92322E-04
 -1      2337-1.88559E-05 6.12156E-05 2.60565E-03
 -1      2338-3.47123E-05 5.96116E-05 1.10191E-03
 -1      2339-4.36587E-05 5.23985E-05 2.34206E-04
 -1      2340 2.19269E-05-3.19266E-05 2.08403E-03
 -1      2341 1.16472E-05-9.86490E-05 5.50935E-03
 -1      2342-2.10764E-05 1.78421E-05-2.30890E-05
 -1      2343-9.37899E-06 8.48280E-05 4.61413E-03
 -1      2344-4.71944E-05-3.57541E-05 4.07817E-06
 -1      2345-3.72225E-06-4.98532E-05 4.85587E-04
 -1      2346-1.50982E-05 4.05919E-05 1.51639E-04
 -1      2347-1.38374E-05 5.71127E-05 9.82309E-04
 -1      2348-4.00865E-05-5.87401E-05 5.96817E-04
 -1      2349-1.74808E-05-6.78092E-05 3.46202E-03
 -1      2350-8.10904E-06 6.40084E-05 3.40021E-03
 -1      2351-1.03585E-05 5.68818E-05 2.02682E-03
 -1      2352 3.79474E-05-2.17233E-05 3.02651E-04
 -1      2353-2.84510E-05-5.90720E-05 1.75162E-03
 -1      2354 1.63775E-05-3.67980E-05 3.05341E-04
 -1      2355 1.79862E-05 1.87140E-05 8.84223E-05
 -1      2356 3.07279E-05 9.86183E-06 1.01508E-04
 -1      2357 3.48857E-05-3.47869E-08 1.05943E-04
 -1      2358 3.50344E-06 1.03862E-04 5.51064E-03
 -1      2359-4.56224E-05-1.75696E-05-5.82253E-05
 -1      2360 3.24084E-05-9.82121E-06 1.12439E-04
 -1      2361 7.44986E-06-1.02151E-04 5.52788E-03
 -1      2362-4.58212E-05 1.73986E-05-5.86672E-05
 -1      2363-4.75743E-07 2.56834E-05 6.54220E-05
 -1      2364-1.80053E-05 5.82386E-05 1.47476E-03
 -1      2365 1.29367E-05-1.07951E-04 5.94924E-03
 -1      2366 2.02586E-05-1.11489E-04 6.02195E-03
 -1      2367-2.31213E-06-9.55850E-05 5.30083E-03
 -1      2368 1.42654E-05 1.13833E-04 6.01085E-03
 -1      2369 8.30005E-06 1.09750E-04 5.93848E-03
 -1      2370-6.11371E-06 9.68530E-05 5.29131E-03
 -1      2371-6.44965E-05 2.49376E-05-7.52078E-05
 -1      2372-3.89488E-05 8.57636E-06-5.22720E-05
 -1      2373-2.57294E-05 5.93039E-06-3.95690E-05
 -1      2374-3.91422E-05-8.71395E-06-5.26326E-05
 -1      2375-6.40991E-05-2.49656E-05-7.46293E-05
 -1      2376-2.58454E-05-5.82766E-06-3.98893E-05
 -1      2377 2.15261E-05-1.09895E-04 6.00928E-03
 -1      2378 2.05377E-05-1.07115E-04 6.05641E-03
 -1      2379 1.06825E-05-1.01508E-04 5.52233E-03
 -1      2380 1.74164E-05-9.70518E-05 6.05885E-03
 -1      2381 1.41080E-05-8.33750E-05 6.08886E-03
 -1      2382 1.16846E-05-9.24802E-05 5.52002E-03
 -1      2383 1.21032E-05-6.63232E-05 6.10832E-03
 -1      2384 1.24304E-05-4.80394E-05 6.12775E-03
 -1      2385 7.70719E-06-6.92079E-05 5.54671E-03
 -1      2386 1.02475E-05-2.93109E-05 6.13748E-03
 -1      2387 9.04798E-06-9.80354E-06 6.14319E-03
 -1      2388 4.97050E-06-3.61299E-05 5.57928E-03
 -1      2389 1.04980E-05 1.01528E-05 6.14410E-03
 -1      2390 1.09470E-05 2.88735E-05 6.13724E-03
 -1      2391 4.65582E-06 2.93011E-07 5.59080E-03
 -1      2392 1.05823E-05 4.92892E-05 6.12478E-03
 -1      2393 1.03049E-05 6.68336E-05 6.10770E-03
 -1      2394 4.53580E-06 3.71708E-05 5.57920E-03
 -1      2395 1.43778E-05 8.39147E-05 6.08737E-03
 -1      2396 1.81270E-05 9.78335E-05 6.05734E-03
 -1      2397 7.18660E-06 6.97272E-05 5.54568E-03
 -1      2398 1.89333E-05 1.07082E-04 6.04296E-03
 -1      2399 1.66904E-05 1.12615E-04 5.99315E-03
 -1      2400 1.09859E-05 9.28310E-05 5.50698E-03
 -1      2401 7.44014E-06 1.02787E-04 5.50035E-03
 -1      2402-1.23472E-05 8.79749E-05 4.84105E-03
 -1      2403-1.81196E-05 7.85832E-05 4.26260E-03
 -1      2404-4.17219E-06 9.32833E-05 5.05139E-03
 -1      2405-2.05506E-05 7.16954E-05 3.76294E-03
 -1      2406-2.26914E-05 6.64843E-05 3.25339E-03
 -1      2407-1.37029E-05 7.61591E-05 4.09677E-03
 -1      2408-2.41365E-05 6.25237E-05 2.75389E-03
 -1      2409-2.67138E-05 6.03198E-05 2.31822E-03
 -1      2410-1.76246E-05 6.44125E-05 3.08773E-03
 -1      2411-3.10840E-05 5.90494E-05 1.88213E-03
 -1      2412-3.49706E-05 5.87158E-05 1.52068E-03
 -1      2413-2.29601E-05 5.98486E-05 2.15233E-03
 -1      2414-3.92819E-05 5.88948E-05 1.20300E-03
 -1      2415-4.37549E-05 5.91076E-05 9.12882E-04
 -1      2416-3.10275E-05 5.94906E-05 1.40307E-03
 -1      2417-4.75129E-05 5.88177E-05 6.68742E-04
 -1      2418-5.24817E-05 5.71930E-05 4.50107E-04
 -1      2419-3.68912E-05 5.95315E-05 8.37844E-04
 -1      2420-5.70174E-05 5.44097E-05 2.67706E-04
 -1      2421-6.12535E-05 4.97050E-05 1.22234E-04
 -1      2422-4.14546E-05 5.65814E-05 4.02830E-04
 -1      2423-6.46868E-05 4.25522E-05 1.49804E-05
 -1      2424-6.52406E-05 3.29011E-05-5.07188E-05
 -1      2425-4.59286E-05 4.59157E-05 1.02056E-04
 -1      2426-4.86214E-05 2.77001E-05-3.94038E-05
 -1      2427-6.51968E-05-3.27124E-05-5.20902E-05
 -1      2428-6.45700E-05-4.24175E-05 1.28001E-05
 -1      2429-4.83563E-05-2.75824E-05-3.97337E-05
 -1      2430-6.07223E-05-4.97205E-05 1.22782E-04
 -1      2431-5.63159E-05-5.43169E-05 2.68282E-04
 -1      2432-4.57405E-05-4.56989E-05 9.95415E-05
 -1      2433-5.27131E-05-5.71450E-05 4.44434E-04
 -1      2434-4.77330E-05-5.86706E-05 6.62733E-04
 -1      2435-4.20965E-05-5.66184E-05 3.98215E-04
 -1      2436-4.14451E-05-5.89887E-05 9.51918E-04
 -1      2437-3.68644E-05-5.86810E-05 1.24623E-03
 -1      2438-3.49760E-05-5.94780E-05 8.67661E-04
 -1      2439-3.44261E-05-5.84060E-05 1.52612E-03
 -1      2440-3.02772E-05-5.86490E-05 1.88922E-03
 -1      2441-2.94727E-05-5.92029E-05 1.45261E-03
 -1      2442-2.57273E-05-5.98126E-05 2.30824E-03
 -1      2443-2.31246E-05-6.19258E-05 2.74389E-03
 -1      2444-2.35307E-05-5.94942E-05 2.15147E-03
 -1      2445-2.21318E-05-6.51892E-05 3.17998E-03
 -1      2446-1.98383E-05-7.01311E-05 3.68561E-03
 -1      2447-1.83473E-05-6.36795E-05 3.00818E-03
 -1      2448-1.53313E-05-7.70119E-05 4.21103E-03
 -1      2449-9.35075E-06-8.60067E-05 4.78584E-03
 -1      2450-1.30759E-05-7.35629E-05 3.96796E-03
 -1      2451-1.40032E-06-9.09434E-05 5.00140E-03
 -1      2452-1.25674E-05-4.91043E-06-2.77606E-05
 -1      2453-2.16633E-05-5.50098E-06-3.56951E-05
 -1      2454-3.44452E-05-1.59576E-05-4.33479E-05
 -1      2455-3.89961E-06-3.54812E-06-1.86672E-05
 -1      2456-9.24917E-06-4.30724E-06-2.21476E-05
 -1      2457-1.24839E-05-1.33488E-05-1.73368E-05
 -1      2458 5.58146E-07-2.11722E-06-1.32786E-05
 -1      2459-1.62040E-06-2.76609E-06-1.52731E-05
 -1      2460 3.30366E-06-8.59058E-06-2.17026E-06
 -1      2461 3.10067E-06-1.12910E-06-1.28647E-05
 -1      2462 3.03729E-06-1.34848E-06-1.23250E-05
 -1      2463 1.15486E-05-4.51293E-06 3.82512E-06
 -1      2464 2.31996E-06 1.46081E-06-1.17162E-05
 -1      2465 3.80588E-06 1.05994E-06-1.29447E-05
 -1      2466 1.44544E-05 1.76301E-07 8.50865E-06
 -1      2467-1.82068E-06 2.55283E-06-1.50758E-05
 -1      2468 1.71822E-06 2.17540E-06-1.38138E-05
 -1      2469 1.19489E-05 4.53366E-06 4.96131E-06
 -1      2470-9.11611E-06 3.59898E-06-2.17277E-05
 -1      2471-3.98642E-06 2.97598E-06-1.83208E-05
 -1      2472 2.22530E-06 7.96905E-06-5.10876E-06
 -1      2473-2.24849E-05 6.34668E-06-3.66252E-05
 -1      2474-1.28138E-05 5.45449E-06-2.84297E-05
 -1      2475-1.18047E-05 1.29332E-05-1.65145E-05
 -1      2476-3.47188E-05 1.68435E-05-4.21867E-05
 -1      2477 1.99288E-05 8.91058E-06 4.14605E-05
 -1      2478 2.38233E-05 5.41482E-06 4.67426E-05
 -1      2479 2.58657E-05 1.94104E-06 4.89384E-05
 -1      2480 2.47624E-05-1.84862E-06 4.61055E-05
 -1      2481 3.39038E-05 4.88991E-06 1.04858E-04
 -1      2482 2.87554E-06-2.46703E-05 5.06163E-03
 -1      2483 4.47777E-06-1.48514E-05 4.57043E-03
 -1      2484 2.77954E-06-8.38587E-06 5.06812E-03
 -1      2485 3.49441E-06 8.72242E-06 5.06931E-03
 -1      2486 4.36681E-06-4.06406E-05 5.05066E-03
 -1      2487-1.52828E-05 5.91134E-05 2.30763E-03
 -1      2488-1.90906E-05 5.86982E-05 1.88506E-03
 -1      2489-2.34718E-05 5.90389E-05 1.60451E-03
 -1      2490-2.61452E-05 5.92662E-05 1.28527E-03
 -1      2491-1.39560E-05 5.75654E-05 1.74154E-03
 -1      2492-1.62993E-05-5.76791E-05 1.27345E-03
 -1      2493-8.60924E-06-5.61124E-05 1.61672E-03
 -1      2494-2.11441E-05-5.88541E-05 1.52552E-03
 -1      2495-2.14194E-05-5.88997E-05 1.83014E-03
 -1      2496-2.27164E-05-5.86371E-05 1.01913E-03
 -1      2497-7.37250E-06-5.55888E-05 1.09871E-03
 -1      2498-2.63516E-05-5.81596E-05 7.31001E-04
 -1      2499 2.35377E-06 5.61992E-05 5.03054E-03
 -1      2500 3.90474E-06 6.92410E-05 5.00690E-03
 -1      2501 2.38948E-06 4.12917E-05 5.04896E-03
 -1      2502 2.81250E-06 4.44029E-05 4.54362E-03
 -1      2503 3.77696E-06 2.53913E-05 5.06253E-03
 -1      2504 1.69696E-05-1.30894E-05 4.72979E-05
 -1      2505 9.34154E-06-1.71483E-05 4.20295E-05
 -1      2506 2.10619E-05-8.99633E-06 4.55318E-05
 -1      2507 2.83815E-05-1.51738E-05 1.16948E-04
 -1      2508 2.41004E-05-5.12883E-06 4.88416E-05
 -1      2509-2.33892E-05 5.23722E-05 3.56364E-04
 -1      2510-2.24169E-05 5.55456E-05 5.47841E-04
 -1      2511-2.57334E-05 5.84905E-05 7.89412E-04
 -1      2512-9.91599E-06 5.48067E-05 7.12856E-04
 -1      2513-2.52917E-05 5.90922E-05 1.04393E-03
 -1      2514-1.16161E-05-5.93780E-05 2.64936E-03
 -1      2515-6.22456E-06-6.03141E-05 3.10031E-03
 -1      2516-1.33737E-05-6.29571E-05 3.04482E-03
 -1      2517-1.26763E-05-6.72847E-05 3.49916E-03
 -1      2518-1.70196E-05-5.90993E-05 2.23110E-03
 -1      2519-8.02979E-06-5.67271E-05 2.28693E-03
 -1      2520-6.08583E-06 8.06148E-05 4.48683E-03
 -1      2521-9.18874E-06 7.25065E-05 3.98124E-03
 -1      2522-6.19332E-06 6.81370E-05 3.86357E-03
 -1      2523-1.21225E-05 6.72102E-05 3.50681E-03
 -1      2524-1.31261E-05 6.24257E-05 2.99474E-03
 -1      2525-2.49421E-05-3.55647E-05 6.14425E-05
 -1      2526-2.31290E-05-4.47737E-05 1.76878E-04
 -1      2527-4.31716E-06-4.42107E-05 2.76890E-04
 -1      2528-2.21974E-05-5.20639E-05 3.58091E-04
 -1      2529-2.27136E-05-5.57675E-05 5.44935E-04
 -1      2530 3.96959E-06-6.87186E-05 5.00845E-03
 -1      2531 4.63684E-06-5.55069E-05 5.03249E-03
 -1      2532 4.37308E-06-7.89274E-05 4.99219E-03
 -1      2533 1.70469E-06-6.64121E-05 4.50700E-03
 -1      2534 4.43810E-06-8.53438E-05 4.98195E-03
 -1      2535 6.90303E-06 1.49416E-05 2.68396E-05
 -1      2536 1.44619E-05 1.19113E-05 3.58532E-05
 -1      2537-1.15862E-05 2.23835E-05 1.38918E-05
 -1      2538-9.84688E-07 1.69794E-05 1.78487E-05
 -1      2539 1.00959E-05 2.22778E-05 7.84217E-05
 -1      2540-8.46060E-06-7.30316E-05 4.00096E-03
 -1      2541-3.94851E-06-6.93988E-05 3.99566E-03
 -1      2542-2.58950E-06-7.93843E-05 4.49947E-03
 -1      2543 1.83006E-06-9.01304E-05 4.99752E-03
 -1      2544-2.91936E-05 4.75432E-05 1.93378E-04
 -1      2545-3.06392E-05 3.91945E-05 7.46028E-05
 -1      2546-1.83168E-05 3.05618E-05 4.12113E-05
 -1      2547-3.23792E-05 2.71255E-05-8.95912E-06
 -1      2548 2.96506E-06 7.92572E-05 4.92478E-03
 -1      2549 5.56267E-07 8.57601E-05 4.90052E-03
 -1      2550-2.74030E-07 9.22387E-05 5.04429E-03
 -1      2551-1.72561E-06-2.22653E-05 4.09063E-05
 -1      2552-1.48201E-05-2.65822E-05 2.42416E-05
 -1      2553-3.30367E-05-2.61004E-05-1.54366E-05
 -1      2554 1.79490E-07 6.73065E-05 4.44391E-03
 -1      2555 5.98011E-06 3.44999E-05 4.08189E-03
 -1      2556 4.46054E-06 4.65379E-05 4.06171E-03
 -1      2557 5.02917E-06 4.75654E-05 3.60090E-03
 -1      2558 2.00548E-06 5.64444E-05 4.03328E-03
 -1      2559-2.28132E-06 6.45022E-05 3.95170E-03
 -1      2560 7.36288E-06 2.15032E-05 4.09482E-03
 -1      2561 1.04817E-05 2.60577E-05 3.64298E-03
 -1      2562 4.02528E-06 1.56642E-05 4.56985E-03
 -1      2563 7.81737E-06 7.39053E-06 4.10176E-03
 -1      2564 1.55564E-05 1.87192E-05 3.22803E-03
 -1      2565 1.30777E-05 3.01526E-05 3.21456E-03
 -1      2566 1.45008E-05 3.36288E-05 2.80914E-03
 -1      2567 9.19915E-06 4.04035E-05 3.19339E-03
 -1      2568 4.72457E-06 4.90048E-05 3.16445E-03
 -1      2569 1.68314E-05 6.63077E-06 3.23474E-03
 -1      2570 2.06730E-05 1.22091E-05 2.83667E-03
 -1      2571 1.25102E-05 3.20889E-07 3.65454E-03
 -1      2572 1.69793E-05-5.77666E-06 3.23326E-03
 -1      2573 8.12654E-06-6.82632E-06 4.10010E-03
 -1      2574 2.57381E-05 6.21681E-06 2.46870E-03
 -1      2575 2.39029E-05 1.73807E-05 2.46216E-03
 -1      2576 2.62269E-05 2.23708E-05 2.11188E-03
 -1      2577 2.02428E-05 2.79809E-05 2.44923E-03
 -1      2578 1.49625E-05 3.74684E-05 2.42853E-03
 -1      2579 2.60204E-05-5.22224E-06 2.46744E-03
 -1      2580 3.05483E-05 5.18349E-07 2.12319E-03
 -1      2581 2.10958E-05-1.12740E-05 2.82846E-03
 -1      2582 2.44868E-05-1.64956E-05 2.45328E-03
 -1      2583 1.59914E-05-1.78728E-05 3.21772E-03
 -1      2584 3.47268E-05-5.02559E-06 1.80241E-03
 -1      2585 3.44942E-05 5.88733E-06 1.80343E-03
 -1      2586 3.78091E-05 1.12812E-05 1.50632E-03
 -1      2587 3.21291E-05 1.69963E-05 1.79729E-03
 -1      2588 2.75706E-05 2.72436E-05 1.78509E-03
 -1      2589 3.27253E-05-1.60097E-05 1.79493E-03
 -1      2590 3.81534E-05-1.05107E-05 1.50509E-03
 -1      2591 2.68442E-05-2.16323E-05 2.10505E-03
 -1      2592 2.83605E-05-2.65336E-05 1.77850E-03
 -1      2593 2.09972E-05-2.73510E-05 2.43526E-03
 -1      2594 4.28811E-05 5.86315E-06 1.23899E-03
 -1      2595 4.02379E-05 1.64422E-05 1.23344E-03
 -1      2596 4.07621E-05-1.55588E-05 1.23191E-03
 -1      2597 4.30991E-05-5.01216E-06 1.23847E-03
 -1      2598 4.70436E-05 4.61541E-07 9.94425E-04
 -1      2599 2.68329E-05 3.59337E-05 1.20449E-03
 -1      2600 2.76152E-05 3.16680E-05 1.48198E-03
 -1      2601 3.45208E-05 2.67521E-05 1.22202E-03
 -1      2602 4.11162E-05 2.09877E-05 9.84544E-04
 -1      2603 2.06891E-05 3.66941E-05 1.76539E-03
 -1      2604 3.55239E-05-2.58707E-05 1.22048E-03
 -1      2605 4.18228E-05-2.01388E-05 9.83510E-04
 -1      2606 2.88456E-05-3.09474E-05 1.48056E-03
 -1      2607 2.80563E-05-3.51661E-05 1.20373E-03
 -1      2608 2.18134E-05-3.61343E-05 1.75958E-03
 -1      2609 1.36110E-05-2.93769E-05 3.20253E-03
 -1      2610 9.89708E-06-3.99219E-05 3.18293E-03
 -1      2611 1.52292E-05-3.32113E-05 2.79423E-03
 -1      2612 1.57426E-05-3.72278E-05 2.41579E-03
 -1      2613 1.08210E-05-2.52480E-05 3.63794E-03
 -1      2614 4.16549E-05-2.37553E-05 7.63115E-04
 -1      2615 4.70271E-05-1.42518E-05 7.72453E-04
 -1      2616 4.99334E-05-8.55799E-06 5.80436E-04
 -1      2617 4.94701E-05-4.40936E-06 7.73826E-04
 -1      2618 4.93089E-05 5.37857E-06 7.74183E-04
 -1      2619 1.79898E-05-4.36500E-05 1.17387E-03
 -1      2620 2.57349E-05-3.84120E-05 9.45890E-04
 -1      2621 3.29733E-05-3.32550E-05 7.50864E-04
 -1      2622 3.94292E-05-2.67251E-05 5.69053E-04
 -1      2623 2.21101E-05-4.11941E-05 7.25811E-04
 -1      2624 2.19840E-06-5.15940E-05 1.66572E-03
 -1      2625 1.00333E-05-4.77344E-05 1.41094E-03
 -1      2626 1.29246E-05-4.48110E-05 1.72208E-03
 -1      2627 1.46369E-05-4.12058E-05 2.04852E-03
 -1      2628 5.48115E-06-5.07507E-05 1.12493E-03
 -1      2629 1.42553E-05 4.09506E-05 2.07488E-03
 -1      2630 8.19467E-06 4.56609E-05 2.40331E-03
 -1      2631 7.62025E-07 5.19988E-05 2.36947E-03
 -1      2632 3.27070E-06 5.01312E-05 2.75388E-03
 -1      2633-9.51783E-07 5.56147E-05 3.13007E-03
 -1      2634 4.74471E-05-1.16184E-05 4.20577E-04
 -1      2635 5.02354E-05-3.80157E-06 4.21417E-04
 -1      2636 3.47042E-05-2.84292E-05 4.21483E-04
 -1      2637 4.31081E-05-2.05646E-05 4.31276E-04
 -1      2638 4.35589E-05-1.42240E-05 2.95401E-04
 -1      2639 4.71505E-05 4.81129E-07 2.74841E-04
 -1      2640 4.99095E-05 4.70615E-06 4.08018E-04
 -1      2641 4.65955E-05 1.25740E-05 4.04225E-04
 -1      2642 4.94360E-05 9.49604E-06 5.77310E-04
 -1      2643 4.62106E-05 1.52907E-05 7.69234E-04
 -1      2644 6.40159E-06-4.90719E-05 6.87723E-04
 -1      2645 1.46011E-05-4.32074E-05 5.24746E-04
 -1      2646 7.04682E-06-4.39297E-05 3.92079E-04
 -1      2647 2.33708E-05-3.68114E-05 4.23330E-04
 -1      2648 2.86696E-05-2.94022E-05 3.06200E-04
 -1      2649 4.18682E-05-2.66900E-06 1.86506E-04
 -1      2650 4.12736E-05 2.96530E-06 1.76968E-04
 -1      2651 3.71658E-05-1.54830E-05 1.98426E-04
 -1      2652 4.02817E-05-9.11305E-06 1.90722E-04
 -1      2653 3.44133E-05-4.81088E-06 1.10498E-04
 -1      2654 4.10654E-05 1.41766E-05 2.58024E-04
 -1      2655 4.13605E-05 2.08037E-05 3.97413E-04
 -1      2656 3.87708E-05 9.40973E-06 1.74271E-04
 -1      2657 3.43918E-05 1.48794E-05 1.69496E-04
 -1      2658 3.31933E-05 2.82383E-05 3.86317E-04
 -1      2659 3.82353E-05 2.74060E-05 5.60318E-04
 -1      2660 3.19921E-05 3.39578E-05 7.45099E-04
 -1      2661 4.06085E-05 2.47504E-05 7.59815E-04
 -1      2662 2.61026E-05 2.73225E-05 2.39818E-04
 -1      2663 2.21436E-05 3.58085E-05 3.70805E-04
 -1      2664 2.71467E-05 2.06700E-05 1.61809E-04
 -1      2665 1.75499E-05 2.58535E-05 1.50679E-04
 -1      2666 2.53764E-05 1.42552E-05 9.65092E-05
 -1      2667 5.76798E-06 4.27118E-05 3.44493E-04
 -1      2668 1.30936E-05 4.33846E-05 5.18398E-04
 -1      2669 4.65461E-06 4.97044E-05 6.91272E-04
 -1      2670 2.06856E-05 4.17369E-05 7.24754E-04
 -1      2671 2.45580E-05 3.92410E-05 9.52029E-04
 -1      2672 3.75695E-07 3.72337E-05 1.89159E-04
 -1      2673-9.74449E-06 4.69395E-05 2.99324E-04
 -1      2674 7.46044E-06 3.02064E-05 1.36461E-04
 -1      2675-6.30389E-06 3.28476E-05 1.05854E-04
 -1      2676-5.09927E-07 5.26429E-05 9.57587E-04
 -1      2677 1.66318E-05 4.42691E-05 1.18031E-03
 -1      2678 5.73706E-06 5.03245E-05 1.17284E-03
 -1      2679 1.00188E-05 4.72725E-05 1.45629E-03
 -1      2680-6.64565E-06 5.53176E-05 1.20612E-03
 -1      2681 7.81488E-06-2.07149E-05 4.09326E-03
 -1      2682-3.35095E-06 6.06221E-05 3.48707E-03
 -1      2683 3.31444E-06 5.06915E-05 1.73529E-03
 -1      2684 1.24116E-05 4.46750E-05 1.74144E-03
 -1      2685-5.95472E-06 5.49772E-05 1.72464E-03
 -1      2686-2.00109E-06 5.32720E-05 2.03986E-03
 -1      2687-1.64052E-05 5.79452E-05 1.21639E-03
 -1      2688-9.38192E-06 5.59449E-05 1.46294E-03
 -1      2689-6.70138E-06 5.62089E-05 2.36066E-03
 -1      2690 1.02066E-05-2.75160E-05 1.21562E-04
 -1      2691 2.06867E-05-2.88000E-05 2.03552E-04
 -1      2692 5.76452E-06-3.64847E-05 2.04901E-04
 -1      2693 3.06391E-05-2.22600E-05 2.02638E-04
 -1      2694-6.20652E-06 5.94434E-05 3.04813E-03
 -1      2695 3.43638E-06-4.37723E-05 4.54412E-03
 -1      2696-3.97424E-08-6.37751E-05 4.00797E-03
 -1      2697 2.66398E-06-5.58722E-05 4.02914E-03
 -1      2698 5.52774E-06-4.71656E-05 3.59290E-03
 -1      2699 4.81923E-06-4.57808E-05 4.05819E-03
 -1      2700 6.56110E-06-3.36273E-05 4.07798E-03
 -1      2701-2.74660E-06-6.15156E-05 3.54883E-03
 -1      2702-2.17880E-07-5.55522E-05 3.11778E-03
 -1      2703 3.74664E-06-5.02677E-05 2.73971E-03
 -1      2704 5.48886E-06-4.87061E-05 3.15295E-03
 -1      2705-3.69815E-06-5.41363E-05 1.95762E-03
 -1      2706 6.29878E-07-5.23305E-05 2.33925E-03
 -1      2707 8.59116E-06-4.59093E-05 2.37470E-03
 -1      2708 1.03208E-06-5.22212E-05 8.93995E-04
 -1      2709-8.76119E-06-5.39841E-05 6.63480E-04
 -1      2710-1.13817E-05 5.92251E-05 2.66606E-03
 -1      2711-1.00000E-02 0.00000E+00 0.00000E+00
 -1      2712-1.00000E-02 0.00000E+00 0.00000E+00
 -1      2713-1.00000E-02 0.00000E+00 0.00000E+00
 -1      2714-1.00000E-02 0.00000E+00 0.00000E+00
 -1      2715-1.00000E-02 0.00000E+00 0.00000E+00
 -1      2716-1.00000E-02 0.00000E+00 0.00000E+00
 -1      2717-1.00000E-02 0.00000E+00 0.00000E+00
 -1      2718-1.00000E-02 0.00000E+00 0.00000E+00
 -1      2719-1.00000E-02 0.00000E+00 0.00000E+00
 -1      2720-1.00000E-02 0.00000E+00 0.00000E+00
 -1      2721-1.00000E-02 0.00000E+00 0.00000E+00
 -1      2722-1.00000E-02 0.00000E+00 0.00000E+00
 -1      2723-1.00000E-02 0.00000E+00 0.00000E+00
 -1      2724-1.00000E-02 0.00000E+00 0.00000E+00
 -1      2725-1.00000E-02 0.00000E+00 0.00000E+00
 -1      2726-1.00000E-02 0.00000E+00 0.00000E+00
 -1      2727-1.00000E-02 0.00000E+00 0.00000E+00
 -1      2728-1.00000E-02 0.00000E+00 0.00000E+00
 -1      2729-1.00000E-02 0.00000E+00 0.00000E+00
 -1      2730-1.00000E-02 0.00000E+00 0.00000E+00
 -1      2731-1.00000E-02 0.00000E+00 0.00000E+00
 -1      2732-1.00000E-02 0.00000E+00 0.00000E+00
 -1      2733-1.00000E-02 0.00000E+00 0.00000E+00
 -1      2734-1.00000E-02 0.00000E+00 0.00000E+00
 -1      2735-1.00000E-02 0.00000E+00 0.00000E+00
 -1      2736-1.00000E-02 0.00000E+00 0.00000E+00
 -1      2737-1.00000E-02 0.00000E+00 0.00000E+00
 -1      2738-1.00000E-02 0.00000E+00 0.00000E+00
 -1      2739-1.00000E-02 0.00000E+00 0.00000E+00
 -1      2740-1.00000E-02 0.00000E+00 0.00000E+00
 -1      2741-1.00000E-02 0.00000E+00 0.00000E+00
 -1      2742-1.00000E-02 0.00000E+00 0.00000E+00
 -1      2743-1.00000E-02 0.00000E+00 0.00000E+00
 -1      2744-1.00000E-02 0.00000E+00 0.00000E+00
 -1      2745-1.00000E-02 0.00000E+00 0.00000E+00
 -1      2746-1.00000E-02 0.00000E+00 0.00000E+00
 -1      2747-1.00000E-02 0.00000E+00 0.00000E+00
 -1      2748-1.00000E-02 0.00000E+00 0.00000E+00
 -1      2749-1.00000E-02 0.00000E+00 0.00000E+00
 -1      2750-1.00000E-02 0.00000E+00 0.00000E+00
 -1      2751-1.00000E-02 0.00000E+00 0.00000E+00
 -1      2752-1.00000E-02 0.00000E+00 0.00000E+00
 -1      2753-1.00000E-02 0.00000E+00 0.00000E+00
 -1      2754-1.00000E-02 0.00000E+00 0.00000E+00
 -1      2755-1.00000E-02 0.00000E+00 0.00000E+00
 -1      2756-1.00000E-02 0.00000E+00 0.00000E+00
 -1      2757-1.00000E-02 0.00000E+00 0.00000E+00
 -1      2758-1.00000E-02 0.00000E+00 0.00000E+00
 -1      2759-1.00000E-02 0.00000E+00 0.00000E+00
 -1      2760-1.00000E-02 0.00000E+00 0.00000E+00
 -1      2761-1.00000E-02 0.00000E+00 0.00000E+00
 -1      2762-1.00000E-02 0.00000E+00 0.00000E+00
 -1      2763-1.00000E-02 0.00000E+00 0.00000E+00
 -1      2764-1.00000E-02 0.00000E+00 0.00000E+00
 -1      2765-1.00000E-02 0.00000E+00 0.00000E+00
 -1      2766-1.00000E-02 0.00000E+00 0.00000E+00
 -1      2767-1.00000E-02 0.00000E+00 0.00000E+00
 -1      2768-1.00000E-02 0.00000E+00 0.00000E+00
 -1      2769-1.00000E-02 0.00000E+00 0.00000E+00
 -1      2770-1.00000E-02 0.00000E+00 0.00000E+00
 -1      2771-1.00000E-02 0.00000E+00 0.00000E+00
 -1      2772-1.00000E-02 0.00000E+00 0.00000E+00
 -1      2773-1.00000E-02 0.00000E+00 0.00000E+00
 -1      2774-1.00000E-02 0.00000E+00 0.00000E+00
 -1      2775-1.00000E-02 0.00000E+00 0.00000E+00
 -1      2776-1.00000E-02 0.00000E+00 0.00000E+00
 -1      2777-1.00000E-02 0.00000E+00 0.00000E+00
 -1      2778-1.00000E-02 0.00000E+00 0.00000E+00
 -1      2779-1.00000E-02 0.00000E+00 0.00000E+00
 -1      2780-1.00000E-02 0.00000E+00 0.00000E+00
 -1      2781-1.00000E-02 0.00000E+00 0.00000E+00
 -1      2782-1.00000E-02 0.00000E+00 0.00000E+00
 -1      2783-1.00000E-02 0.00000E+00 0.00000E+00
 -1      2784-1.00000E-02 0.00000E+00 0.00000E+00
 -1      2785-1.00000E-02 0.00000E+00 0.00000E+00
 -1      2786-1.00000E-02 0.00000E+00 0.00000E+00
 -1      2787-1.00000E-02 0.00000E+00 0.00000E+00
 -1      2788-1.00000E-02 0.00000E+00 0.00000E+00
 -1      2789-1.00000E-02 0.00000E+00 0.00000E+00
 -1      2790-1.00000E-02 0.00000E+00 0.00000E+00
 -1      2791-1.00000E-02 0.00000E+00 0.00000E+00
 -1      2792-1.00000E-02 0.00000E+00 0.00000E+00
 -1      2793-1.00000E-02 0.00000E+00 0.00000E+00
 -1      2794-1.00000E-02 0.00000E+00 0.00000E+00
 -1      2795-1.00000E-02 0.00000E+00 0.00000E+00
 -1      2796-1.00000E-02 0.00000E+00 0.00000E+00
 -1      2797-1.00000E-02 0.00000E+00 0.00000E+00
 -1      2798-1.00000E-02 0.00000E+00 0.00000E+00
 -1      2799-1.00000E-02 0.00000E+00 0.00000E+00
 -1      2800-1.00000E-02 0.00000E+00 0.00000E+00
 -1      2801-1.00000E-02 0.00000E+00 0.00000E+00
 -1      2802-1.00000E-02 0.00000E+00 0.00000E+00
 -1      2803-1.00000E-02 0.00000E+00 0.00000E+00
 -1      2804-1.00000E-02 0.00000E+00 0.00000E+00
 -1      2805-1.00000E-02 0.00000E+00 0.00000E+00
 -1      2806-1.00000E-02 0.00000E+00 0.00000E+00
 -1      2807-1.00000E-02 0.00000E+00 0.00000E+00
 -1      2808-1.00000E-02 0.00000E+00 0.00000E+00
 -1      2809-1.00000E-02 0.00000E+00 0.00000E+00
 -1      2810-1.00000E-02 0.00000E+00 0.00000E+00
 -1      2811-1.00000E-02 0.00000E+00 0.00000E+00
 -1      2812-1.00000E-02 0.00000E+00 0.00000E+00
 -1      2813-1.00000E-02 0.00000E+00 0.00000E+00
 -1      2814-1.00000E-02 0.00000E+00 0.00000E+00
 -1      2815-1.00000E-02 0.00000E+00 0.00000E+00
 -1      2816-1.00000E-02 0.00000E+00 0.00000E+00
 -1      2817-1.00000E-02 0.00000E+00 0.00000E+00
 -1      2818-1.00000E-02 0.00000E+00 0.00000E+00
 -1      2819-1.00000E-02 0.00000E+00 0.00000E+00
 -1      2820-1.00000E-02 0.00000E+00 0.00000E+00
 -1      2821-1.00000E-02 0.00000E+00 0.00000E+00
 -1      2822-1.00000E-02 0.00000E+00 0.00000E+00
 -1      2823-1.00000E-02 0.00000E+00 0.00000E+00
 -1      2824-1.00000E-02 0.00000E+00 0.00000E+00
 -1      2825-1.00000E-02 0.00000E+00 0.00000E+00
 -1      2826-1.00000E-02 0.00000E+00 0.00000E+00
 -1      2827-1.00000E-02 0.00000E+00 0.00000E+00
 -1      2828-1.00000E-02 0.00000E+00 0.00000E+00
 -1      2829-1.00000E-02 0.00000E+00 0.00000E+00
 -1      2830-1.00000E-02 0.00000E+00 0.00000E+00
 -1      2831-1.00000E-02 0.00000E+00 0.00000E+00
 -1      2832-1.00000E-02 0.00000E+00 0.00000E+00
 -1      2833-1.00000E-02 0.00000E+00 0.00000E+00
 -1      2834-1.00000E-02 0.00000E+00 0.00000E+00
 -1      2835-1.00000E-02 0.00000E+00 0.00000E+00
 -1      2836-1.00000E-02 0.00000E+00 0.00000E+00
 -1      2837-1.00000E-02 0.00000E+00 0.00000E+00
 -1      2838-1.00000E-02 0.00000E+00 0.00000E+00
 -1      2839-1.00000E-02 0.00000E+00 0.00000E+00
 -1      2840-1.00000E-02 0.00000E+00 0.00000E+00
 -1      2841-1.00000E-02 0.00000E+00 0.00000E+00
 -1      2842-1.00000E-02 0.00000E+00 0.00000E+00
 -1      2843-1.00000E-02 0.00000E+00 0.00000E+00
 -1      2844-1.00000E-02 0.00000E+00 0.00000E+00
 -1      2845-1.00000E-02 0.00000E+00 0.00000E+00
 -1      2846-1.00000E-02 0.00000E+00 0.00000E+00
 -1      2847-1.00000E-02 0.00000E+00 0.00000E+00
 -1      2848-1.00000E-02 0.00000E+00 0.00000E+00
 -1      2849-1.00000E-02 0.00000E+00 0.00000E+00
 -1      2850-1.00000E-02 0.00000E+00 0.00000E+00
 -1      2851-1.00000E-02 0.00000E+00 0.00000E+00
 -1      2852-1.00000E-02 0.00000E+00 0.00000E+00
 -1      2853-1.00000E-02 0.00000E+00 0.00000E+00
 -1      2854-1.00000E-02 0.00000E+00 0.00000E+00
 -1      2855-1.00000E-02 0.00000E+00 0.00000E+00
 -1      2856-1.00000E-02 0.00000E+00 0.00000E+00
 -1      2857-1.00000E-02 0.00000E+00 0.00000E+00
 -1      2858-1.00000E-02 0.00000E+00 0.00000E+00
 -1      2859-1.00000E-02 0.00000E+00 0.00000E+00
 -1      2860-1.00000E-02 0.00000E+00 0.00000E+00
 -1      2861-1.00000E-02 0.00000E+00 0.00000E+00
 -1      2862-1.00000E-02 0.00000E+00 0.00000E+00
 -1      2863-1.00000E-02 0.00000E+00 0.00000E+00
 -1      2864-1.00000E-02 0.00000E+00 0.00000E+00
 -1      2865-1.00000E-02 0.00000E+00 0.00000E+00
 -1      2866-1.00000E-02 0.00000E+00 0.00000E+00
 -1      2867-1.00000E-02 0.00000E+00 0.00000E+00
 -1      2868-5.00234E-03 4.63026E-04 9.89042E-03
 -1      2869-3.99651E-03 5.19849E-04 5.03409E-03
 -1      2870-6.04678E-03-5.34179E-04 4.90797E-03
 -1      2871-7.47105E-03-5.34272E-04 2.03937E-03
 -1      2872-2.46261E-03 5.14052E-04 1.95749E-03
 -1      2873-5.05469E-03-4.81388E-04 8.72648E-03
 -1      2874-4.77355E-03-4.98209E-04 7.51036E-03
 -1      2875-5.56843E-03 5.09785E-04 6.25657E-03
 -1      2876-3.47681E-03-5.41185E-04 3.80167E-03
 -1      2877-7.07370E-03 5.25035E-04 2.72741E-03
 -1      2878-3.95798E-04-1.53966E-05 2.41235E-04
 -1      2879-9.53962E-03 1.53495E-05 2.68124E-04
 -1      2880-2.07082E-03-5.18654E-04 1.38724E-03
 -1      2881-8.45030E-03 4.60815E-04 8.33903E-04
 -1      2882-3.87240E-04 4.92860E-05 2.29390E-04
 -1      2883-9.61821E-03-5.13338E-05 2.26236E-04
 -1      2884-5.00056E-03-4.61345E-04 9.89590E-03
 -1      2885-4.74007E-03 5.03991E-04 7.50007E-03
 -1      2886-1.57926E-03 4.64806E-04 8.60043E-04
 -1      2887-5.05253E-03 4.78712E-04 8.69837E-03
 -1      2888-8.47648E-03-4.75486E-04 7.90870E-04
 -1      2889-3.80521E-04-8.99520E-05 2.21970E-04
 -1      2890-9.61827E-03 8.88452E-05 2.18287E-04
 -1      2891-1.07583E-03-3.98056E-04 4.64438E-04
 -1      2892-3.64880E-04 1.39437E-04 1.92779E-04
 -1      2893-9.63698E-03-1.39206E-04 1.92441E-04
 -1      2894-9.30344E-03 3.07356E-04 2.75302E-04
 -1      2895-3.80340E-04 8.97539E-05 2.20239E-04
 -1      2896-7.58997E-04 1.26010E-04 4.09889E-04
 -1      2897-7.62313E-04 5.98813E-05 4.26743E-04
 -1      2898-1.15132E-03 1.25848E-04 6.84028E-04
 -1      2899-1.15371E-03 4.08705E-05 7.01368E-04
 -1      2900-1.55298E-03 9.97505E-05 1.05886E-03
 -1      2901-1.55378E-03 1.74355E-06 1.07072E-03
 -1      2902-1.95789E-03 5.65206E-05 1.53351E-03
 -1      2903-1.95888E-03-5.18990E-05 1.53536E-03
 -1      2904-2.36392E-03 2.79275E-06 2.10481E-03
 -1      2905-2.36704E-03-1.13560E-04 2.09405E-03
 -1      2906-2.77136E-03-5.68313E-05 2.77124E-03
 -1      2907-2.77054E-03 6.31657E-05 2.76906E-03
 -1      2908-3.17615E-03 3.69014E-06 3.54360E-03
 -1      2909-3.17818E-03 1.26236E-04 3.52743E-03
 -1      2910-3.58045E-03 6.63012E-05 4.41143E-03
 -1      2911-3.58122E-03-5.76996E-05 4.41511E-03
 -1      2912-3.97682E-03 4.16853E-06 5.39229E-03
 -1      2913-3.98202E-03-1.21512E-04 5.38392E-03
 -1      2914-4.34696E-03-5.95237E-05 6.47248E-03
 -1      2915-4.34854E-03 6.96486E-05 6.46679E-03
 -1      2916-4.65250E-03 4.58338E-06 7.60122E-03
 -1      2917-4.65472E-03-1.27583E-04 7.59226E-03
 -1      2918-4.84315E-03-6.65423E-05 8.67326E-03
 -1      2919-4.83942E-03 7.50070E-05 8.65217E-03
 -1      2920-4.91584E-03 5.28637E-06 9.43039E-03
 -1      2921-4.91110E-03-1.45144E-04 9.44211E-03
 -1      2922-4.96951E-03-7.17368E-05 9.81180E-03
 -1      2923-4.97047E-03 8.02202E-05 9.80871E-03
 -1      2924-5.02667E-03 5.31497E-06 9.81859E-03
 -1      2925-5.02535E-03-1.45757E-04 9.80836E-03
 -1      2926-5.08190E-03-7.02557E-05 9.45274E-03
 -1      2927-5.08102E-03 7.96439E-05 9.45014E-03
 -1      2928-5.15508E-03 4.54602E-06 8.71034E-03
 -1      2929-5.15746E-03-1.31435E-04 8.71245E-03
 -1      2930-5.32944E-03-6.38028E-05 7.66777E-03
 -1      2931-5.33032E-03 7.34894E-05 7.66395E-03
 -1      2932-5.63472E-03 3.71619E-06 6.53323E-03
 -1      2933-5.63050E-03-1.22496E-04 6.52596E-03
 -1      2934-5.99913E-03-5.72846E-05 5.45498E-03
 -1      2935-5.99722E-03 6.71958E-05 5.45444E-03
 -1      2936-6.39522E-03 5.49281E-06 4.47421E-03
 -1      2937-6.39306E-03-1.18480E-04 4.46013E-03
 -1      2938-6.79862E-03-5.57760E-05 3.59143E-03
 -1      2939-6.79711E-03 6.66078E-05 3.59254E-03
 -1      2940-7.20428E-03 5.50935E-06 2.81848E-03
 -1      2941-7.20026E-03 1.26137E-04 2.80547E-03
 -1      2942-7.60952E-03 6.35802E-05 2.14017E-03
 -1      2943-7.61058E-03-5.24969E-05 2.14015E-03
 -1      2944-8.01702E-03 5.40957E-06 1.56911E-03
 -1      2945-8.01674E-03-1.04152E-04 1.55707E-03
 -1      2946-7.99991E-03 1.10644E-04 1.57737E-03
 -1      2947-1.55491E-03-9.64649E-05 1.06174E-03
 -1      2948-6.79347E-03-1.78955E-04 3.56322E-03
 -1      2949-6.78947E-03 1.90192E-04 3.56563E-03
 -1      2950-2.77753E-03-1.78402E-04 2.74601E-03
 -1      2951-1.95939E-03 1.67912E-04 1.50749E-03
 -1      2952-8.42191E-03-4.38367E-05 1.09366E-03
 -1      2953-8.42259E-03-1.44691E-04 1.07253E-03
 -1      2954-3.58737E-03 1.89661E-04 4.38079E-03
 -1      2955-3.18722E-03 2.50832E-04 3.48269E-03
 -1      2956-8.01385E-03-2.18376E-04 1.51969E-03
 -1      2957-7.19108E-03 2.50087E-04 2.76391E-03
 -1      2958-6.38283E-03-2.43290E-04 4.41860E-03
 -1      2959-2.37394E-03-2.33599E-04 2.05581E-03
 -1      2960-6.78189E-03-3.05528E-04 3.50564E-03
 -1      2961-2.78842E-03-3.04438E-04 2.69105E-03
 -1      2962-3.19016E-03-2.43825E-04 3.49291E-03
 -1      2963-6.77837E-03 3.14849E-04 3.50381E-03
 -1      2964-6.37771E-03 2.53371E-04 4.42160E-03
 -1      2965-6.33955E-03 4.01913E-04 4.37281E-03
 -1      2966-5.97028E-03 3.18004E-04 5.37963E-03
 -1      2967-8.82011E-03-7.78635E-05 7.17672E-04
 -1      2968-8.82553E-03-1.60285E-04 6.91737E-04
 -1      2969-8.82057E-03 4.31822E-06 7.23588E-04
 -1      2970-1.15011E-03 2.21185E-04 6.47491E-04
 -1      2971-3.60595E-03 3.13721E-04 4.33706E-03
 -1      2972-3.99112E-03 2.54619E-04 5.33911E-03
 -1      2973-3.20988E-03 4.01151E-04 3.40327E-03
 -1      2974-2.78501E-03 3.10601E-04 2.68063E-03
 -1      2975-7.19588E-03-2.38362E-04 2.76277E-03
 -1      2976-2.35772E-03-3.50057E-04 1.95406E-03
 -1      2977-1.96426E-03-2.78769E-04 1.45875E-03
 -1      2978-2.76130E-03-4.34015E-04 2.53213E-03
 -1      2979-7.20330E-03-3.57941E-04 2.66339E-03
 -1      2980-6.76582E-03-4.37808E-04 3.41492E-03
 -1      2981-9.20999E-03-2.67459E-05 4.46188E-04
 -1      2982-7.16959E-03 3.78803E-04 2.70504E-03
 -1      2983-7.59021E-03 3.06178E-04 2.06545E-03
 -1      2984-7.55447E-03 4.38863E-04 2.00948E-03
 -1      2985-7.99851E-03 3.54606E-04 1.45390E-03
 -1      2986-4.01266E-03 3.79373E-04 5.26514E-03
 -1      2987-4.37535E-03 3.19010E-04 6.38939E-03
 -1      2988-4.40965E-03 4.40707E-04 6.31929E-03
 -1      2989-4.68343E-03 3.87846E-04 7.52155E-03
 -1      2990-4.91227E-03 4.38587E-04 8.60327E-03
 -1      2991-4.86498E-03 3.37443E-04 8.60982E-03
 -1      2992-4.94983E-03 3.97210E-04 9.36707E-03
 -1      2993-4.92707E-03 2.87705E-04 9.39677E-03
 -1      2994-4.98026E-03 3.45029E-04 9.77077E-03
 -1      2995-4.66922E-03 2.70137E-04 7.56054E-03
 -1      2996-5.00038E-03 4.68222E-04 9.47883E-03
 -1      2997-4.97274E-03 2.24368E-04 9.79152E-03
 -1      2998-5.02405E-03 2.87562E-04 9.78570E-03
 -1      2999-5.01629E-03 4.09239E-04 9.77468E-03
 -1      3000-5.06632E-03 3.39287E-04 9.39967E-03
 -1      3001-4.84788E-03 2.16337E-04 8.64035E-03
 -1      3002-5.07752E-03 2.17913E-04 9.42020E-03
 -1      3003-5.14686E-03 2.77133E-04 8.66009E-03
 -1      3004-5.11153E-03 3.92052E-04 8.61577E-03
 -1      3005-5.30759E-03 3.26564E-04 7.57875E-03
 -1      3006-5.26368E-03 4.38055E-04 7.54209E-03
 -1      3007-5.32483E-03 2.00468E-04 7.63438E-03
 -1      3008-7.66058E-04 4.34782E-07 4.32715E-04
 -1      3009-9.62070E-03-8.94982E-05 2.14022E-04
 -1      3010-9.24737E-03-2.14778E-04 3.71762E-04
 -1      3011-9.28289E-03-3.12668E-04 2.84121E-04
 -1      3012-8.84474E-03-3.34345E-04 5.81632E-04
 -1      3013-5.99076E-03 1.93009E-04 5.42794E-03
 -1      3014-1.55386E-03 2.03934E-04 1.02556E-03
 -1      3015-1.96518E-03 2.86379E-04 1.45528E-03
 -1      3016-1.56011E-03 3.21730E-04 9.65087E-04
 -1      3017-1.99238E-03 4.16488E-04 1.38945E-03
 -1      3018-1.15734E-03 3.34822E-04 5.83999E-04
 -1      3019-7.50309E-04 2.07289E-04 3.74390E-04
 -1      3020-7.15111E-04 3.11424E-04 2.85165E-04
 -1      3021-3.88104E-04-4.94540E-05 2.29635E-04
 -1      3022-7.58546E-04-1.25346E-04 4.09205E-04
 -1      3023-7.91104E-04-2.31183E-04 3.86656E-04
 -1      3024-1.14869E-03-2.20398E-04 6.47103E-04
 -1      3025-1.15195E-03-1.24829E-04 6.84632E-04
 -1      3026-3.60481E-04-1.41292E-04 1.89262E-04
 -1      3027-7.62447E-04-5.94727E-05 4.27149E-04
 -1      3028-9.60526E-03 5.15396E-05 2.33133E-04
 -1      3029-9.24165E-03 1.25243E-04 4.09043E-04
 -1      3030-9.26188E-03 2.06184E-04 3.67219E-04
 -1      3031-8.85587E-03 2.20389E-04 6.42875E-04
 -1      3032-8.81831E-03 1.35987E-04 7.06124E-04
 -1      3033-8.43814E-03 2.11123E-04 1.03059E-03
 -1      3034-8.87612E-03 3.29996E-04 5.59966E-04
 -1      3035-2.38061E-03 3.67014E-04 1.97497E-03
 -1      3036-9.18618E-03 6.79803E-05 4.55357E-04
 -1      3037-3.90187E-04 1.56253E-05 2.34150E-04
 -1      3038-3.58987E-03-1.81928E-04 4.39041E-03
 -1      3039-3.99269E-03-2.46014E-04 5.34911E-03
 -1      3040-2.36521E-03 1.19099E-04 2.08979E-03
 -1      3041-3.19935E-03-3.64813E-04 3.41581E-03
 -1      3042-3.60771E-03-3.04805E-04 4.34825E-03
 -1      3043-4.02245E-03-3.69182E-04 5.30179E-03
 -1      3044-4.38451E-03-3.11130E-04 6.42883E-03
 -1      3045-4.41220E-03-4.31707E-04 6.33984E-03
 -1      3046-4.71150E-03-3.80377E-04 7.56605E-03
 -1      3047-4.91150E-03-4.38646E-04 8.60262E-03
 -1      3048-4.86904E-03-3.32451E-04 8.65984E-03
 -1      3049-4.95119E-03-3.89351E-04 9.39098E-03
 -1      3050-4.01301E-03-5.10541E-04 5.08965E-03
 -1      3051-4.93307E-03-2.85774E-04 9.42650E-03
 -1      3052-4.98080E-03-3.43340E-04 9.77653E-03
 -1      3053-4.99148E-03-4.62868E-04 9.47002E-03
 -1      3054-4.65838E-03-2.61614E-04 7.61826E-03
 -1      3055-8.40574E-03-2.47743E-04 1.04664E-03
 -1      3056-7.99680E-03-3.40462E-04 1.46682E-03
 -1      3057-6.35235E-03-3.62733E-04 4.38580E-03
 -1      3058-5.97280E-03-3.05613E-04 5.38659E-03
 -1      3059-7.60362E-03-2.91358E-04 2.05514E-03
 -1      3060-3.97944E-03 1.29793E-04 5.37920E-03
 -1      3061-3.18003E-03-1.18820E-04 3.53232E-03
 -1      3062-5.99129E-03-1.81795E-04 5.43032E-03
 -1      3063-5.61586E-03-2.47175E-04 6.48650E-03
 -1      3064-5.58722E-03-3.69400E-04 6.44750E-03
 -1      3065-5.30351E-03-3.18962E-04 7.60810E-03
 -1      3066-5.26335E-03-4.27746E-04 7.57785E-03
 -1      3067-5.11506E-03-3.82721E-04 8.68071E-03
 -1      3068-5.02985E-03-4.28564E-04 9.43647E-03
 -1      3069-5.06383E-03-3.33096E-04 9.41574E-03
 -1      3070-5.56035E-03-5.00450E-04 6.28731E-03
 -1      3071-5.14668E-03-2.64428E-04 8.69191E-03
 -1      3072-6.39089E-03 1.29176E-04 4.46096E-03
 -1      3073-4.36288E-03-1.86560E-04 6.46333E-03
 -1      3074-5.32325E-03-1.90330E-04 7.65041E-03
 -1      3075-4.65957E-03 1.39194E-04 7.59165E-03
 -1      3076-2.37054E-03 2.39331E-04 2.04761E-03
 -1      3077-6.05582E-03 5.30773E-04 4.88524E-03
 -1      3078-4.99979E-03 4.65290E-04 9.61896E-03
 -1      3079-6.52382E-03 5.38973E-04 3.80174E-03
 -1      3080-3.47523E-03 5.40269E-04 3.79870E-03
 -1      3081-7.97508E-03-4.85554E-04 1.36310E-03
 -1      3082-2.99708E-03 5.38888E-04 2.84183E-03
 -1      3083-4.35791E-03 1.97456E-04 6.43974E-03
 -1      3084-2.77542E-03 1.84681E-04 2.74001E-03
 -1      3085-1.15365E-03-3.93870E-05 7.01394E-04
 -1      3086-7.20268E-03-1.14843E-04 2.80481E-03
 -1      3087-7.59808E-03 1.81117E-04 2.12371E-03
 -1      3088-1.57746E-03-4.50869E-04 8.72828E-04
 -1      3089-1.96155E-03-1.62650E-04 1.51231E-03
 -1      3090-7.94009E-03 5.03030E-04 1.39000E-03
 -1      3091-4.97306E-03-2.20868E-04 9.79506E-03
 -1      3092-8.41407E-03 5.16195E-05 1.10112E-03
 -1      3093-7.60833E-03-1.70122E-04 2.11274E-03
 -1      3094-4.91400E-03 1.51408E-04 9.41915E-03
 -1      3095-1.55520E-03-2.00499E-04 1.02872E-03
 -1      3096-5.02623E-03 1.52854E-04 9.80738E-03
 -1      3097-1.56371E-03-3.12890E-04 9.75452E-04
 -1      3098-5.16257E-03 1.43214E-04 8.70167E-03
 -1      3099-5.62556E-03 1.33188E-04 6.52050E-03
 -1      3100-5.07410E-03-2.10453E-04 9.43282E-03
 -1      3101-5.59254E-03 3.80667E-04 6.42248E-03
 -1      3102-5.61612E-03 2.56863E-04 6.48216E-03
 -1      3103-8.46878E-03 3.29645E-04 9.29845E-04
 -1      3104-2.52837E-03-5.43944E-04 2.02623E-03
 -1      3105-4.84771E-03-2.03937E-04 8.66822E-03
 -1      3106-7.99265E-03 2.26844E-04 1.54290E-03
 -1      3107-9.58998E-03-2.20070E-05 2.43834E-04
 -1      3108-9.23337E-03-7.76682E-05 4.25776E-04
 -1      3109-6.99510E-03-5.50813E-04 2.84368E-03
 -1      3110-9.65097E-03 1.34763E-04 1.86585E-04
 -1      3111-6.53001E-04-3.03447E-04 2.51574E-04
 -1      3112-6.51248E-03-5.50173E-04 3.81308E-03
 -1      3113-5.02323E-03-2.84885E-04 9.78920E-03
 -1      3114-5.01615E-03-3.86526E-04 9.77906E-03
 -1      3115-3.61855E-03-4.26513E-04 4.25113E-03
 -1      3116-2.99673E-03-5.52936E-04 2.82538E-03
 -1      3117-6.77659E-03 4.34370E-04 3.39644E-03
 -1      3118-2.76796E-03 4.27684E-04 2.54947E-03
 -1      3119-5.94172E-03-4.20833E-04 5.34089E-03
 -1      3120-4.99052E-03 4.28041E-04 9.76336E-03
 -1      3121-7.60256E-03-4.10755E-04 1.96266E-03
 -1      3122-3.66169E-03 4.30265E-04 4.34331E-03
 -1      3123-4.98991E-03-4.26792E-04 9.78475E-03
 -1      3124-4.99567E-03-4.69379E-04 9.62538E-03
 -1      3125-5.20815E-03-5.17135E-04 7.53599E-03
 -1      3126-8.41533E-03-3.58758E-04 9.63863E-04
 -1      3127-4.43588E-03-5.40532E-04 6.20473E-03
 -1      3128-5.04405E-03 4.27190E-04 9.32160E-03
 -1      3129-1.94161E-03-3.88857E-04 1.34975E-03
 -1      3130-5.89662E-03 4.25867E-04 5.44036E-03
 -1      3131-1.22560E-03-3.24876E-04 6.48146E-04
 -1      3132-2.04743E-03 5.33882E-04 1.33784E-03
 -1      3133-4.42247E-03 5.47041E-04 6.16194E-03
 -1      3134-8.87165E-03 4.36609E-04 4.66464E-04
 -1      3135-7.47519E-03 5.54989E-04 2.00781E-03
 -1      3136-5.20635E-03 5.21488E-04 7.52547E-03
 -1      3137-1.14528E-03 4.39338E-04 4.77728E-04
 -1      3138-8.86633E-03-4.40554E-04 4.66343E-04
 -1      3139-4.97080E-03-4.93931E-04 8.71893E-03
 -1      3140-4.96374E-03 4.98042E-04 8.71634E-03
 -1      3141-9.22785E-03-1.40813E-04 4.13532E-04
 -1      3142-8.81520E-03-2.47992E-04 6.61759E-04
 -1      3143-3.21881E-04-1.80117E-04 1.53388E-04
 -1      3144-3.20945E-04 1.80305E-04 1.51677E-04
 -1      3145-9.67960E-03-1.79915E-04 1.51977E-04
 -1      3146-9.68336E-03 1.78580E-04 1.50307E-04
 -1      3147-8.36414E-03 1.31860E-04 1.13840E-03
 -1      3148-8.75069E-03 6.74776E-05 7.77809E-04
 -1      3149-9.12330E-03 2.23761E-05 5.00999E-04
 -1      3150-8.21542E-03 4.13220E-04 1.13820E-03
 -1      3151-3.19963E-03-4.72220E-04 3.30808E-03
 -1      3152-7.25227E-03-4.61078E-04 2.48171E-03
 -1      3153-2.33129E-03-4.48394E-04 1.82729E-03
 -1      3154-6.29278E-03-4.64612E-04 4.40929E-03
 -1      3155-5.00810E-03-4.44377E-04 9.77886E-03
 -1      3156-1.67204E-04 1.11658E-04 9.10122E-05
 -1      3157-4.02345E-04 2.51731E-04 1.39692E-04
 -1      3158-1.51065E-04 8.73874E-05 9.66034E-05
 -1      3159-9.59966E-03 2.51128E-04 1.38984E-04
 -1      3160-9.83490E-03 1.10406E-04 9.03319E-05
 -1      3161-9.85093E-03 8.65328E-05 9.58653E-05
 -1      3162-9.83332E-03-1.11456E-04 9.11007E-05
 -1      3163-9.59825E-03-2.51966E-04 1.39719E-04
 -1      3164-9.84909E-03-8.74240E-05 9.65252E-05
 -1      3165-4.01907E-04-2.51987E-04 1.40533E-04
 -1      3166-1.67670E-04-1.11543E-04 9.15427E-05
 -1      3167-1.51910E-04-8.72768E-05 9.72314E-05
 -1      3168-5.93457E-04 3.23836E-04 1.95559E-04
 -1      3169-8.19751E-04 3.95562E-04 2.74191E-04
 -1      3170-5.16385E-04 2.56156E-04 2.07556E-04
 -1      3171-1.03484E-03 4.61157E-04 3.60023E-04
 -1      3172-1.26317E-03 5.02558E-04 5.04306E-04
 -1      3173-9.30035E-04 3.80312E-04 3.68458E-04
 -1      3174-1.47591E-03 5.15596E-04 6.94195E-04
 -1      3175-1.70832E-03 5.39819E-04 9.13165E-04
 -1      3176-1.36092E-03 4.55808E-04 6.51843E-04
 -1      3177-1.94103E-03 5.74660E-04 1.14792E-03
 -1      3178-2.17450E-03 5.88706E-04 1.44096E-03
 -1      3179-1.81350E-03 5.01866E-04 1.08197E-03
 -1      3180-2.38076E-03 5.78615E-04 1.75458E-03
 -1      3181-2.61685E-03 5.86154E-04 2.11804E-03
 -1      3182-2.25438E-03 5.25313E-04 1.63332E-03
 -1      3183-2.88319E-03 5.98691E-04 2.56124E-03
 -1      3184-3.12152E-03 6.01215E-04 3.00293E-03
 -1      3185-2.72940E-03 5.27825E-04 2.37692E-03
 -1      3186-3.36084E-03 6.01970E-04 3.48243E-03
 -1      3187-3.60155E-03 6.00752E-04 3.99946E-03
 -1      3188-3.23580E-03 5.40243E-04 3.30176E-03
 -1      3189-3.86452E-03 5.89843E-04 4.61985E-03
 -1      3190-4.10222E-03 5.84050E-04 5.21933E-03
 -1      3191-3.73647E-03 5.30450E-04 4.39354E-03
 -1      3192-4.31575E-03 5.95054E-04 5.78476E-03
 -1      3193-4.53428E-03 5.78797E-04 6.45979E-03
 -1      3194-4.21297E-03 5.33870E-04 5.58038E-03
 -1      3195-4.71254E-03 5.50871E-04 7.14487E-03
 -1      3196-4.85913E-03 5.37230E-04 7.83849E-03
 -1      3197-4.59797E-03 5.22113E-04 6.82899E-03
 -1      3198-4.95720E-03 5.25764E-04 8.47153E-03
 -1      3199-5.01218E-03 5.05645E-04 9.04181E-03
 -1      3200-4.87024E-03 5.02501E-04 8.13306E-03
 -1      3201-5.01770E-03 4.87245E-04 9.41785E-03
 -1      3202-5.01588E-03 4.75057E-04 9.73718E-03
 -1      3203-4.98634E-03 4.84321E-04 9.15243E-03
 -1      3204-5.00788E-03 4.70124E-04 9.93856E-03
 -1      3205-4.99611E-03 4.69339E-04 9.94106E-03
 -1      3206-5.00489E-03 4.66067E-04 9.78308E-03
 -1      3207-4.98669E-03 4.71652E-04 9.79883E-03
 -1      3208-4.98370E-03 4.82730E-04 9.51405E-03
 -1      3209-5.00016E-03 4.65460E-04 9.82290E-03
 -1      3210-4.99874E-03 4.97366E-04 9.03422E-03
 -1      3211-5.04999E-03 5.08875E-04 8.46361E-03
 -1      3212-5.01829E-03 4.73350E-04 9.23867E-03
 -1      3213-5.12874E-03 5.37309E-04 7.86658E-03
 -1      3214-5.27176E-03 5.62370E-04 7.16318E-03
 -1      3215-5.10748E-03 4.98147E-04 8.14137E-03
 -1      3216-5.45505E-03 5.61291E-04 6.51069E-03
 -1      3217-5.67382E-03 5.74440E-04 5.84018E-03
 -1      3218-5.37619E-03 5.16943E-04 6.88443E-03
 -1      3219-5.92336E-03 5.88237E-04 5.14403E-03
 -1      3220-6.16327E-03 5.94378E-04 4.54842E-03
 -1      3221-5.80719E-03 5.19987E-04 5.55279E-03
 -1      3222-6.39821E-03 5.99484E-04 4.00308E-03
 -1      3223-6.63846E-03 6.00864E-04 3.48495E-03
 -1      3224-6.28945E-03 5.35361E-04 4.32624E-03
 -1      3225-6.91346E-03 5.93769E-04 2.94490E-03
 -1      3226-7.15178E-03 5.91274E-04 2.50831E-03
 -1      3227-6.79936E-03 5.32849E-04 3.24002E-03
 -1      3228-7.35229E-03 6.06357E-04 2.14361E-03
 -1      3229-7.58807E-03 5.99119E-04 1.77576E-03
 -1      3230-7.27486E-03 5.40799E-04 2.35474E-03
 -1      3231-7.81931E-03 5.72921E-04 1.47055E-03
 -1      3232-8.05342E-03 5.59219E-04 1.17561E-03
 -1      3233-7.70766E-03 5.30478E-04 1.68209E-03
 -1      3234-8.30622E-03 5.37856E-04 8.99388E-04
 -1      3235-8.53829E-03 5.13420E-04 6.82634E-04
 -1      3236-8.19540E-03 4.84947E-04 1.09043E-03
 -1      3237-8.74499E-03 5.01340E-04 4.98625E-04
 -1      3238-8.97313E-03 4.59276E-04 3.55532E-04
 -1      3239-8.66241E-03 4.52629E-04 6.33983E-04
 -1      3240-9.18922E-03 3.93558E-04 2.68931E-04
 -1      3241-9.41557E-03 3.21089E-04 1.91531E-04
 -1      3242-9.08780E-03 3.77189E-04 3.57678E-04
 -1      3243-9.49481E-03 2.52815E-04 2.02350E-04
 -1      3244-9.40594E-03-3.24591E-04 1.94521E-04
 -1      3245-9.17957E-03-3.95967E-04 2.73414E-04
 -1      3246-9.48279E-03-2.56762E-04 2.06500E-04
 -1      3247-8.97030E-03-4.61326E-04 3.54955E-04
 -1      3248-8.74228E-03-5.03297E-04 4.98367E-04
 -1      3249-9.07500E-03-3.81144E-04 3.63132E-04
 -1      3250-8.55047E-03-5.20622E-04 6.60939E-04
 -1      3251-8.31897E-03-5.45617E-04 8.74864E-04
 -1      3252-8.67239E-03-4.61362E-04 6.15033E-04
 -1      3253-8.07119E-03-5.50352E-04 1.16450E-03
 -1      3254-7.83706E-03-5.64194E-04 1.45697E-03
 -1      3255-8.22659E-03-4.83690E-04 1.05535E-03
 -1      3256-7.58634E-03-5.88846E-04 1.79215E-03
 -1      3257-7.35033E-03-5.96057E-04 2.16058E-03
 -1      3258-7.72322E-03-5.11578E-04 1.68120E-03
 -1      3259-7.11301E-03-6.04554E-04 2.56168E-03
 -1      3260-6.87483E-03-6.07055E-04 3.00410E-03
 -1      3261-7.23344E-03-5.43568E-04 2.42327E-03
 -1      3262-6.63346E-03-6.06742E-04 3.48903E-03
 -1      3263-6.39293E-03-6.05055E-04 4.00768E-03
 -1      3264-6.75422E-03-5.51318E-04 3.30959E-03
 -1      3265-6.15828E-03-5.96375E-04 4.55852E-03
 -1      3266-5.92014E-03-5.90098E-04 5.15470E-03
 -1      3267-6.27933E-03-5.42462E-04 4.34239E-03
 -1      3268-5.67122E-03-5.69089E-04 5.85324E-03
 -1      3269-5.45262E-03-5.56107E-04 6.52697E-03
 -1      3270-5.79773E-03-5.16453E-04 5.57915E-03
 -1      3271-5.27257E-03-5.59615E-04 7.16798E-03
 -1      3272-5.12933E-03-5.36031E-04 7.86910E-03
 -1      3273-5.37419E-03-5.09467E-04 6.90710E-03
 -1      3274-5.05027E-03-5.08993E-04 8.47739E-03
 -1      3275-5.00027E-03-4.97556E-04 9.04533E-03
 -1      3276-5.10811E-03-4.96487E-04 8.16189E-03
 -1      3277-4.98269E-03-4.83758E-04 9.51934E-03
 -1      3278-4.98537E-03-4.71482E-04 9.80989E-03
 -1      3279-5.01692E-03-4.77360E-04 9.24682E-03
 -1      3280-4.99508E-03-4.68926E-04 9.94594E-03
 -1      3281-5.00515E-03-4.68553E-04 9.94419E-03
 -1      3282-4.99750E-03-4.65248E-04 9.83470E-03
 -1      3283-5.01083E-03-4.72253E-04 9.73721E-03
 -1      3284-5.01171E-03-4.81392E-04 9.41928E-03
 -1      3285-5.00028E-03-4.63731E-04 9.78231E-03
 -1      3286-5.00824E-03-4.98052E-04 9.05286E-03
 -1      3287-4.95913E-03-5.17833E-04 8.47824E-03
 -1      3288-4.98821E-03-4.78503E-04 9.14365E-03
 -1      3289-4.86525E-03-5.30650E-04 7.85390E-03
 -1      3290-4.71973E-03-5.48307E-04 7.15535E-03
 -1      3291-4.89482E-03-4.98154E-04 8.14122E-03
 -1      3292-4.54257E-03-5.75304E-04 6.48462E-03
 -1      3293-4.32384E-03-5.91065E-04 5.80848E-03
 -1      3294-4.61682E-03-5.17663E-04 6.85690E-03
 -1      3295-4.11102E-03-5.78197E-04 5.24971E-03
 -1      3296-3.87273E-03-5.83772E-04 4.64803E-03
 -1      3297-4.22742E-03-5.26259E-04 5.63155E-03
 -1      3298-3.60161E-03-6.00237E-04 4.00205E-03
 -1      3299-3.36143E-03-6.01620E-04 3.48451E-03
 -1      3300-3.74634E-03-5.26509E-04 4.42206E-03
 -1      3301-3.12094E-03-6.07561E-04 2.99452E-03
 -1      3302-2.88271E-03-6.05103E-04 2.55283E-03
 -1      3303-3.23644E-03-5.47748E-04 3.29484E-03
 -1      3304-2.64910E-03-6.00422E-04 2.15345E-03
 -1      3305-2.41338E-03-5.93472E-04 1.78538E-03
 -1      3306-2.76211E-03-5.49423E-04 2.40804E-03
 -1      3307-2.18587E-03-5.80552E-04 1.46810E-03
 -1      3308-1.95208E-03-5.66885E-04 1.17284E-03
 -1      3309-2.29934E-03-5.32870E-04 1.68974E-03
 -1      3310-1.70682E-03-5.32295E-04 9.21098E-04
 -1      3311-1.47393E-03-5.08254E-04 7.01232E-04
 -1      3312-1.82416E-03-4.87364E-04 1.11116E-03
 -1      3313-1.22763E-03-4.81943E-04 4.99050E-04
 -1      3314-9.97702E-04-4.39249E-04 3.56990E-04
 -1      3315-1.32574E-03-4.29555E-04 6.46913E-04
 -1      3316-7.90255E-04-3.92010E-04 2.55824E-04
 -1      3317-5.64539E-04-3.18130E-04 1.81931E-04
 -1      3318-8.63639E-04-3.56811E-04 3.43504E-04
 -1      3319-4.86577E-04-2.49308E-04 1.95013E-04
 -1      3320-1.82977E-04 6.52132E-05 1.22481E-04
 -1      3321-1.78134E-04 8.17187E-05 1.18936E-04
 -1      3322-3.42239E-04 1.57704E-04 1.74260E-04
 -1      3323-1.84990E-04 4.14084E-05 1.28315E-04
 -1      3324-1.91661E-04 5.20068E-05 1.29648E-04
 -1      3325-3.68879E-04 1.12071E-04 2.08563E-04
 -1      3326-1.98215E-04 2.11224E-05 1.39312E-04
 -1      3327-1.93752E-04 3.05490E-05 1.39565E-04
 -1      3328-3.85597E-04 6.77830E-05 2.26952E-04
 -1      3329-1.97190E-04 4.39267E-06 1.43962E-04
 -1      3330-1.99150E-04 1.21357E-05 1.40586E-04
 -1      3331-3.87016E-04 3.20000E-05 2.35156E-04
 -1      3332-2.01761E-04-1.27494E-05 1.41086E-04
 -1      3333-1.92796E-04-4.40411E-06 1.35939E-04
 -1      3334-3.94115E-04 1.26879E-06 2.38816E-04
 -1      3335-1.94338E-04-3.09932E-05 1.39475E-04
 -1      3336-1.97770E-04-2.22279E-05 1.39969E-04
 -1      3337-3.88151E-04-3.18392E-05 2.35811E-04
 -1      3338-1.92400E-04-5.26646E-05 1.29625E-04
 -1      3339-1.85673E-04-4.18472E-05 1.28898E-04
 -1      3340-3.86362E-04-6.79554E-05 2.27842E-04
 -1      3341-1.77095E-04-8.21088E-05 1.18259E-04
 -1      3342-1.81014E-04-6.63900E-05 1.21285E-04
 -1      3343-3.67618E-04-1.13170E-04 2.07306E-04
 -1      3344-3.40832E-04-1.58555E-04 1.73455E-04
 -1      3345-9.82576E-03-6.52165E-05 1.17424E-04
 -1      3346-9.82207E-03-8.16155E-05 1.18600E-04
 -1      3347-9.65868E-03-1.57221E-04 1.74107E-04
 -1      3348-9.80924E-03-4.01979E-05 1.37300E-04
 -1      3349-9.81246E-03-5.31318E-05 1.32559E-04
 -1      3350-9.62823E-03-1.12561E-04 2.06624E-04
 -1      3351-9.80661E-03-2.16948E-05 1.40018E-04
 -1      3352-9.81504E-03-3.07441E-05 1.31180E-04
 -1      3353-9.61781E-03-6.99329E-05 2.24078E-04
 -1      3354-9.79261E-03-6.22536E-06 1.47499E-04
 -1      3355-9.80029E-03-1.51254E-05 1.40833E-04
 -1      3356-9.60083E-03-3.75044E-05 2.38163E-04
 -1      3357-9.76999E-03 1.41221E-05 1.57540E-04
 -1      3358-9.77585E-03 3.61440E-06 1.52647E-04
 -1      3359-9.56347E-03-5.26243E-06 2.58022E-04
 -1      3360-9.80119E-03 3.09344E-05 1.41704E-04
 -1      3361-9.80700E-03 2.26644E-05 1.34295E-04
 -1      3362-9.57062E-03 3.36323E-05 2.53650E-04
 -1      3363-9.81146E-03 5.26615E-05 1.31005E-04
 -1      3364-9.81449E-03 4.09538E-05 1.28124E-04
 -1      3365-9.60912E-03 6.76755E-05 2.28484E-04
 -1      3366-9.82875E-03 7.87352E-05 1.15829E-04
 -1      3367-9.83236E-03 6.29387E-05 1.13070E-04
 -1      3368-9.63378E-03 1.10071E-04 2.05283E-04
 -1      3369-9.66770E-03 1.54068E-04 1.70581E-04
 -1      3370-4.99240E-03 4.50871E-04 9.65270E-03
 -1      3371-5.00064E-03 4.50601E-04 9.83465E-03
 -1      3372-5.01370E-03 4.42483E-04 9.70823E-03
 -1      3373-5.00586E-03 4.44493E-04 9.83285E-03
 -1      3374-5.00175E-03 4.19094E-04 9.82751E-03
 -1      3375-4.21256E-03 4.10506E-04 5.77792E-03
 -1      3376-4.21022E-03 4.78429E-04 5.66163E-03
 -1      3377-4.00431E-03 4.48316E-04 5.15487E-03
 -1      3378-3.82855E-03 4.74945E-04 4.68108E-03
 -1      3379-3.83817E-03 4.04410E-04 4.79467E-03
 -1      3380-4.41862E-03 4.94153E-04 6.24380E-03
 -1      3381-3.56930E-03 4.84604E-04 4.07171E-03
 -1      3382-5.99210E-03-4.76109E-04 5.12713E-03
 -1      3383-5.74954E-03-4.61675E-04 5.80214E-03
 -1      3384-6.40179E-03-5.06949E-04 4.10938E-03
 -1      3385-6.16992E-03-4.99389E-04 4.65468E-03
 -1      3386-6.11492E-03-4.42126E-04 4.86575E-03
 -1      3387-7.78940E-03-4.49021E-04 1.65270E-03
 -1      3388-7.53689E-03-4.71985E-04 2.00406E-03
 -1      3389-7.36176E-03-4.97745E-04 2.25796E-03
 -1      3390-7.12371E-03-5.05866E-04 2.65978E-03
 -1      3391-7.42749E-03-4.36355E-04 2.21333E-03
 -1      3392-2.18624E-03 3.92770E-04 1.67046E-03
 -1      3393-2.42138E-03 4.39468E-04 1.97183E-03
 -1      3394-2.22744E-03 4.66194E-04 1.65872E-03
 -1      3395-2.01925E-03 4.74604E-04 1.36742E-03
 -1      3396-2.57405E-03 3.97788E-04 2.25167E-03
 -1      3397-2.61519E-03 4.71112E-04 2.24773E-03
 -1      3398-2.88246E-03 4.82981E-04 2.69504E-03
 -1      3399-5.17657E-03-4.05227E-04 8.15346E-03
 -1      3400-5.08921E-03-4.36361E-04 8.69780E-03
 -1      3401-5.13871E-03-4.59652E-04 8.16870E-03
 -1      3402-5.23571E-03-4.74408E-04 7.55521E-03
 -1      3403-5.06552E-03-4.08127E-04 9.10186E-03
 -1      3404-5.04029E-03-4.55625E-04 9.12895E-03
 -1      3405-5.01125E-03-4.52730E-04 9.52252E-03
 -1      3406-4.73930E-03-4.42223E-04 7.53607E-03
 -1      3407-4.57141E-03-4.05842E-04 6.95355E-03
 -1      3408-4.60215E-03-4.68090E-04 6.91771E-03
 -1      3409-4.42457E-03-4.85913E-04 6.27508E-03
 -1      3410-4.85830E-03-4.66206E-04 8.08703E-03
 -1      3411-4.82620E-03-4.09837E-04 8.10129E-03
 -1      3412-4.94067E-03-4.70342E-04 8.65516E-03
 -1      3413-5.42104E-03 4.11030E-04 6.97872E-03
 -1      3414-5.58113E-03 4.44522E-04 6.34605E-03
 -1      3415-5.40491E-03 4.70578E-04 6.90130E-03
 -1      3416-5.23561E-03 4.81190E-04 7.53218E-03
 -1      3417-5.73189E-03 4.68133E-04 5.84235E-03
 -1      3418-5.97576E-03 4.77655E-04 5.16366E-03
 -1      3419-5.74120E-03 4.02456E-04 5.92650E-03
 -1      3420-3.81579E-03-4.69054E-04 4.65916E-03
 -1      3421-3.54873E-03-4.83030E-04 4.02843E-03
 -1      3422-3.40975E-03-4.49384E-04 3.76613E-03
 -1      3423-3.33806E-03-5.06662E-04 3.55002E-03
 -1      3424-3.09843E-03-5.12453E-04 3.06512E-03
 -1      3425-7.36204E-03 4.09401E-04 2.34604E-03
 -1      3426-7.31445E-03 4.82664E-04 2.35240E-03
 -1      3427-7.12171E-03 4.50936E-04 2.72154E-03
 -1      3428-6.92488E-03 4.79643E-04 3.05680E-03
 -1      3429-6.97328E-03 4.06959E-04 3.03959E-03
 -1      3430-7.51490E-03 4.96509E-04 2.01196E-03
 -1      3431-6.65047E-03 4.86359E-04 3.59692E-03
 -1      3432-5.75804E-04-3.39299E-05 3.24786E-04
 -1      3433-7.64762E-04-2.91200E-05 4.31296E-04
 -1      3434-5.78529E-04-1.13939E-05 3.26948E-04
 -1      3435-5.76942E-04 1.11896E-05 3.26971E-04
 -1      3436-5.73279E-04-5.84066E-05 3.20570E-04
 -1      3437-9.40093E-03-2.59502E-05 3.36647E-04
 -1      3438-9.37612E-03-5.19052E-07 3.49686E-04
 -1      3439-9.33376E-03 1.93381E-05 3.72556E-04
 -1      3440-9.16653E-03-3.05707E-06 4.73819E-04
 -1      3441-9.39648E-03 6.25865E-05 3.33531E-04
 -1      3442-9.36484E-03 3.73396E-05 3.53620E-04
 -1      3443-9.15468E-03 4.55653E-05 4.78506E-04
 -1      3444-2.00575E-03-4.53117E-04 1.37228E-03
 -1      3445-1.75839E-03-4.21309E-04 1.10094E-03
 -1      3446-2.42980E-03-4.96076E-04 1.92646E-03
 -1      3447-2.20054E-03-4.83988E-04 1.60287E-03
 -1      3448-2.13643E-03-4.19487E-04 1.57760E-03
 -1      3449-8.46107E-03 3.93606E-04 8.87234E-04
 -1      3450-8.67317E-03 3.32951E-04 7.30703E-04
 -1      3451-8.66419E-03 3.97192E-04 6.86933E-04
 -1      3452-8.87683E-03 3.82171E-04 5.16859E-04
 -1      3453-8.07787E-03 4.58417E-04 1.26038E-03
 -1      3454-8.33364E-03 4.37669E-04 9.81715E-04
 -1      3455-8.34231E-03 3.71556E-04 1.03105E-03
 -1      3456-5.71047E-04 8.49597E-05 3.14027E-04
 -1      3457-5.67586E-04 1.12957E-04 3.05572E-04
 -1      3458-5.72282E-04 5.88307E-05 3.19538E-04
 -1      3459-7.60668E-04 9.18812E-05 4.19701E-04
 -1      3460-5.74220E-04 3.46599E-05 3.23596E-04
 -1      3461-9.42522E-03-9.29947E-05 3.14411E-04
 -1      3462-9.42749E-03-1.20118E-04 3.05443E-04
 -1      3463-9.41190E-03-4.66096E-05 3.29260E-04
 -1      3464-9.42778E-03-6.79737E-05 3.17470E-04
 -1      3465-9.23073E-03-1.08208E-04 4.20986E-04
 -1      3466-4.99818E-03-4.49685E-04 9.84323E-03
 -1      3467-4.98769E-03-4.47088E-04 9.66823E-03
 -1      3468-5.00222E-03-4.54705E-04 9.85148E-03
 -1      3469-5.00123E-03-4.36414E-04 9.84048E-03
 -1      3470-5.00379E-03-4.58551E-04 9.71403E-03
 -1      3471-4.55842E-03 4.13036E-04 6.92054E-03
 -1      3472-4.72014E-03 4.50246E-04 7.50295E-03
 -1      3473-4.59343E-03 4.76034E-04 6.90101E-03
 -1      3474-4.80658E-03 4.13655E-04 8.07882E-03
 -1      3475-4.83414E-03 4.71467E-04 8.07499E-03
 -1      3476-4.93734E-03 4.71188E-04 8.64958E-03
 -1      3477-1.77587E-03 3.69946E-04 1.16507E-03
 -1      3478-1.78467E-03 4.42644E-04 1.11073E-03
 -1      3479-1.56767E-03 3.91629E-04 9.18671E-04
 -1      3480-1.36765E-03 4.01382E-04 7.12535E-04
 -1      3481-1.35798E-03 3.31352E-04 7.60796E-04
 -1      3482-1.14841E-03 3.86000E-04 5.34212E-04
 -1      3483-5.17093E-03 4.15142E-04 8.10474E-03
 -1      3484-5.14065E-03 4.63138E-04 8.13885E-03
 -1      3485-5.08334E-03 4.39623E-04 8.64927E-03
 -1      3486-5.04751E-03 4.54095E-04 9.04372E-03
 -1      3487-5.07091E-03 4.11274E-04 8.99971E-03
 -1      3488-5.01879E-03 4.50200E-04 9.47002E-03
 -1      3489-8.63066E-03-3.49751E-04 7.57324E-04
 -1      3490-8.44762E-03-4.16265E-04 8.80990E-04
 -1      3491-8.66194E-03-4.05674E-04 6.81242E-04
 -1      3492-8.85890E-03-3.86496E-04 5.27610E-04
 -1      3493-8.19544E-03-4.22995E-04 1.15283E-03
 -1      3494-5.67703E-04-1.12668E-04 3.05641E-04
 -1      3495-5.70492E-04-8.42913E-05 3.13861E-04
 -1      3496-5.80260E-04-1.55776E-04 2.97728E-04
 -1      3497-7.72083E-04-1.73797E-04 4.01189E-04
 -1      3498-5.72734E-04-1.94600E-04 2.76040E-04
 -1      3499-9.43297E-03 1.12520E-04 3.04895E-04
 -1      3500-9.42478E-03 8.49458E-05 3.16638E-04
 -1      3501-9.44453E-03 1.44626E-04 2.88773E-04
 -1      3502-9.25262E-03 1.63333E-04 3.90669E-04
 -1      3503-9.45852E-03 1.78159E-04 2.67290E-04
 -1      3504-7.16764E-04-2.66161E-04 3.18705E-04
 -1      3505-9.28058E-04-3.11445E-04 4.26760E-04
 -1      3506-1.14839E-03-3.61483E-04 5.55756E-04
 -1      3507-1.00619E-03-2.81115E-04 5.03444E-04
 -1      3508-1.40064E-03-3.88361E-04 7.55332E-04
 -1      3509-5.60485E-04 1.44981E-04 2.91526E-04
 -1      3510-5.54912E-04 1.81066E-04 2.73358E-04
 -1      3511-7.28180E-04 2.55588E-04 3.33075E-04
 -1      3512-5.33088E-04 2.22975E-04 2.39249E-04
 -1      3513-9.43840E-03-1.49124E-04 2.89814E-04
 -1      3514-9.44437E-03-1.84109E-04 2.72388E-04
 -1      3515-9.26920E-03-2.60980E-04 3.31333E-04
 -1      3516-9.46703E-03-2.23343E-04 2.38066E-04
 -1      3517-9.09228E-03 3.25092E-04 4.00616E-04
 -1      3518-9.07172E-03 2.67719E-04 4.55361E-04
 -1      3519-9.28760E-03 2.53207E-04 3.24157E-04
 -1      3520-9.48401E-03 2.18653E-04 2.31298E-04
 -1      3521-7.53528E-04 1.64078E-04 3.94556E-04
 -1      3522-9.54957E-04 9.07130E-05 5.45023E-04
 -1      3523-9.53094E-04 1.29680E-04 5.33908E-04
 -1      3524-1.15010E-03 1.71639E-04 6.68614E-04
 -1      3525-9.51686E-04 1.72140E-04 5.18673E-04
 -1      3526-9.48812E-04 2.18467E-04 4.97058E-04
 -1      3527-9.56774E-04 5.33787E-05 5.52212E-04
 -1      3528-1.15268E-03 8.25761E-05 6.95006E-04
 -1      3529-7.64451E-04 2.96993E-05 4.30762E-04
 -1      3530-9.57925E-04 1.81258E-05 5.55484E-04
 -1      3531-1.35251E-03 6.90343E-05 8.68643E-04
 -1      3532-1.35154E-03 1.15226E-04 8.58556E-04
 -1      3533-1.55303E-03 1.50701E-04 1.04519E-03
 -1      3534-1.35118E-03 1.63767E-04 8.43701E-04
 -1      3535-1.35147E-03 2.15452E-04 8.23283E-04
 -1      3536-1.35282E-03 2.37979E-05 8.73930E-04
 -1      3537-1.55329E-03 5.04696E-05 1.06738E-03
 -1      3538-1.15366E-03 8.25180E-07 7.03378E-04
 -1      3539-1.35272E-03-2.10755E-05 8.74041E-04
 -1      3540-9.57893E-04-1.68842E-05 5.55632E-04
 -1      3541-1.75534E-03 2.78498E-05 1.29029E-03
 -1      3542-1.75513E-03 7.96970E-05 1.28380E-03
 -1      3543-1.95811E-03 1.11601E-04 1.52352E-03
 -1      3544-1.75535E-03 1.32881E-04 1.27171E-03
 -1      3545-1.75650E-03 1.87685E-04 1.25374E-03
 -1      3546-1.75584E-03-2.38636E-05 1.29113E-03
 -1      3547-1.95805E-03 2.26386E-06 1.53746E-03
 -1      3548-1.55418E-03-4.70323E-05 1.06881E-03
 -1      3549-1.75663E-03-7.58515E-05 1.28626E-03
 -1      3550-1.35325E-03-6.63968E-05 8.70059E-04
 -1      3551-2.16119E-03-2.55701E-05 1.80814E-03
 -1      3552-2.16072E-03 3.05704E-05 1.80716E-03
 -1      3553-2.36407E-03 6.07017E-05 2.10068E-03
 -1      3554-2.16117E-03 8.71749E-05 1.79998E-03
 -1      3555-2.16225E-03 1.44617E-04 1.78630E-03
 -1      3556-2.16260E-03-8.21088E-05 1.80297E-03
 -1      3557-2.36501E-03-5.51163E-05 2.10276E-03
 -1      3558-1.95991E-03-1.06677E-04 1.52699E-03
 -1      3559-2.16436E-03-1.39185E-04 1.79087E-03
 -1      3560-1.75752E-03-1.28692E-04 1.27541E-03
 -1      3561-2.56920E-03-8.57941E-05 2.42071E-03
 -1      3562-2.56748E-03-2.65751E-05 2.42616E-03
 -1      3563-2.77029E-03 3.14213E-06 2.77359E-03
 -1      3564-2.56706E-03 3.25024E-05 2.42516E-03
 -1      3565-2.56783E-03 9.17786E-05 2.41739E-03
 -1      3566-2.57196E-03-1.45696E-04 2.40828E-03
 -1      3567-2.77378E-03-1.17193E-04 2.76223E-03
 -1      3568-2.37001E-03-1.72861E-04 2.07856E-03
 -1      3569-2.57582E-03-2.06712E-04 2.38880E-03
 -1      3570-2.16729E-03-1.97894E-04 1.77243E-03
 -1      3571-2.97359E-03-2.69168E-05 3.14556E-03
 -1      3572-2.97322E-03 3.37262E-05 3.14440E-03
 -1      3573-2.97545E-03-8.75897E-05 3.13986E-03
 -1      3574-3.17712E-03-5.74587E-05 3.54159E-03
 -1      3575-2.97882E-03-1.48936E-04 3.12730E-03
 -1      3576-3.17640E-03 6.48665E-05 3.53902E-03
 -1      3577-2.97422E-03 9.45041E-05 3.13635E-03
 -1      3578-2.97692E-03 1.55734E-04 3.12171E-03
 -1      3579-2.77233E-03 1.23554E-04 2.75811E-03
 -1      3580-2.57000E-03 1.51703E-04 2.40315E-03
 -1      3581-3.37834E-03 3.47279E-05 3.96555E-03
 -1      3582-3.37947E-03 9.63019E-05 3.95768E-03
 -1      3583-3.37865E-03-2.67680E-05 3.96725E-03
 -1      3584-3.57998E-03 4.30412E-06 4.41685E-03
 -1      3585-3.38076E-03-8.83798E-05 3.96178E-03
 -1      3586-3.58223E-03 1.27845E-04 4.40022E-03
 -1      3587-3.38259E-03 1.57915E-04 3.94241E-03
 -1      3588-3.38743E-03 2.20445E-04 3.91986E-03
 -1      3589-3.18195E-03 1.88189E-04 3.50877E-03
 -1      3590-2.98103E-03 2.17765E-04 3.09944E-03
 -1      3591-3.78029E-03-2.68379E-05 4.89303E-03
 -1      3592-3.77901E-03 3.56425E-05 4.89004E-03
 -1      3593-3.97740E-03 6.71178E-05 5.39043E-03
 -1      3594-3.78056E-03 9.76830E-05 4.88287E-03
 -1      3595-3.78382E-03 1.59704E-04 4.86815E-03
 -1      3596-3.78254E-03-8.88952E-05 4.88828E-03
 -1      3597-3.97834E-03-5.79558E-05 5.39304E-03
 -1      3598-3.58453E-03-1.19712E-04 4.40636E-03
 -1      3599-3.78650E-03-1.51688E-04 4.87574E-03
 -1      3600-3.38492E-03-1.50255E-04 3.94916E-03
 -1      3601-4.16983E-03-8.90121E-05 5.91692E-03
 -1      3602-4.16454E-03-2.70074E-05 5.92232E-03
 -1      3603-4.34801E-03 5.47220E-06 6.47349E-03
 -1      3604-4.16808E-03 3.69699E-05 5.92029E-03
 -1      3605-4.16923E-03 1.00000E-04 5.91156E-03
 -1      3606-4.17410E-03-1.52129E-04 5.91312E-03
 -1      3607-4.35421E-03-1.22818E-04 6.47139E-03
 -1      3608-3.79220E-03-2.14134E-04 4.85738E-03
 -1      3609-3.98605E-03-1.83477E-04 5.36955E-03
 -1      3610-4.18205E-03-2.15589E-04 5.89731E-03
 -1      3611-4.51045E-03-2.74466E-05 7.03512E-03
 -1      3612-4.50901E-03 3.72856E-05 7.03307E-03
 -1      3613-4.50831E-03-9.31039E-05 7.03112E-03
 -1      3614-4.65333E-03-6.15325E-05 7.59923E-03
 -1      3615-4.51806E-03-1.57801E-04 7.02712E-03
 -1      3616-4.65537E-03 7.27008E-05 7.60017E-03
 -1      3617-4.51477E-03 1.03436E-04 7.03022E-03
 -1      3618-4.35399E-03 1.33364E-04 6.45670E-03
 -1      3619-4.17323E-03 1.63036E-04 5.89807E-03
 -1      3620-4.51880E-03 1.68430E-04 7.01780E-03
 -1      3621-4.76349E-03-9.76613E-05 8.15860E-03
 -1      3622-4.76424E-03-2.97833E-05 8.16396E-03
 -1      3623-4.83997E-03 4.49662E-06 8.66545E-03
 -1      3624-4.76224E-03 3.98272E-05 8.15286E-03
 -1      3625-4.76180E-03 1.08038E-04 8.14699E-03
 -1      3626-4.77153E-03-1.66243E-04 8.16103E-03
 -1      3627-4.84830E-03-1.38406E-04 8.67312E-03
 -1      3628-4.52618E-03-2.24128E-04 7.03479E-03
 -1      3629-4.66259E-03-1.96473E-04 7.60425E-03
 -1      3630-4.77288E-03-2.32499E-04 8.16859E-03
 -1      3631-4.88498E-03-3.18531E-05 9.09749E-03
 -1      3632-4.88382E-03 4.18288E-05 9.08747E-03
 -1      3633-4.88784E-03-1.08200E-04 9.10658E-03
 -1      3634-4.91440E-03-7.05468E-05 9.44026E-03
 -1      3635-4.88963E-03-1.74901E-04 9.10426E-03
 -1      3636-4.91490E-03 7.86729E-05 9.42707E-03
 -1      3637-4.88549E-03 1.13459E-04 9.08119E-03
 -1      3638-4.76651E-03 1.76997E-04 8.14105E-03
 -1      3639-4.84286E-03 1.46059E-04 8.64887E-03
 -1      3640-4.88891E-03 1.83843E-04 9.07619E-03
 -1      3641-4.94038E-03-1.08992E-04 9.67354E-03
 -1      3642-4.94218E-03-3.25856E-05 9.67047E-03
 -1      3643-4.97044E-03 4.27623E-06 9.81317E-03
 -1      3644-4.94268E-03 4.28027E-05 9.66808E-03
 -1      3645-4.94219E-03 1.16289E-04 9.66236E-03
 -1      3646-4.94372E-03-1.84328E-04 9.66538E-03
 -1      3647-4.97105E-03-1.47062E-04 9.80513E-03
 -1      3648-4.95197E-03-2.54280E-04 9.65589E-03
 -1      3649-4.92233E-03-2.15601E-04 9.43645E-03
 -1      3650-4.89124E-03-2.43229E-04 9.10078E-03
 -1      3651-4.99843E-03-3.32328E-05 9.86056E-03
 -1      3652-4.99859E-03 4.29984E-05 9.86000E-03
 -1      3653-4.99783E-03-1.09283E-04 9.85572E-03
 -1      3654-5.02621E-03-7.04718E-05 9.81605E-03
 -1      3655-4.99894E-03-1.83906E-04 9.84701E-03
 -1      3656-5.02688E-03 7.93940E-05 9.81534E-03
 -1      3657-4.99877E-03 1.17027E-04 9.85486E-03
 -1      3658-4.94409E-03 1.88623E-04 9.65411E-03
 -1      3659-4.97154E-03 1.52944E-04 9.80161E-03
 -1      3660-4.99935E-03 1.89224E-04 9.84583E-03
 -1      3661-5.05336E-03-1.07780E-04 9.67772E-03
 -1      3662-5.05443E-03-3.21191E-05 9.68334E-03
 -1      3663-5.08207E-03 4.91590E-06 9.45555E-03
 -1      3664-5.05429E-03 4.22544E-05 9.68298E-03
 -1      3665-5.05410E-03 1.15962E-04 9.67598E-03
 -1      3666-5.05074E-03-1.79217E-04 9.66821E-03
 -1      3667-5.07620E-03-1.40428E-04 9.44286E-03
 -1      3668-4.99920E-03-2.53904E-04 9.83616E-03
 -1      3669-5.02484E-03-2.16628E-04 9.79907E-03
 -1      3670-5.04828E-03-2.49062E-04 9.65965E-03
 -1      3671-5.11314E-03-3.14242E-05 9.12513E-03
 -1      3672-5.11279E-03 4.05302E-05 9.12386E-03
 -1      3673-5.11657E-03-1.02066E-04 9.12882E-03
 -1      3674-5.15587E-03-6.34099E-05 8.70956E-03
 -1      3675-5.11087E-03-1.70672E-04 9.11768E-03
 -1      3676-5.15676E-03 7.31930E-05 8.70534E-03
 -1      3677-5.11771E-03 1.11888E-04 9.12295E-03
 -1      3678-5.05244E-03 1.86217E-04 9.66419E-03
 -1      3679-5.07833E-03 1.49606E-04 9.43469E-03
 -1      3680-5.11721E-03 1.80386E-04 9.10602E-03
 -1      3681-5.22902E-03-9.83151E-05 8.21277E-03
 -1      3682-5.22484E-03-3.03672E-05 8.21538E-03
 -1      3683-5.32959E-03 4.80487E-06 7.67061E-03
 -1      3684-5.22515E-03 3.95776E-05 8.21348E-03
 -1      3685-5.23123E-03 1.08203E-04 8.20524E-03
 -1      3686-5.22741E-03-1.61820E-04 8.20300E-03
 -1      3687-5.32591E-03-1.27720E-04 7.66114E-03
 -1      3688-5.21691E-03-2.28101E-04 8.19412E-03
 -1      3689-5.15422E-03-1.99552E-04 8.70449E-03
 -1      3690-5.10812E-03-2.38319E-04 9.10831E-03
 -1      3691-5.47258E-03-2.92894E-05 7.10341E-03
 -1      3692-5.47456E-03 3.92262E-05 7.09880E-03
 -1      3693-5.46841E-03-9.36016E-05 7.09806E-03
 -1      3694-5.63264E-03-5.86222E-05 6.53226E-03
 -1      3695-5.46458E-03-1.56277E-04 7.08884E-03
 -1      3696-5.63044E-03 6.82705E-05 6.53228E-03
 -1      3697-5.46993E-03 1.02536E-04 7.09154E-03
 -1      3698-5.22925E-03 1.73096E-04 8.19032E-03
 -1      3699-5.32911E-03 1.37725E-04 7.65125E-03
 -1      3700-5.46536E-03 1.65965E-04 7.08007E-03
 -1      3701-5.81091E-03-8.99455E-05 5.97967E-03
 -1      3702-5.81297E-03-2.65540E-05 5.98503E-03
 -1      3703-5.99977E-03 5.15084E-06 5.45795E-03
 -1      3704-5.81219E-03 3.54857E-05 5.98529E-03
 -1      3705-5.80808E-03 9.98030E-05 5.97758E-03
 -1      3706-5.80735E-03-1.51429E-04 5.96785E-03
 -1      3707-5.99666E-03-1.19665E-04 5.44519E-03
 -1      3708-5.62471E-03-1.85604E-04 6.50937E-03
 -1      3709-5.79997E-03-2.13419E-04 5.95035E-03
 -1      3710-5.46077E-03-2.19068E-04 7.07166E-03
 -1      3711-6.19593E-03-2.57436E-05 4.95264E-03
 -1      3712-6.19510E-03 3.61103E-05 4.95298E-03
 -1      3713-6.19468E-03-8.81442E-05 4.94564E-03
 -1      3714-6.39499E-03-5.64987E-05 4.47074E-03
 -1      3715-6.19109E-03-1.50035E-04 4.93261E-03
 -1      3716-6.39387E-03 6.73098E-05 4.47098E-03
 -1      3717-6.19307E-03 9.83991E-05 4.94604E-03
 -1      3718-6.18957E-03 1.60717E-04 4.93267E-03
 -1      3719-5.99486E-03 1.30114E-04 5.44489E-03
 -1      3720-5.80410E-03 1.63179E-04 5.96289E-03
 -1      3721-6.59571E-03-8.70015E-05 4.01371E-03
 -1      3722-6.59679E-03-2.53088E-05 4.02081E-03
 -1      3723-6.79869E-03 5.40639E-06 3.59552E-03
 -1      3724-6.59605E-03 3.61708E-05 4.02140E-03
 -1      3725-6.59394E-03 9.76306E-05 4.01461E-03
 -1      3726-6.59292E-03-1.48809E-04 3.99969E-03
 -1      3727-6.79681E-03-1.17111E-04 3.58090E-03
 -1      3728-6.38882E-03-1.80649E-04 4.44292E-03
 -1      3729-6.58819E-03-2.11107E-04 3.97859E-03
 -1      3730-6.18583E-03-2.12391E-04 4.91203E-03
 -1      3731-7.00155E-03-2.48610E-05 3.19310E-03
 -1      3732-7.00083E-03 3.57871E-05 3.19357E-03
 -1      3733-7.00063E-03-8.56383E-05 3.18614E-03
 -1      3734-7.20414E-03-5.44981E-05 2.81510E-03
 -1      3735-6.99827E-03-1.46818E-04 3.17210E-03
 -1      3736-7.20295E-03 6.56255E-05 2.81549E-03
 -1      3737-6.99869E-03 9.66794E-05 3.18712E-03
 -1      3738-6.99503E-03 1.58093E-04 3.17353E-03
 -1      3739-6.79407E-03 1.28178E-04 3.58267E-03
 -1      3740-6.58981E-03 1.59567E-04 4.00154E-03
 -1      3741-7.40702E-03 3.50974E-05 2.46745E-03
 -1      3742-7.40515E-03 9.45603E-05 2.46100E-03
 -1      3743-7.40755E-03-2.40261E-05 2.46735E-03
 -1      3744-7.61058E-03 5.52678E-06 2.14346E-03
 -1      3745-7.40686E-03-8.32880E-05 2.46068E-03
 -1      3746-7.60437E-03 1.21902E-04 2.13531E-03
 -1      3747-7.39917E-03 1.54269E-04 2.45290E-03
 -1      3748-7.19631E-03 1.87658E-04 2.78848E-03
 -1      3749-6.99014E-03 2.20444E-04 3.15273E-03
 -1      3750-7.39491E-03 2.15572E-04 2.43247E-03
 -1      3751-7.81403E-03-2.28637E-05 1.84286E-03
 -1      3752-7.81354E-03 3.37551E-05 1.84278E-03
 -1      3753-8.00877E-03 5.76404E-05 1.57603E-03
 -1      3754-7.80478E-03 8.80916E-05 1.84742E-03
 -1      3755-7.79943E-03 1.45379E-04 1.83955E-03
 -1      3756-7.81377E-03-7.94298E-05 1.83646E-03
 -1      3757-8.01719E-03-4.91071E-05 1.56619E-03
 -1      3758-7.60998E-03-1.10904E-04 2.12979E-03
 -1      3759-7.81295E-03-1.36704E-04 1.82334E-03
 -1      3760-7.40545E-03-1.43054E-04 2.44669E-03
 -1      3761-8.21994E-03-7.28267E-05 1.31371E-03
 -1      3762-8.21982E-03-2.06678E-05 1.31927E-03
 -1      3763-8.21589E-03 2.98803E-05 1.32344E-03
 -1      3764-8.20758E-03 8.01398E-05 1.32700E-03
 -1      3765-8.41814E-03 3.82139E-06 1.09981E-03
 -1      3766-8.21986E-03-1.25945E-04 1.30226E-03
 -1      3767-8.42249E-03-9.35770E-05 1.08576E-03
 -1      3768-8.01574E-03-1.60436E-04 1.54185E-03
 -1      3769-8.21888E-03-1.80999E-04 1.28477E-03
 -1      3770-7.81102E-03-1.95408E-04 1.80376E-03
 -1      3771-7.99675E-03 1.67864E-04 1.56359E-03
 -1      3772-7.79532E-03 2.05017E-04 1.82153E-03
 -1      3773-8.38920E-03 9.10583E-05 1.12140E-03
 -1      3774-8.18213E-03 1.22245E-04 1.34768E-03
 -1      3775-8.17919E-03 1.78239E-04 1.33261E-03
 -1      3776-1.15279E-03-8.12835E-05 6.95227E-04
 -1      3777-1.35263E-03-1.13306E-04 8.60238E-04
 -1      3778-1.35194E-03-1.61650E-04 8.45407E-04
 -1      3779-1.55464E-03-1.47419E-04 1.04810E-03
 -1      3780-1.75820E-03-1.83415E-04 1.25775E-03
 -1      3781-6.58190E-03-2.74392E-04 3.95003E-03
 -1      3782-6.78844E-03-2.41801E-04 3.53830E-03
 -1      3783-6.98920E-03-2.72013E-04 3.12221E-03
 -1      3784-6.99447E-03-2.08869E-04 3.15097E-03
 -1      3785-7.19990E-03-1.76073E-04 2.78755E-03
 -1      3786-6.98514E-03 2.82648E-04 3.12196E-03
 -1      3787-6.78467E-03 2.52093E-04 3.53855E-03
 -1      3788-6.57768E-03 2.84130E-04 3.95070E-03
 -1      3789-6.58373E-03 2.21818E-04 3.98131E-03
 -1      3790-6.38536E-03 1.91079E-04 4.44476E-03
 -1      3791-2.58092E-03-2.69192E-04 2.36171E-03
 -1      3792-2.78239E-03-2.40810E-04 2.72251E-03
 -1      3793-2.98952E-03-2.74381E-04 3.07994E-03
 -1      3794-2.98363E-03-2.11132E-04 3.10742E-03
 -1      3795-3.18439E-03-1.81009E-04 3.51641E-03
 -1      3796-1.96173E-03 2.25953E-04 1.48511E-03
 -1      3797-1.75874E-03 2.45106E-04 1.22924E-03
 -1      3798-2.16450E-03 2.03400E-04 1.76598E-03
 -1      3799-2.16793E-03 2.64067E-04 1.73883E-03
 -1      3800-2.36735E-03 1.78511E-04 2.07237E-03
 -1      3801-8.62249E-03-1.09946E-04 8.84017E-04
 -1      3802-8.62173E-03-6.31429E-05 8.93601E-04
 -1      3803-8.82032E-03-3.63874E-05 7.22584E-04
 -1      3804-8.62240E-03-1.78114E-05 8.96870E-04
 -1      3805-8.61852E-03 2.61256E-05 9.00114E-04
 -1      3806-8.20992E-03-2.34489E-04 1.27105E-03
 -1      3807-8.41469E-03-1.95094E-04 1.06249E-03
 -1      3808-8.62463E-03-1.54896E-04 8.69075E-04
 -1      3809-8.82303E-03-1.18253E-04 7.06636E-04
 -1      3810-8.61724E-03-2.03429E-04 8.57488E-04
 -1      3811-3.59566E-03 2.51298E-04 4.36296E-03
 -1      3812-3.39636E-03 2.82408E-04 3.89686E-03
 -1      3813-3.79003E-03 2.22054E-04 4.84762E-03
 -1      3814-3.80033E-03 2.83717E-04 4.82651E-03
 -1      3815-3.98409E-03 1.92208E-04 5.36233E-03
 -1      3816-3.40861E-03 3.56978E-04 3.85904E-03
 -1      3817-3.19769E-03 3.24975E-04 3.44866E-03
 -1      3818-2.99677E-03 3.56000E-04 3.03019E-03
 -1      3819-2.98635E-03 2.80976E-04 3.06965E-03
 -1      3820-2.77964E-03 2.47030E-04 2.71418E-03
 -1      3821-8.00604E-03-2.78269E-04 1.49715E-03
 -1      3822-8.20208E-03-2.93963E-04 1.24613E-03
 -1      3823-7.80918E-03-2.54959E-04 1.77601E-03
 -1      3824-7.80023E-03-3.16967E-04 1.74912E-03
 -1      3825-7.60647E-03-2.29883E-04 2.08767E-03
 -1      3826-7.18074E-03 3.13584E-04 2.73873E-03
 -1      3827-6.97365E-03 3.46983E-04 3.09336E-03
 -1      3828-7.39045E-03 2.78644E-04 2.40284E-03
 -1      3829-7.38016E-03 3.42729E-04 2.37319E-03
 -1      3830-7.59465E-03 2.42752E-04 2.09863E-03
 -1      3831-6.36818E-03-3.02703E-04 4.40560E-03
 -1      3832-6.56731E-03-3.34380E-04 3.93182E-03
 -1      3833-6.17653E-03-2.74339E-04 4.89055E-03
 -1      3834-6.16088E-03-3.33476E-04 4.87610E-03
 -1      3835-5.98225E-03-2.43873E-04 5.41210E-03
 -1      3836-2.36548E-03-2.91064E-04 2.00846E-03
 -1      3837-2.57321E-03-3.28063E-04 2.30821E-03
 -1      3838-2.16909E-03-2.57327E-04 1.74447E-03
 -1      3839-2.16068E-03-3.14704E-04 1.69588E-03
 -1      3840-1.96231E-03-2.19774E-04 1.48899E-03
 -1      3841-6.99234E-03-3.32078E-04 3.07106E-03
 -1      3842-7.19998E-03-2.97593E-04 2.71669E-03
 -1      3843-6.77425E-03-3.70875E-04 3.46486E-03
 -1      3844-6.98502E-03-3.98138E-04 3.02600E-03
 -1      3845-6.55837E-03-4.00008E-04 3.88778E-03
 -1      3846-2.99353E-03-3.34865E-04 3.04142E-03
 -1      3847-3.19418E-03-3.03829E-04 3.45801E-03
 -1      3848-2.55914E-03-3.92329E-04 2.23244E-03
 -1      3849-2.77455E-03-3.68490E-04 2.61576E-03
 -1      3850-2.98050E-03-3.99805E-04 2.95974E-03
 -1      3851-3.39886E-03-2.74363E-04 3.90777E-03
 -1      3852-3.59763E-03-2.43038E-04 4.37305E-03
 -1      3853-3.39024E-03-2.12951E-04 3.92998E-03
 -1      3854-3.40402E-03-3.34701E-04 3.86936E-03
 -1      3855-6.55957E-03 3.58406E-04 3.92498E-03
 -1      3856-6.35985E-03 3.27124E-04 4.40316E-03
 -1      3857-6.77759E-03 3.74030E-04 3.45390E-03
 -1      3858-6.55758E-03 4.18168E-04 3.86933E-03
 -1      3859-6.15305E-03 3.59199E-04 4.86732E-03
 -1      3860-6.17284E-03 2.85832E-04 4.88908E-03
 -1      3861-5.98152E-03 2.55688E-04 5.40745E-03
 -1      3862-6.18321E-03 2.23175E-04 4.91331E-03
 -1      3863-6.11750E-03 4.14047E-04 4.89066E-03
 -1      3864-5.93444E-03 3.71694E-04 5.41242E-03
 -1      3865-6.43059E-03 4.69273E-04 4.08962E-03
 -1      3866-6.19897E-03 4.65854E-04 4.62724E-03
 -1      3867-5.79111E-03 2.87236E-04 5.92096E-03
 -1      3868-5.79889E-03 2.25281E-04 5.94276E-03
 -1      3869-5.60504E-03 3.19461E-04 6.45763E-03
 -1      3870-5.77662E-03 3.48616E-04 5.89381E-03
 -1      3871-9.03136E-03-1.16741E-04 5.47899E-04
 -1      3872-9.02837E-03-8.07019E-05 5.58455E-04
 -1      3873-9.01686E-03-4.98317E-05 5.70755E-04
 -1      3874-9.01702E-03-1.38934E-05 5.72946E-04
 -1      3875-9.22113E-03-5.19402E-05 4.36288E-04
 -1      3876-8.61087E-03-2.50327E-04 8.40581E-04
 -1      3877-8.82095E-03-2.02547E-04 6.79142E-04
 -1      3878-9.02789E-03-1.53810E-04 5.39346E-04
 -1      3879-9.02389E-03-1.93101E-04 5.27573E-04
 -1      3880-8.97265E-03 1.42679E-05 6.05108E-04
 -1      3881-8.78580E-03 3.51263E-05 7.51414E-04
 -1      3882-8.58283E-03 6.06010E-05 9.30675E-04
 -1      3883-8.93866E-03 4.27497E-05 6.29201E-04
 -1      3884-1.55607E-03 2.61284E-04 9.99283E-04
 -1      3885-1.35388E-03 2.71497E-04 7.95741E-04
 -1      3886-1.15192E-03 2.75358E-04 6.19865E-04
 -1      3887-9.50294E-04 2.71102E-04 4.69749E-04
 -1      3888-4.00090E-03 3.16992E-04 5.30582E-03
 -1      3889-3.80995E-03 3.47145E-04 4.78906E-03
 -1      3890-3.63309E-03 3.71569E-04 4.34339E-03
 -1      3891-3.43576E-03 4.15876E-04 3.85727E-03
 -1      3892-4.18608E-03 2.86860E-04 5.85144E-03
 -1      3893-4.19752E-03 3.48328E-04 5.81782E-03
 -1      3894-4.17793E-03 2.25557E-04 5.87918E-03
 -1      3895-4.36408E-03 2.58517E-04 6.41703E-03
 -1      3896-2.98900E-03 4.15005E-04 2.96101E-03
 -1      3897-2.77617E-03 3.68582E-04 2.61855E-03
 -1      3898-3.10402E-03 4.69399E-04 3.12375E-03
 -1      3899-3.34223E-03 4.70070E-04 3.60076E-03
 -1      3900-2.37508E-03 3.02281E-04 2.01551E-03
 -1      3901-2.57746E-03 2.75121E-04 2.35239E-03
 -1      3902-2.58290E-03 3.39486E-04 2.31540E-03
 -1      3903-2.57312E-03 2.12730E-04 2.38152E-03
 -1      3904-7.40377E-03-3.24996E-04 2.34823E-03
 -1      3905-7.39961E-03-2.65580E-04 2.39638E-03
 -1      3906-7.40239E-03-2.04142E-04 2.42603E-03
 -1      3907-1.95234E-03-3.32867E-04 1.40748E-03
 -1      3908-2.14958E-03-3.70805E-04 1.63811E-03
 -1      3909-2.34422E-03-3.98775E-04 1.89312E-03
 -1      3910-2.54612E-03-4.42242E-04 2.16487E-03
 -1      3911-1.75913E-03-2.39657E-04 1.23248E-03
 -1      3912-1.55886E-03-2.55379E-04 1.00568E-03
 -1      3913-1.76390E-03-2.97584E-04 1.20430E-03
 -1      3914-1.75244E-03-3.51652E-04 1.15286E-03
 -1      3915-2.98019E-03-4.53717E-04 2.90536E-03
 -1      3916-3.19944E-03-4.18061E-04 3.36502E-03
 -1      3917-2.87892E-03-4.93113E-04 2.67837E-03
 -1      3918-2.64467E-03-4.88933E-04 2.27776E-03
 -1      3919-7.00910E-03-4.50192E-04 2.92949E-03
 -1      3920-7.22780E-03-4.09133E-04 2.57516E-03
 -1      3921-7.40283E-03-3.85058E-04 2.30091E-03
 -1      3922-7.60344E-03-3.50264E-04 2.01262E-03
 -1      3923-6.32290E-03-4.13249E-04 4.39989E-03
 -1      3924-6.52932E-03-4.51695E-04 3.89423E-03
 -1      3925-6.63936E-03-4.93607E-04 3.61227E-03
 -1      3926-6.87996E-03-4.93937E-04 3.12846E-03
 -1      3927-7.57279E-03 3.71444E-04 2.04215E-03
 -1      3928-7.79436E-03 3.31567E-04 1.74673E-03
 -1      3929-7.77674E-03 3.97464E-04 1.71836E-03
 -1      3930-7.79186E-03 2.66442E-04 1.79361E-03
 -1      3931-7.99628E-03 2.89386E-04 1.50274E-03
 -1      3932-7.97006E-03 4.27531E-04 1.42799E-03
 -1      3933-7.74780E-03 4.72056E-04 1.68833E-03
 -1      3934-8.45446E-03 2.68836E-04 9.83975E-04
 -1      3935-8.23384E-03 3.44398E-04 1.17417E-03
 -1      3936-8.21992E-03 2.81248E-04 1.23323E-03
 -1      3937-8.21568E-03 2.20477E-04 1.27111E-03
 -1      3938-8.10734E-03 3.84254E-04 1.29285E-03
 -1      3939-4.38947E-03 3.80748E-04 6.35696E-03
 -1      3940-4.54477E-03 3.55789E-04 6.95121E-03
 -1      3941-4.53289E-03 2.94479E-04 6.97513E-03
 -1      3942-4.67992E-03 3.31766E-04 7.53991E-03
 -1      3943-4.52157E-03 2.33181E-04 6.99936E-03
 -1      3944-4.79236E-03 3.64045E-04 8.08963E-03
 -1      3945-4.88425E-03 3.90881E-04 8.60525E-03
 -1      3946-4.78310E-03 3.05805E-04 8.11002E-03
 -1      3947-4.91286E-03 3.69171E-04 9.03478E-03
 -1      3948-4.93112E-03 4.20364E-04 9.03301E-03
 -1      3949-4.97253E-03 4.37920E-04 9.41071E-03
 -1      3950-4.96358E-03 4.59046E-04 9.09032E-03
 -1      3951-4.89809E-03 3.13537E-04 9.05362E-03
 -1      3952-4.93782E-03 3.44648E-04 9.37773E-03
 -1      3953-4.85442E-03 2.80592E-04 8.62357E-03
 -1      3954-4.89451E-03 2.52736E-04 9.06427E-03
 -1      3955-4.77480E-03 2.43533E-04 8.12586E-03
 -1      3956-4.95483E-03 3.18176E-04 9.62895E-03
 -1      3957-4.96353E-03 3.72366E-04 9.62029E-03
 -1      3958-4.98436E-03 3.90377E-04 9.76097E-03
 -1      3959-4.97366E-03 4.14094E-04 9.60688E-03
 -1      3960-4.94902E-03 2.57115E-04 9.64251E-03
 -1      3961-4.97665E-03 2.86444E-04 9.77946E-03
 -1      3962-4.92025E-03 2.19841E-04 9.40980E-03
 -1      3963-4.99956E-03 2.57074E-04 9.83494E-03
 -1      3964-5.00108E-03 3.17916E-04 9.82570E-03
 -1      3965-5.02157E-03 3.51567E-04 9.77435E-03
 -1      3966-5.00112E-03 3.79139E-04 9.82198E-03
 -1      3967-4.66310E-03 2.04617E-04 7.57941E-03
 -1      3968-5.02594E-03 2.21218E-04 9.79680E-03
 -1      3969-5.04596E-03 3.15247E-04 9.64100E-03
 -1      3970-5.03877E-03 3.77826E-04 9.62939E-03
 -1      3971-5.05079E-03 2.53747E-04 9.65141E-03
 -1      3972-5.07180E-03 2.80276E-04 9.40740E-03
 -1      3973-5.05633E-03 3.85028E-04 9.35989E-03
 -1      3974-5.03030E-03 4.18321E-04 9.60766E-03
 -1      3975-5.10809E-03 2.48257E-04 9.08757E-03
 -1      3976-5.10249E-03 3.09822E-04 9.07475E-03
 -1      3977-5.13073E-03 3.37410E-04 8.63420E-03
 -1      3978-5.08240E-03 3.67798E-04 9.05313E-03
 -1      3979-5.15468E-03 2.10812E-04 8.68232E-03
 -1      3980-5.21280E-03 3.00887E-04 8.14409E-03
 -1      3981-5.19251E-03 3.59851E-04 8.11863E-03
 -1      3982-5.21794E-03 2.38601E-04 8.16687E-03
 -1      3983-5.31711E-03 2.65486E-04 7.61055E-03
 -1      3984-5.28815E-03 3.84013E-04 7.56171E-03
 -1      3985-5.44098E-03 3.51354E-04 7.00277E-03
 -1      3986-5.46174E-03 2.28620E-04 7.06189E-03
 -1      3987-5.45288E-03 2.92989E-04 7.02952E-03
 -1      3988-5.62187E-03 1.95472E-04 6.50428E-03
 -1      3989-9.56831E-04-5.23520E-05 5.52504E-04
 -1      3990-9.23805E-03-1.75932E-04 3.94150E-04
 -1      3991-9.04781E-03-2.75592E-04 4.66865E-04
 -1      3992-9.06720E-03-3.30255E-04 4.14210E-04
 -1      3993-9.03214E-03-2.35593E-04 5.01518E-04
 -1      3994-8.83102E-03-2.89953E-04 6.23864E-04
 -1      3995-8.61666E-03-3.03336E-04 8.03818E-04
 -1      3996-1.76243E-03 3.05956E-04 1.19712E-03
 -1      3997-1.97790E-03 3.50215E-04 1.42684E-03
 -1      3998-2.17254E-03 3.26995E-04 1.70372E-03
 -1      3999-9.33716E-04 3.29904E-04 4.16428E-04
 -1      4000-7.60060E-04-9.10721E-05 4.18794E-04
 -1      4001-9.68621E-04-2.29787E-04 5.05927E-04
 -1      4002-9.50257E-04-1.71427E-04 5.18802E-04
 -1      4003-1.14961E-03-1.70729E-04 6.68554E-04
 -1      4004-9.53651E-04-1.29054E-04 5.34589E-04
 -1      4005-9.55364E-04-8.98550E-05 5.45702E-04
 -1      4006-1.18614E-03-2.70621E-04 6.50734E-04
 -1      4007-4.99955E-04-2.18222E-04 2.23144E-04
 -1      4008-1.35158E-03-2.13490E-04 8.24494E-04
 -1      4009-1.35526E-03-2.67237E-04 8.00000E-04
 -1      4010-1.39436E-03-3.20948E-04 8.02074E-04
 -1      4011-9.21425E-03 9.61243E-05 4.32871E-04
 -1      4012-9.06005E-03 2.17715E-04 4.91233E-04
 -1      4013-9.05151E-03 1.71143E-04 5.17538E-04
 -1      4014-8.83735E-03 1.77037E-04 6.76585E-04
 -1      4015-9.03139E-03 1.34224E-04 5.43737E-04
 -1      4016-9.00477E-03 9.99430E-05 5.71473E-04
 -1      4017-8.86780E-03 2.72869E-04 6.04994E-04
 -1      4018-8.64753E-03 2.18674E-04 8.22531E-04
 -1      4019-8.62933E-03 1.72840E-04 8.58643E-04
 -1      4020-8.66394E-03 2.74466E-04 7.78109E-04
 -1      4021-8.40135E-03 1.71235E-04 1.08575E-03
 -1      4022-8.59187E-03 1.36260E-04 9.05968E-04
 -1      4023-8.78453E-03 1.01653E-04 7.43150E-04
 -1      4024-8.97090E-03 7.03711E-05 6.01444E-04
 -1      4025-8.55833E-03 9.82271E-05 9.47733E-04
 -1      4026-3.80189E-03-2.74835E-04 4.83698E-03
 -1      4027-3.81587E-03-3.37000E-04 4.81166E-03
 -1      4028-4.00665E-03-3.07476E-04 5.32852E-03
 -1      4029-4.20696E-03-3.39378E-04 5.85445E-03
 -1      4030-4.19119E-03-2.78449E-04 5.87692E-03
 -1      4031-4.37130E-03-2.48825E-04 6.44916E-03
 -1      4032-3.40874E-03-3.95827E-04 3.82047E-03
 -1      4033-3.61288E-03-3.65164E-04 4.30352E-03
 -1      4034-3.82277E-03-3.97317E-04 4.76385E-03
 -1      4035-4.21942E-03-4.00917E-04 5.80859E-03
 -1      4036-4.39722E-03-3.72249E-04 6.38620E-03
 -1      4037-4.01746E-03-4.39007E-04 5.20042E-03
 -1      4038-4.21930E-03-4.69444E-04 5.70367E-03
 -1      4039-4.56138E-03-3.45731E-04 6.99657E-03
 -1      4040-4.69063E-03-3.21809E-04 7.58950E-03
 -1      4041-4.53557E-03-2.82939E-04 7.02132E-03
 -1      4042-4.88834E-03-3.88966E-04 8.62788E-03
 -1      4043-4.80251E-03-3.54596E-04 8.13899E-03
 -1      4044-4.77314E-03-2.95792E-04 8.16170E-03
 -1      4045-4.93667E-03-4.17103E-04 9.04617E-03
 -1      4046-4.91422E-03-3.63546E-04 9.07015E-03
 -1      4047-4.96169E-03-4.57353E-04 9.08100E-03
 -1      4048-4.96751E-03-4.30874E-04 9.41978E-03
 -1      4049-4.94187E-03-3.39478E-04 9.40407E-03
 -1      4050-4.90163E-03-3.09919E-04 9.09326E-03
 -1      4051-4.85550E-03-2.69442E-04 8.66554E-03
 -1      4052-4.96445E-03-3.68159E-04 9.63208E-03
 -1      4053-4.95775E-03-3.15577E-04 9.64423E-03
 -1      4054-4.97331E-03-4.09797E-04 9.63338E-03
 -1      4055-4.98479E-03-3.88850E-04 9.77385E-03
 -1      4056-4.97714E-03-2.84012E-04 9.78375E-03
 -1      4057-5.00045E-03-3.15901E-04 9.82742E-03
 -1      4058-4.99952E-03-3.66088E-04 9.82348E-03
 -1      4059-5.01988E-03-3.37474E-04 9.78174E-03
 -1      4060-5.00072E-03-4.08225E-04 9.82714E-03
 -1      4061-8.20626E-03-3.51516E-04 1.20093E-03
 -1      4062-8.41141E-03-3.01931E-04 1.00876E-03
 -1      4063-7.79984E-03-3.76131E-04 1.70406E-03
 -1      4064-7.98686E-03-4.11907E-04 1.42077E-03
 -1      4065-5.95856E-03-3.62985E-04 5.36730E-03
 -1      4066-6.14632E-03-3.91919E-04 4.85028E-03
 -1      4067-5.79086E-03-2.75909E-04 5.92937E-03
 -1      4068-5.60362E-03-3.08119E-04 6.47253E-03
 -1      4069-5.77846E-03-3.37117E-04 5.90578E-03
 -1      4070-5.76094E-03-3.94001E-04 5.88334E-03
 -1      4071-5.44985E-03-2.83398E-04 7.04779E-03
 -1      4072-5.43301E-03-3.43360E-04 7.02865E-03
 -1      4073-5.31347E-03-2.55796E-04 7.63321E-03
 -1      4074-5.28650E-03-3.74652E-04 7.59268E-03
 -1      4075-5.41602E-03-4.00034E-04 7.00759E-03
 -1      4076-5.40053E-03-4.61307E-04 6.93468E-03
 -1      4077-5.57607E-03-4.34484E-04 6.37158E-03
 -1      4078-5.19568E-03-3.52072E-04 8.16386E-03
 -1      4079-5.20734E-03-2.91383E-04 8.17389E-03
 -1      4080-5.13301E-03-3.25362E-04 8.68579E-03
 -1      4081-5.08827E-03-3.60117E-04 9.09431E-03
 -1      4082-5.04587E-03-3.82977E-04 9.42077E-03
 -1      4083-5.10022E-03-3.00483E-04 9.09948E-03
 -1      4084-5.03795E-03-3.61472E-04 9.64309E-03
 -1      4085-5.02467E-03-4.08620E-04 9.65126E-03
 -1      4086-5.01256E-03-4.17273E-04 9.77457E-03
 -1      4087-5.01765E-03-4.37302E-04 9.64000E-03
 -1      4088-5.06930E-03-2.72959E-04 9.42425E-03
 -1      4089-5.04426E-03-3.09758E-04 9.65016E-03
 -1      4090-1.56895E-03-3.80395E-04 9.29795E-04
 -1      4091-9.15327E-03 2.09020E-04 8.85665E-04
 -1      4092-9.64980E-03-1.32745E-04 1.41105E-04
 -1      4093-3.44955E-04 1.31300E-04 1.39889E-04
 -1      4094-9.64771E-03 1.33915E-04 1.42280E-04
 -1      4095-9.34276E-03 9.38517E-05 6.52835E-04
 -1      4096-1.51644E-03 3.83947E-05 3.08295E-03
 -1      4097-1.10196E-03-3.22121E-05 1.71179E-03
 -1      4098-1.10771E-03 1.03170E-04 1.68311E-03
 -1      4099-1.94577E-03 4.16411E-05 4.89832E-03
 -1      4100-4.96357E-04 4.61505E-05 4.11956E-04
 -1      4101-1.52246E-03-1.06873E-04 3.06083E-03
 -1      4102-8.04954E-03 2.57502E-04 4.80426E-03
 -1      4103-8.51808E-03-1.83381E-05 2.97801E-03
 -1      4104-1.95844E-03-1.14866E-04 4.94890E-03
 -1      4105-8.10931E-03-1.12802E-04 4.56474E-03
 -1      4106-8.09176E-03 4.24723E-05 4.59268E-03
 -1      4107-8.92871E-03 2.20896E-05 1.63881E-03
 -1      4108-9.53623E-03 3.38594E-06 3.79512E-04
 -1      4109-8.51036E-03 1.12827E-04 2.85061E-03
 -1      4110-1.49594E-03 2.43925E-04 2.73841E-03
 -1      4111-4.87341E-04-4.46396E-05 3.91336E-04
 -1      4112-8.97331E-04-1.26585E-04 1.11701E-03
 -1      4113-3.50522E-04-1.33436E-04 1.42299E-04
 -1      4114-1.08243E-03 2.25997E-04 1.43518E-03
 -1      4115-8.71633E-03-1.24351E-04 2.20303E-03
 -1      4116-9.13266E-03-1.12678E-04 1.05569E-03
 -1      4117-1.69900E-03 1.49611E-04 3.88146E-03
 -1      4118-8.74106E-03 2.09709E-04 1.97341E-03
 -1      4119-9.55424E-03-7.26456E-05 3.21723E-04
 -1      4120-1.74253E-03-2.18969E-04 3.85792E-03
 -1      4121-8.49094E-03-2.44505E-04 2.73988E-03
 -1      4122-1.17103E-03-2.28056E-04 1.71559E-03
 -1      4123-8.90488E-03-2.28236E-04 1.43298E-03
 -1      4124-7.16483E-04 1.49684E-04 6.70017E-04
 -1      4125-2.04089E-03 2.48051E-04 5.26843E-03
 -1      4126-7.99969E-04-2.19135E-04 6.63879E-04
 -1      4127-8.00961E-03-2.41087E-04 5.10223E-03
 -1      4128-9.73755E-03 4.14516E-05 1.44799E-04
 -1      4129-8.27628E-03 2.68152E-04 3.17171E-03
 -1      4130-8.19111E-03 1.40850E-04 5.35470E-03
 -1      4131-6.41895E-04-1.41736E-06 8.55038E-04
 -1      4132-9.37079E-03-1.87189E-04 5.95067E-04
 -1      4133-9.11328E-03 1.08105E-04 1.41843E-03
 -1      4134-2.36299E-03-2.49945E-04 5.66839E-03
 -1      4135-9.36433E-03-2.15542E-05 9.14180E-04
 -1      4136-2.53120E-03 1.61681E-04 5.69328E-03
 -1      4137-3.26432E-04 6.83063E-05 1.49792E-04
 -1      4138-7.43529E-03-1.77106E-04 6.16052E-03
 -1      4139-7.49261E-03-4.15609E-05 5.88454E-03
 -1      4140-1.80520E-03-3.10267E-04 2.72441E-03
 -1      4141-3.22099E-04 1.47921E-06 1.64800E-04
 -1      4142-1.44031E-03-1.55656E-04 2.01921E-03
 -1      4143-1.14322E-03 1.27266E-04 2.58320E-03
 -1      4144-8.08896E-03-1.76285E-04 3.33845E-03
 -1      4145-4.41188E-04-1.00366E-04 4.04604E-04
 -1      4146-7.31197E-03 8.29009E-05 6.40107E-03
 -1      4147-2.06734E-03-3.97536E-05 3.97004E-03
 -1      4148-2.19906E-03 3.25069E-04 3.94643E-03
 -1      4149-8.59952E-03 1.49506E-04 3.84421E-03
 -1      4150-9.82304E-03-1.55482E-05 8.84985E-05
 -1      4151-9.86796E-04 9.43596E-05 9.65918E-04
 -1      4152-3.07923E-04-5.55789E-05 1.37783E-04
 -1      4153-6.77353E-04 2.08509E-04 6.87699E-04
 -1      4154-7.80100E-03-3.29128E-04 3.88931E-03
 -1      4155-2.77573E-03 4.36420E-06 6.51271E-03
 -1      4156-8.66379E-03-7.12430E-05 1.63114E-03
 -1      4157-1.07254E-03-1.54397E-04 2.62414E-03
 -1      4158-7.33279E-03 3.60484E-04 6.24784E-03
 -1      4159-1.59695E-03-2.54954E-04 4.70256E-03
 -1      4160-9.00919E-03 4.54876E-05 9.80240E-04
 -1      4161-1.64578E-03 4.48550E-05 2.16954E-03
 -1      4162-7.14912E-03-3.70524E-04 6.39177E-03
 -1      4163-9.40599E-04-2.64108E-05 2.55171E-03
 -1      4164-2.96921E-03 3.83807E-04 6.54700E-03
 -1      4165-3.12579E-03-3.92624E-04 6.75778E-03
 -1      4166-1.52632E-04 1.92694E-05 6.68179E-05
 -1      4167-9.24391E-03 1.81680E-04 5.07020E-04
 -1      4168-8.75507E-03-1.70695E-04 3.79843E-03
 -1      4169-7.66806E-03-4.18391E-05 4.08141E-03
 -1      4170-9.18322E-03 2.10255E-04 1.37413E-03
 -1      4171-9.52707E-03 1.75119E-04 3.71586E-04
 -1      4172-9.06775E-03 2.04336E-04 2.26579E-03
 -1      4173-1.43868E-04-1.59904E-05 6.19504E-05
 -1      4174-7.68708E-03 1.34874E-04 3.95725E-03
 -1      4175-9.17334E-03-3.06899E-05 2.06459E-03
 -1      4176-9.74325E-03 1.02202E-05 1.10590E-04
 -1      4177-7.04117E-03 2.54943E-04 6.57550E-03
 -1      4178-9.15479E-03-1.67605E-04 6.33226E-04
 -1      4179-8.21794E-03 5.23880E-05 2.45526E-03
 -1      4180-9.86890E-03-3.44208E-05 4.30471E-05
 -1      4181-1.65266E-03 2.17663E-04 2.03438E-03
 -1      4182-2.82051E-03-1.67769E-04 6.53446E-03
 -1      4183-6.46289E-04 2.58013E-05 1.41280E-03
 -1      4184-1.13223E-03-6.77432E-05 1.12306E-03
 -1      4185-8.89616E-03 4.03167E-05 3.44960E-03
 -1      4186-9.11924E-03-7.30754E-05 7.19125E-04
 -1      4187-9.70088E-03 8.04048E-05 2.66755E-04
 -1      4188-1.50006E-03-3.06882E-05 5.49964E-03
 -1      4189-8.99391E-03-7.44584E-05 3.02549E-03
 -1      4190-2.37391E-03 9.68356E-05 3.98617E-03
 -1      4191-7.37882E-04-2.09538E-04 1.03833E-03
 -1      4192-3.13976E-03 1.23147E-04 7.07396E-03
 -1      4193-9.65091E-03-8.62998E-05 1.52077E-04
 -1      4194-7.59741E-04 6.94186E-07 5.55726E-04
 -1      4195-2.37076E-03-1.80525E-04 3.98633E-03
 -1      4196-9.62679E-03 9.15229E-05 1.68068E-04
 -1      4197-6.69121E-03-1.02626E-04 7.28001E-03
 -1      4198-9.18891E-03 4.49562E-05 2.22908E-03
 -1      4199-4.73795E-04-5.11466E-05 7.66951E-04
 -1      4200-6.41496E-04 1.16865E-04 1.17381E-03
 -1      4201-9.86520E-03-7.76942E-05-1.39902E-05
 -1      4202-8.73845E-03-2.76946E-05 4.83158E-03
 -1      4203-8.34583E-03 1.68089E-04 2.07964E-03
 -1      4204-8.26002E-03-2.48899E-04 2.14403E-03
 -1      4205-1.11174E-03-1.08842E-04 3.88881E-03
 -1      4206-3.05685E-04 6.95851E-05 3.05809E-04
 -1      4207-8.69368E-03 3.59537E-04 9.85278E-04
 -1      4208-8.99954E-04-1.20433E-04 6.97185E-04
 -1      4209-1.20138E-03 9.06611E-05 4.88034E-03
 -1      4210-8.14574E-04 5.17588E-05 2.28631E-03
 -1      4211-1.15418E-03 1.72740E-04 3.68157E-03
 -1      4212-9.86529E-03 7.79117E-05-1.38208E-05
 -1      4213-2.77781E-04 2.61538E-07 3.12292E-04
 -1      4214-3.43931E-04 1.72055E-04 8.81112E-05
 -1      4215-1.81223E-03-8.35067E-05 2.41266E-03
 -1      4216-6.76526E-04-7.27177E-05 1.61758E-03
 -1      4217-1.32810E-04 7.66953E-05-1.49091E-05
 -1      4218-1.34052E-04-7.75285E-05-1.39026E-05
 -1      4219-9.70476E-03 1.54999E-04 6.72290E-05
 -1      4220-9.60034E-03 2.87850E-05 6.37209E-04
 -1      4221-9.30524E-03-1.15530E-04 1.51968E-03
 -1      4222-1.25613E-03 2.52042E-05 1.34577E-03
 -1      4223-8.81452E-03-3.26319E-04 9.47661E-04
 -1      4224-9.70771E-03-1.53872E-04 6.63647E-05
 -1      4225-1.35199E-04 4.61546E-05 4.01081E-05
 -1      4226-1.31555E-03 2.42930E-04 5.81654E-03
 -1      4227-1.35684E-03-1.34077E-04 5.81956E-03
 -1      4228-7.39447E-03 2.30708E-04 4.65899E-03
 -1      4229-8.76289E-03-2.29782E-04 5.67747E-03
 -1      4230-8.57412E-04 1.99585E-04 1.92935E-03
 -1      4231-9.65124E-03-9.91225E-05 3.38557E-04
 -1      4232-2.97945E-04-1.56795E-04 6.76206E-05
 -1      4233-2.74988E-03-4.51442E-05 5.23216E-03
 -1      4234-8.32329E-03-3.43449E-04 1.99792E-03
 -1      4235-1.70596E-04-5.16474E-05 8.12056E-05
 -1      4236-1.32594E-03-2.42284E-04 3.42177E-03
 -1      4237-9.33505E-03 6.00370E-05 4.40037E-04
 -1      4238-3.11602E-03 2.69469E-04 6.80991E-03
 -1      4239-9.08036E-03 3.06378E-04 5.02630E-04
 -1      4240-7.72513E-04 2.66293E-04 4.04078E-04
 -1      4241-1.03599E-03 3.58469E-06 3.99237E-03
 -1      4242-8.15920E-03 3.59279E-04 2.21507E-03
 -1      4243-2.02421E-03 1.34607E-04 2.96233E-03
 -1      4244-7.95707E-03 2.35489E-04 2.86044E-03
 -1      4245-8.99283E-03 1.42075E-04 2.74602E-03
 -1      4246-9.60018E-03-5.42962E-05 6.17543E-04
 -1      4247-9.49814E-03 1.05856E-04 8.86898E-04
 -1      4248-7.34539E-03-2.30255E-04 4.63118E-03
 -1      4249-8.49692E-04-1.94662E-04 2.16314E-03
 -1      4250-1.29266E-03-2.46779E-04 1.21712E-03
 -1      4251-4.08958E-04 5.92479E-05 6.83512E-04
 -1      4252-6.09328E-04-1.42943E-04 3.30128E-04
 -1      4253-1.31843E-03 3.46856E-04 1.05318E-03
 -1      4254-2.07599E-03-2.21958E-04 2.96045E-03
 -1      4255-8.60752E-03-7.18311E-05 5.85513E-03
 -1      4256-1.30137E-03 1.84595E-04 1.30165E-03
 -1      4257-1.79748E-03 3.31889E-04 2.05993E-03
 -1      4258-9.70664E-03-3.68940E-05 1.31293E-04
 -1      4259-7.35306E-04 1.19033E-04 4.80786E-04
 -1      4260-8.01070E-03-1.07363E-04 2.89011E-03
 -1      4261-2.72617E-04 2.86545E-05 1.20830E-04
 -1      4262-8.67331E-03 2.39573E-04 5.40289E-03
 -1      4263-8.59263E-03 2.06750E-05 5.81177E-03
 -1      4264-8.91542E-03 1.74145E-04 1.04255E-03
 -1      4265-9.03608E-03-1.30663E-04 2.71636E-03
 -1      4266-9.18501E-03-1.85515E-04 1.94731E-03
 -1      4267-1.21576E-03 2.18435E-04 4.36576E-03
 -1      4268-9.08612E-03-3.06860E-04 4.92558E-04
 -1      4269-8.46813E-03-1.76710E-04 1.59505E-03
 -1      4270-2.50811E-03-3.67977E-04 4.08169E-03
 -1      4271-8.83361E-03 2.14571E-04 3.82690E-03
 -1      4272-1.02541E-03 6.21653E-05 3.66421E-03
 -1      4273-9.35921E-03-1.94413E-04 9.60987E-04
 -1      4274-9.85554E-03 9.45237E-06 1.09100E-04
 -1      4275-9.40334E-03-5.06962E-05 1.36308E-03
 -1      4276-9.85727E-03 4.71624E-05 3.40590E-05
 -1      4277-8.86987E-03-2.05458E-04 4.21208E-03
 -1      4278-9.02918E-03-2.00700E-04 3.07038E-03
 -1      4279-1.63455E-03-3.78794E-04 1.57417E-03
 -1      4280-1.74213E-03-2.88326E-04 5.96717E-03
 -1      4281-6.41912E-03 4.67133E-04 7.66745E-03
 -1      4282-9.68030E-03-1.37756E-04 2.20029E-04
 -1      4283-7.52602E-04 1.31182E-04 1.83972E-03
 -1      4284-5.39515E-04-1.30968E-04 9.41405E-04
 -1      4285-2.21011E-03 2.41463E-04 3.22024E-03
 -1      4286-4.66855E-04-1.86066E-04 2.84620E-04
 -1      4287-9.46261E-03 4.05688E-05 1.17923E-03
 -1      4288-2.67674E-03 2.38710E-04 4.73481E-03
 -1      4289-3.80496E-04 1.55960E-04 2.62347E-04
 -1      4290-6.67395E-03-2.99542E-04 6.95793E-03
 -1      4291-7.81169E-03 4.39449E-05 3.52628E-03
 -1      4292-7.64960E-03 3.65970E-04 4.01571E-03
 -1      4293-9.50280E-03-1.15920E-04 8.84486E-04
 -1      4294-1.19227E-03 2.31411E-04 3.22783E-03
 -1      4295-8.81519E-03 1.76460E-04 5.97635E-03
 -1      4296-8.85343E-03 8.04692E-05 4.36445E-03
 -1      4297-6.31135E-03 2.36148E-04 7.88588E-03
 -1      4298-7.23313E-03 1.22022E-04 5.25011E-03
 -1      4299-8.93486E-03-1.27201E-04 5.28327E-03
 -1      4300-3.79098E-03 3.27790E-06 8.26221E-03
 -1      4301-9.39010E-03 1.31336E-04 1.40427E-03
 -1      4302-8.54132E-03 9.97221E-05 1.59550E-03
 -1      4303-8.77489E-03-2.38023E-04 1.08856E-03
 -1      4304-9.01863E-03-2.73563E-05 3.68569E-03
 -1      4305-6.37845E-03-4.74442E-04 7.73006E-03
 -1      4306-2.84813E-03-3.98047E-04 5.37888E-03
 -1      4307-3.81524E-03 2.47266E-04 8.22155E-03
 -1      4308-2.62847E-03 3.77691E-04 5.17651E-03
 -1      4309-9.11601E-03 1.04922E-04 2.10522E-03
 -1      4310-9.46920E-04-4.90916E-05 3.58153E-03
 -1      4311-1.20234E-03-1.58859E-04 4.77339E-03
 -1      4312-7.35917E-04-1.22006E-04 1.82348E-03
 -1      4313-2.70685E-04 9.28947E-05 9.65229E-05
 -1      4314-8.76403E-03-2.54869E-05 1.16640E-03
 -1      4315-1.36710E-03 1.49299E-04 5.76893E-03
 -1      4316-3.35175E-03-2.92447E-04 6.98243E-03
 -1      4317-2.53510E-04-8.11087E-05 8.62135E-05
 -1      4318-6.28760E-03-2.27281E-04 7.92550E-03
 -1      4319-7.17351E-03-3.82265E-04 5.08116E-03
 -1      4320-8.18207E-03-3.91767E-05 2.31089E-03
 -1      4321-6.28250E-03-7.45838E-06 8.02232E-03
 -1      4322-6.41369E-03 1.13923E-04 7.75561E-03
 -1      4323-9.43334E-03-3.91678E-05 3.57008E-04
 -1      4324-2.15009E-03-2.22377E-05 3.09632E-03
 -1      4325-3.16585E-03 9.02150E-05 5.59728E-03
 -1      4326-1.82210E-03 7.02375E-05 6.05343E-03
 -1      4327-7.60190E-04-2.40172E-04 3.95510E-04
 -1      4328-1.21859E-03-3.43537E-04 9.44217E-04
 -1      4329-4.78912E-03 5.42275E-04 9.75014E-03
 -1      4330-3.86151E-03-4.81416E-04 8.14682E-03
 -1      4331-6.14496E-04 1.82213E-04 1.12021E-03
 -1      4332-9.74982E-03-2.04940E-05 3.26847E-04
 -1      4333-9.01441E-03-9.91551E-05 3.84635E-03
 -1      4334-5.03642E-04-2.91995E-05 1.23321E-03
 -1      4335-1.58159E-03-1.11068E-04 1.70531E-03
 -1      4336-7.72121E-04-8.18312E-05 2.36876E-03
 -1      4337-2.75686E-03-2.67835E-04 4.70407E-03
 -1      4338-8.40343E-03 3.21210E-04 1.57479E-03
 -1      4339-8.88508E-03 1.45109E-04 4.74016E-03
 -1      4340-2.68291E-04-2.16201E-05 1.19292E-04
 -1      4341-1.87857E-03-2.71352E-04 2.18345E-03
 -1      4342-9.88851E-03-4.55648E-05 4.73289E-06
 -1      4343-8.38359E-05 7.43476E-07 2.39622E-05
 -1      4344-7.77916E-03-3.91372E-04 2.96778E-03
 -1      4345-3.89422E-03 1.26856E-04 8.42368E-03
 -1      4346-1.87537E-03 1.44553E-04 2.17357E-03
 -1      4347-7.08950E-03-9.68902E-05 5.08409E-03
 -1      4348-4.79138E-03-5.39175E-04 9.75345E-03
 -1      4349-7.38916E-03-1.45560E-04 4.02700E-03
 -1      4350-6.87773E-04 1.83548E-04 3.70051E-04
 -1      4351-6.26355E-03 3.62868E-04 8.05306E-03
 -1      4352-9.48144E-03 1.73606E-04 7.90865E-04
 -1      4353-7.47353E-03-2.93602E-04 3.66603E-03
 -1      4354-2.04201E-04-3.94085E-05 2.06563E-04
 -1      4355-9.08696E-03-7.77779E-06 6.96330E-04
 -1      4356-9.72433E-03 4.60024E-05 3.53797E-04
 -1      4357-7.08320E-03 5.95452E-06 5.12774E-03
 -1      4358-1.15346E-03-1.80401E-04 5.88802E-03
 -1      4359-3.90751E-03-1.20000E-04 8.43207E-03
 -1      4360-4.25447E-03-1.88179E-04 8.03698E-03
 -1      4361-4.39654E-03-2.28953E-04 8.56253E-03
 -1      4362-4.39082E-03-1.63929E-04 8.56609E-03
 -1      4363-3.74743E-03-1.54651E-04 7.08192E-03
 -1      4364-2.79973E-03-8.16768E-05 6.53141E-03
 -1      4365-3.72683E-03-5.28137E-05 7.07234E-03
 -1      4366-4.24794E-03-1.22279E-04 8.02632E-03
 -1      4367-3.34512E-03-5.18959E-05 7.49560E-03
 -1      4368-3.36667E-03-1.47294E-04 7.50439E-03
 -1      4369-6.59458E-03 3.92917E-04 5.83354E-03
 -1      4370-7.71044E-03 3.04423E-04 5.49812E-03
 -1      4371-6.99536E-03 3.45770E-04 5.10583E-03
 -1      4372-6.45624E-03 3.29406E-04 6.00131E-03
 -1      4373-7.57282E-03 2.59542E-04 5.66093E-03
 -1      4374-7.18616E-03 3.10514E-04 6.41420E-03
 -1      4375-4.10830E-03-2.24932E-04 8.86581E-03
 -1      4376-4.11641E-03-2.87679E-04 8.85900E-03
 -1      4377-3.64246E-03-1.80504E-04 8.72674E-03
 -1      4378-6.67140E-03 3.22717E-04 5.03935E-03
 -1      4379-7.71605E-03 2.49190E-04 4.73231E-03
 -1      4380-7.21936E-03 2.38601E-04 5.57810E-03
 -1      4381-2.24476E-03 3.78763E-04 2.77806E-03
 -1      4382-1.87449E-03 3.62817E-04 2.67568E-03
 -1      4383-2.62424E-03 5.32478E-04 2.71576E-03
 -1      4384-2.65461E-03 4.25819E-04 3.35947E-03
 -1      4385-2.24568E-03 4.11359E-04 3.24927E-03
 -1      4386-1.83015E-03 2.83273E-04 3.31332E-03
 -1      4387-1.17800E-03 1.32797E-04 4.27620E-03
 -1      4388-1.56698E-03 2.08584E-04 4.43996E-03
 -1      4389-1.61025E-03 1.61547E-04 5.07636E-03
 -1      4390-1.28247E-03 1.18589E-04 5.31727E-03
 -1      4391-1.71285E-03 1.95402E-04 5.51648E-03
 -1      4392-1.25951E-03 1.60000E-04 4.68088E-03
 -1      4393-1.46939E-03 1.17457E-04 4.36667E-03
 -1      4394-1.86480E-03 1.95672E-04 4.54940E-03
 -1      4395-1.42473E-03 1.66398E-04 3.78429E-03
 -1      4396-4.30199E-03-3.98853E-04 9.20485E-03
 -1      4397-4.31401E-03-4.67482E-04 9.20550E-03
 -1      4398-4.25691E-03-4.94359E-04 9.41156E-03
 -1      4399-4.26104E-03-5.81949E-04 9.43504E-03
 -1      4400-4.78466E-03-4.48128E-04 9.62700E-03
 -1      4401-1.56142E-03 3.03681E-04 2.85898E-03
 -1      4402-1.90199E-03 3.49535E-04 3.45051E-03
 -1      4403-5.89338E-03 1.30044E-04 8.88565E-03
 -1      4404-5.70558E-03 1.67325E-04 9.25292E-03
 -1      4405-5.70600E-03 2.34111E-04 9.24159E-03
 -1      4406-5.89080E-03 1.93309E-04 8.87512E-03
 -1      4407-8.79008E-03 2.75662E-04 8.89741E-04
 -1      4408-8.69344E-03 3.07361E-04 9.96461E-04
 -1      4409-8.56373E-03 3.54762E-04 9.51967E-04
 -1      4410-8.45337E-03 3.91234E-04 1.05730E-03
 -1      4411-8.92918E-03 2.78440E-04 9.35629E-04
 -1      4412-5.89357E-03 2.57053E-04 8.85490E-03
 -1      4413-5.69287E-03 1.96399E-04 8.32610E-03
 -1      4414-5.69036E-03 2.57765E-04 8.30347E-03
 -1      4415-6.48315E-03 2.40560E-04 8.49558E-03
 -1      4416-4.03073E-03-2.80231E-04 7.31047E-03
 -1      4417-3.08589E-03-2.27610E-04 6.75792E-03
 -1      4418-3.75900E-03-2.13510E-04 7.09016E-03
 -1      4419-3.62438E-03-2.12475E-04 7.73281E-03
 -1      4420-9.82329E-03 7.34129E-05 3.19544E-04
 -1      4421-9.61941E-03 1.24197E-04 3.25311E-04
 -1      4422-9.75579E-03 1.04698E-04 3.72261E-04
 -1      4423-9.78156E-03 8.30499E-05 6.16723E-04
 -1      4424-9.50617E-03 1.40639E-04 6.14239E-04
 -1      4425-9.59419E-03 9.68601E-05 5.34979E-04
 -1      4426-6.48260E-03 1.78116E-04 8.50627E-03
 -1      4427-5.50816E-03 2.06082E-04 9.51851E-03
 -1      4428-5.50563E-03 1.37776E-04 9.53113E-03
 -1      4429-5.70980E-03 1.01105E-04 9.26923E-03
 -1      4430-4.31102E-03 4.69567E-04 9.18784E-03
 -1      4431-4.50077E-03 4.52385E-04 9.48093E-03
 -1      4432-4.25303E-03 5.83511E-04 9.42656E-03
 -1      4433-4.55549E-03 5.56399E-04 9.61334E-03
 -1      4434-4.78434E-03 4.52216E-04 9.61326E-03
 -1      4435-5.30065E-03 1.75103E-04 9.70302E-03
 -1      4436-5.50286E-03 6.99498E-05 9.54498E-03
 -1      4437-5.29638E-03 1.05591E-04 9.71561E-03
 -1      4438-5.70609E-03 3.57297E-05 9.26922E-03
 -1      4439-6.47171E-03-3.44302E-06 8.58488E-03
 -1      4440-5.56182E-03 3.12538E-05 8.87611E-03
 -1      4441-6.46350E-03 5.59482E-05 8.57132E-03
 -1      4442-5.70665E-03-1.63752E-04 9.26411E-03
 -1      4443-5.70719E-03-9.59383E-05 9.26869E-03
 -1      4444-5.50250E-03-6.46147E-05 9.54621E-03
 -1      4445-5.50003E-03-1.33443E-04 9.53890E-03
 -1      4446-1.41115E-03 2.92687E-04 3.09621E-03
 -1      4447-1.35535E-03 2.41018E-04 2.97705E-03
 -1      4448-1.67739E-03 2.81727E-04 3.57643E-03
 -1      4449-5.70697E-03-3.07472E-05 9.27190E-03
 -1      4450-5.50038E-03 2.96208E-06 9.54646E-03
 -1      4451-5.49994E-03-2.01860E-04 9.52858E-03
 -1      4452-4.89162E-03 2.48104E-04 9.77409E-03
 -1      4453-5.09859E-03 2.12545E-04 9.78271E-03
 -1      4454-5.10211E-03 1.41808E-04 9.79272E-03
 -1      4455-4.89466E-03 1.77040E-04 9.78640E-03
 -1      4456-4.56080E-03-5.56496E-04 9.61723E-03
 -1      4457-6.67583E-03-2.69011E-04 4.99944E-03
 -1      4458-7.66667E-03-2.37974E-04 4.86265E-03
 -1      4459-6.99387E-03-2.82469E-04 5.23608E-03
 -1      4460-6.30669E-03-2.97593E-04 6.14871E-03
 -1      4461-7.37370E-03-2.72789E-04 5.99712E-03
 -1      4462-7.02300E-03-2.58861E-04 5.74057E-03
 -1      4463-4.49976E-03-1.01240E-04 9.54190E-03
 -1      4464-4.29989E-03-1.32066E-04 9.26526E-03
 -1      4465-4.29522E-03-6.58537E-05 9.27272E-03
 -1      4466-5.10209E-03-1.37164E-04 9.79387E-03
 -1      4467-5.10145E-03-2.07491E-04 9.78359E-03
 -1      4468-5.29676E-03-1.71051E-04 9.70698E-03
 -1      4469-3.80223E-03 5.14972E-04 7.90758E-03
 -1      4470-4.00391E-03 5.60771E-04 8.54467E-03
 -1      4471-3.97742E-03 5.02580E-04 8.47431E-03
 -1      4472-1.04113E-03-1.67759E-04 6.63601E-04
 -1      4473-8.49384E-04-1.72464E-04 6.89316E-04
 -1      4474-1.00603E-03-2.34707E-04 6.38144E-04
 -1      4475-9.45175E-04-2.37111E-04 5.17625E-04
 -1      4476-7.97217E-04-2.33495E-04 5.14329E-04
 -1      4477-8.29609E-04-1.79628E-04 5.46156E-04
 -1      4478-4.89618E-03-3.15406E-04 9.76657E-03
 -1      4479-5.09953E-03-3.43799E-04 9.76475E-03
 -1      4480-5.09995E-03-4.12677E-04 9.76282E-03
 -1      4481-4.89707E-03-3.84114E-04 9.76127E-03
 -1      4482-4.49413E-03 2.40722E-04 9.50846E-03
 -1      4483-4.28874E-03 2.69041E-04 9.22015E-03
 -1      4484-4.28738E-03 2.01318E-04 9.23583E-03
 -1      4485-4.48984E-03 1.72405E-04 9.52077E-03
 -1      4486-9.84956E-03 2.48210E-05 7.99750E-05
 -1      4487-9.65310E-03 5.05515E-05 1.65096E-04
 -1      4488-9.83604E-03 2.77136E-05 4.86160E-05
 -1      4489-9.86387E-03 1.43494E-05 4.37947E-05
 -1      4490-9.73533E-03 2.55386E-05 1.26996E-04
 -1      4491-9.67555E-03 2.93283E-05 1.59343E-04
 -1      4492-4.70097E-03-6.69653E-05 9.71686E-03
 -1      4493-4.89601E-03-1.02215E-04 9.79711E-03
 -1      4494-4.70109E-03-1.36084E-04 9.70959E-03
 -1      4495-4.50568E-03-1.34602E-04 9.02761E-03
 -1      4496-3.64324E-03-1.18427E-04 8.75568E-03
 -1      4497-3.64553E-03-5.58972E-05 8.75311E-03
 -1      4498-9.42468E-03-1.58076E-04 3.53710E-04
 -1      4499-9.15231E-03-2.01062E-04 4.67268E-04
 -1      4500-9.45634E-03-1.78034E-04 2.39751E-04
 -1      4501-9.64750E-03-1.10495E-04 1.47515E-04
 -1      4502-9.46492E-03-1.41944E-04 2.56863E-04
 -1      4503-9.40110E-03-1.33204E-04 3.49677E-04
 -1      4504-4.28490E-03 1.35139E-04 9.24999E-03
 -1      4505-5.29543E-03 3.68658E-05 9.72137E-03
 -1      4506-5.29516E-03-3.14668E-05 9.72154E-03
 -1      4507-5.10156E-03-6.77117E-05 9.80072E-03
 -1      4508-5.29706E-03-1.01690E-04 9.71554E-03
 -1      4509-4.89671E-03-1.74390E-04 9.78809E-03
 -1      4510-4.89659E-03-2.44789E-04 9.77707E-03
 -1      4511-4.83843E-03 5.80695E-04 9.71479E-03
 -1      4512-4.97466E-03 6.36070E-04 9.75778E-03
 -1      4513-5.11985E-03 5.63027E-04 9.71492E-03
 -1      4514-4.50010E-03-1.68705E-04 9.53185E-03
 -1      4515-4.29742E-03-1.98597E-04 9.25122E-03
 -1      4516-4.29332E-03 3.36443E-04 9.20313E-03
 -1      4517-4.47140E-03 2.70780E-04 8.91413E-03
 -1      4518-3.59133E-03 2.44276E-04 8.64097E-03
 -1      4519-3.59117E-03 3.09305E-04 8.61266E-03
 -1      4520-3.56108E-03-2.32608E-05 6.49589E-03
 -1      4521-3.58516E-03-1.22677E-04 6.51056E-03
 -1      4522-9.56008E-03 5.26394E-05 2.77277E-04
 -1      4523-9.43149E-03 6.31858E-05 3.05891E-04
 -1      4524-9.55298E-03 2.95927E-05 2.56787E-04
 -1      4525-4.10935E-03 3.58466E-04 8.81184E-03
 -1      4526-4.35811E-03 2.95830E-04 8.43228E-03
 -1      4527-7.80952E-04 9.50585E-05 3.29614E-03
 -1      4528-1.40724E-03 1.38163E-04 3.20028E-03
 -1      4529-5.79779E-04 8.39675E-05 2.67126E-03
 -1      4530-4.75632E-04 6.01031E-05 3.20842E-03
 -1      4531-1.09645E-03 9.27981E-05 3.10415E-03
 -1      4532-1.35681E-03 1.01595E-04 3.77238E-03
 -1      4533-3.63741E-03 1.21481E-04 8.75040E-03
 -1      4534-3.63766E-03 1.83982E-04 8.72741E-03
 -1      4535-4.49703E-03 1.40831E-04 9.00887E-03
 -1      4536-5.88819E-03-1.88527E-04 8.88587E-03
 -1      4537-5.88786E-03-2.52136E-04 8.86998E-03
 -1      4538-6.47216E-03-2.35640E-04 8.51463E-03
 -1      4539-5.67588E-03-2.47933E-04 8.33997E-03
 -1      4540-6.46750E-03-1.73530E-04 8.52329E-03
 -1      4541-5.49412E-03-2.67485E-04 9.51709E-03
 -1      4542-5.69730E-03-2.93929E-04 9.23565E-03
 -1      4543-5.70061E-03-2.30534E-04 9.24507E-03
 -1      4544-4.50008E-03 2.05894E-04 9.00094E-03
 -1      4545-5.09823E-03-2.80152E-04 9.77269E-03
 -1      4546-5.29332E-03-2.42985E-04 9.69606E-03
 -1      4547-4.17217E-03 5.45024E-04 8.86101E-03
 -1      4548-4.13579E-03 4.88363E-04 8.80938E-03
 -1      4549-5.10089E-03 7.23540E-05 9.80042E-03
 -1      4550-4.69917E-03 1.65274E-06 9.71837E-03
 -1      4551-4.89530E-03-3.29566E-05 9.80171E-03
 -1      4552-8.31499E-03 2.38361E-04 1.51136E-03
 -1      4553-8.63827E-03 1.74151E-04 1.51761E-03
 -1      4554-7.96176E-03 2.32002E-04 2.06670E-03
 -1      4555-8.01180E-03 3.21919E-04 1.81506E-03
 -1      4556-8.37280E-03 2.42450E-04 1.83098E-03
 -1      4557-8.66995E-03 2.43818E-04 1.29901E-03
 -1      4558-5.09996E-03 2.74803E-06 9.80328E-03
 -1      4559-4.48943E-03 1.04200E-04 9.52887E-03
 -1      4560-4.69780E-03 1.40609E-04 9.70616E-03
 -1      4561-4.69595E-03 7.17589E-05 9.71310E-03
 -1      4562-3.60371E-03-5.21462E-04 8.59537E-03
 -1      4563-3.59896E-03-4.42204E-04 8.59097E-03
 -1      4564-4.51420E-03-4.43749E-04 8.88553E-03
 -1      4565-8.08757E-04 4.89665E-05 5.40058E-04
 -1      4566-8.09378E-04 8.16120E-05 5.32312E-04
 -1      4567-1.11159E-03 1.13507E-04 7.95984E-04
 -1      4568-7.24274E-04 6.87578E-05 6.63956E-04
 -1      4569-1.11067E-03 7.31816E-05 8.07319E-04
 -1      4570-5.89402E-03-1.25517E-04 8.88865E-03
 -1      4571-5.68353E-03-1.86399E-04 8.35126E-03
 -1      4572-5.41318E-03 5.33226E-04 9.59183E-03
 -1      4573-5.31166E-03 5.89378E-04 9.71662E-03
 -1      4574-5.06082E-03 5.09768E-04 9.84480E-03
 -1      4575-4.70199E-03-2.07308E-04 9.69878E-03
 -1      4576-4.49071E-03 3.10324E-04 9.49048E-03
 -1      4577-4.69541E-03 2.80821E-04 9.67989E-03
 -1      4578-4.69915E-03 2.10149E-04 9.69550E-03
 -1      4579-4.89344E-03 1.07255E-04 9.79559E-03
 -1      4580-4.89254E-03 3.75089E-05 9.80082E-03
 -1      4581-4.48990E-03-3.03372E-05 9.53603E-03
 -1      4582-4.28138E-03 3.89545E-06 9.25690E-03
 -1      4583-4.84459E-03-5.79531E-04 9.71613E-03
 -1      4584-5.12659E-03-5.61329E-04 9.71447E-03
 -1      4585-4.98130E-03-6.36780E-04 9.75917E-03
 -1      4586-4.50581E-03-2.39375E-04 9.52276E-03
 -1      4587-4.29913E-03-2.66938E-04 9.23967E-03
 -1      4588-4.28514E-03 6.89362E-05 9.25515E-03
 -1      4589-4.48727E-03 3.68109E-05 9.53555E-03
 -1      4590-9.35522E-03 1.95003E-04 6.07390E-04
 -1      4591-9.38750E-03 1.84906E-04 4.38631E-04
 -1      4592-9.18114E-03 1.99998E-04 6.77682E-04
 -1      4593-9.32696E-03 1.52192E-04 8.87731E-04
 -1      4594-9.33166E-03 1.45028E-04 6.70272E-04
 -1      4595-4.84437E-03-5.09098E-04 9.69400E-03
 -1      4596-8.34626E-04 1.08865E-04 3.70785E-03
 -1      4597-6.25436E-04 9.55788E-05 3.04283E-03
 -1      4598-1.80395E-04 6.89462E-05 3.84612E-04
 -1      4599-4.90990E-04 1.06004E-04 4.73993E-04
 -1      4600-3.46784E-04 1.03888E-04 5.58684E-04
 -1      4601-2.16117E-04 9.67992E-05 3.59736E-04
 -1      4602-5.29839E-04 1.59146E-04 4.56643E-04
 -1      4603-3.38366E-04 1.10162E-04 2.97286E-04
 -1      4604-5.10928E-04 7.13958E-05 3.61705E-03
 -1      4605-2.96201E-03-1.75557E-04 5.13645E-03
 -1      4606-2.95845E-03-1.24819E-04 5.15437E-03
 -1      4607-3.42910E-03-2.01801E-04 5.92578E-03
 -1      4608-3.42195E-03-1.46968E-04 5.94526E-03
 -1      4609-2.36691E-03-1.39162E-04 5.71169E-03
 -1      4610-1.12243E-03 2.29352E-04 8.03654E-04
 -1      4611-7.52151E-04 2.04028E-04 5.33546E-04
 -1      4612-1.12906E-03 3.02609E-04 6.63104E-04
 -1      4613-1.45949E-03 3.44909E-04 1.00166E-03
 -1      4614-1.03895E-03 3.11432E-04 6.88180E-04
 -1      4615-9.96757E-04 2.37807E-04 8.58720E-04
 -1      4616-1.17019E-03-2.72806E-04 8.05953E-04
 -1      4617-1.21601E-03-2.03638E-04 8.34463E-04
 -1      4618-7.05888E-03 3.83383E-04 4.83522E-03
 -1      4619-6.65827E-03 4.31021E-04 5.54373E-03
 -1      4620-4.12568E-03 4.20399E-04 8.81122E-03
 -1      4621-4.37289E-03 3.55935E-04 8.42161E-03
 -1      4622-7.53119E-03 3.05735E-04 3.32785E-03
 -1      4623-7.04273E-03 2.70876E-04 4.04984E-03
 -1      4624-7.85735E-03 2.54224E-04 3.88975E-03
 -1      4625-8.10795E-03 2.55944E-04 3.01441E-03
 -1      4626-7.67511E-03 2.32375E-04 3.70411E-03
 -1      4627-7.38825E-03 2.76200E-04 3.17014E-03
 -1      4628-9.81955E-03 3.95000E-05 6.52496E-05
 -1      4629-9.61055E-03 7.31749E-05 1.94231E-04
 -1      4630-9.67969E-03 6.45745E-05 1.53383E-04
 -1      4631-4.49857E-03-6.44727E-05 9.02046E-03
 -1      4632-5.50689E-03 2.74429E-04 9.50215E-03
 -1      4633-8.56783E-03 2.78754E-04 1.09010E-03
 -1      4634-8.67161E-03 2.46301E-04 9.76187E-04
 -1      4635-9.03714E-03 1.94900E-04 9.66398E-04
 -1      4636-6.02311E-04 1.04740E-04 4.08837E-03
 -1      4637-5.86740E-04 7.77801E-05 4.69215E-03
 -1      4638-6.33975E-04 9.88327E-05 5.11982E-03
 -1      4639-5.49859E-03-3.37030E-04 9.50122E-03
 -1      4640-2.79494E-04 3.48369E-05 1.17937E-03
 -1      4641-3.13455E-04 2.72557E-05 1.44805E-03
 -1      4642-3.23069E-04 5.91604E-05 1.32870E-03
 -1      4643-6.41267E-04 7.14380E-05 1.30171E-03
 -1      4644-2.90165E-04 6.53992E-05 1.06506E-03
 -1      4645-8.60227E-04-1.82043E-04 4.78527E-04
 -1      4646-7.57940E-04-1.35873E-04 4.95436E-04
 -1      4647-6.83030E-04-1.89311E-04 3.65078E-04
 -1      4648-5.56157E-03-3.52801E-05 8.87706E-03
 -1      4649-6.47213E-03-6.22802E-05 8.56651E-03
 -1      4650-2.76255E-03-2.04691E-05 5.85959E-03
 -1      4651-3.53068E-03-5.21679E-05 5.83666E-03
 -1      4652-2.78463E-03-1.05400E-04 5.87078E-03
 -1      4653-4.51194E-03-2.02650E-04 9.02469E-03
 -1      4654-5.29750E-03-3.76891E-04 9.67457E-03
 -1      4655-4.30918E-03-3.34702E-04 9.22535E-03
 -1      4656-4.12268E-03-3.52606E-04 8.84214E-03
 -1      4657-7.83867E-03 3.07188E-04 4.40496E-03
 -1      4658-6.88105E-03 4.50733E-04 4.43425E-03
 -1      4659-7.49045E-03 3.53566E-04 5.07422E-03
 -1      4660-6.49877E-04-5.44312E-05 3.86909E-04
 -1      4661-8.01286E-04-7.99605E-05 5.22096E-04
 -1      4662-6.69766E-04-9.27320E-05 3.74800E-04
 -1      4663-4.10644E-04-5.42828E-05 2.45773E-04
 -1      4664-5.09200E-04-6.25690E-05 2.68260E-04
 -1      4665-7.26719E-04-1.87693E-04 4.75003E-04
 -1      4666-5.85091E-03-4.56387E-04 8.86287E-03
 -1      4667-5.83899E-03-5.22369E-04 8.86885E-03
 -1      4668-6.53172E-03-5.19161E-04 8.41019E-03
 -1      4669-5.66009E-03-4.92176E-04 8.26971E-03
 -1      4670-6.52968E-03-4.39854E-04 8.40804E-03
 -1      4671-9.48220E-03 8.20768E-05 2.90583E-04
 -1      4672-4.29844E-03 4.01704E-04 9.19253E-03
 -1      4673-9.55459E-04 1.85445E-05 6.22434E-04
 -1      4674-8.78348E-04 4.46319E-05 7.48386E-04
 -1      4675-6.22556E-04 2.71305E-05 4.82645E-04
 -1      4676-8.68596E-04 5.96938E-05 1.54698E-03
 -1      4677-5.26494E-04 5.51156E-05 1.57365E-03
 -1      4678-8.60560E-04 1.13725E-04 1.42019E-03
 -1      4679-5.12157E-03-4.67384E-04 9.76421E-03
 -1      4680-4.99642E-03-4.48285E-04 9.82547E-03
 -1      4681-5.00824E-03-4.87232E-04 9.84398E-03
 -1      4682-5.68619E-03-6.57287E-05 8.39866E-03
 -1      4683-3.64345E-03 6.08423E-05 8.75455E-03
 -1      4684-4.49407E-03 7.28644E-05 9.01533E-03
 -1      4685-3.36029E-04 9.85124E-05 2.16277E-04
 -1      4686-1.44363E-04 6.16621E-05 2.23054E-04
 -1      4687-1.97434E-04 8.60695E-05 1.27480E-04
 -1      4688-3.76182E-04 1.49062E-04 1.93245E-04
 -1      4689-1.79305E-04 8.83528E-05 1.98101E-04
 -1      4690-4.35924E-04-1.83030E-05 2.32323E-03
 -1      4691-4.35310E-04 9.16162E-07 2.32760E-03
 -1      4692-3.48425E-04 1.87983E-05 1.74104E-03
 -1      4693-7.89474E-04 1.20833E-06 1.94504E-03
 -1      4694-3.47163E-04 7.65719E-07 1.74308E-03
 -1      4695-6.83625E-03-3.13090E-04 5.75019E-03
 -1      4696-6.13351E-03-3.31018E-04 6.70198E-03
 -1      4697-9.15978E-03-2.57008E-06 1.25377E-03
 -1      4698-9.66620E-03-1.63870E-05 1.07914E-03
 -1      4699-9.51028E-03-3.05241E-06 1.44396E-03
 -1      4700-9.21123E-03 3.42058E-05 1.39991E-03
 -1      4701-9.74598E-03 6.80425E-06 1.23080E-03
 -1      4702-9.40821E-03 1.15374E-05 1.04544E-03
 -1      4703-5.22469E-04 4.52825E-05 1.02052E-03
 -1      4704-2.10717E-04 4.57269E-05 8.14289E-04
 -1      4705-5.19998E-04 8.67255E-05 9.15425E-04
 -1      4706-1.04218E-03-2.94181E-05 2.10775E-03
 -1      4707-5.74549E-04-2.13258E-05 1.89126E-03
 -1      4708-8.65313E-04 1.21341E-06 1.56070E-03
 -1      4709-1.12527E-03-2.82582E-04 6.59021E-04
 -1      4710-1.46428E-04 1.31581E-05 4.25666E-04
 -1      4711-4.42799E-04-4.00343E-07 5.55305E-04
 -1      4712-2.74100E-04 1.66571E-05 6.97494E-04
 -1      4713-1.75260E-04 3.53802E-05 6.20038E-04
 -1      4714-5.19271E-04 3.31815E-05 7.71665E-04
 -1      4715-3.43018E-04 2.69516E-05 4.85929E-04
 -1      4716-9.87675E-04 1.69580E-04 9.62442E-04
 -1      4717-1.46266E-03 2.50312E-04 1.11635E-03
 -1      4718-1.30792E-03 2.62740E-04 1.18938E-03
 -1      4719-9.29743E-03 6.53879E-06 2.73539E-03
 -1      4720-8.86547E-03-2.60145E-05 2.50103E-03
 -1      4721-9.57588E-03-7.60043E-07 2.28650E-03
 -1      4722-9.59241E-03 2.59719E-05 2.36988E-03
 -1      4723-9.18220E-03 7.65859E-06 2.15257E-03
 -1      4724-8.87201E-03 1.88658E-05 2.59368E-03
 -1      4725-9.29689E-03-1.70997E-05 2.73565E-03
 -1      4726-9.57480E-03-1.99274E-05 2.28451E-03
 -1      4727-5.29711E-03-3.13409E-04 9.68192E-03
 -1      4728-5.46944E-03-5.97977E-04 9.56041E-03
 -1      4729-5.41674E-03-5.42890E-04 9.59283E-03
 -1      4730-5.31439E-03-6.00671E-04 9.72509E-03
 -1      4731-7.38168E-03-2.00456E-04 5.37314E-03
 -1      4732-6.68865E-03-2.34470E-04 5.76588E-03
 -1      4733-7.05740E-03-2.35645E-04 6.55454E-03
 -1      4734-4.70069E-03-3.48164E-04 9.67493E-03
 -1      4735-4.70060E-03-2.77323E-04 9.68567E-03
 -1      4736-9.72855E-03 1.05979E-04 5.23606E-04
 -1      4737-9.75917E-03 8.17272E-05 7.94678E-04
 -1      4738-9.72545E-03-2.61394E-05 1.31898E-03
 -1      4739-9.17555E-03-2.09207E-05 1.50203E-03
 -1      4740-9.37423E-03-3.71960E-05 1.12733E-03
 -1      4741-3.36310E-03-8.00071E-05 5.30534E-03
 -1      4742-2.35087E-03-8.51286E-05 5.09100E-03
 -1      4743-3.88151E-03-3.07578E-04 8.45498E-03
 -1      4744-3.70181E-03-2.63314E-04 7.90892E-03
 -1      4745-3.33919E-03-2.00585E-04 8.30728E-03
 -1      4746-2.73090E-04-9.51890E-08 6.99629E-04
 -1      4747-1.45430E-04 4.97260E-07 4.27591E-04
 -1      4748-5.21315E-04 2.38643E-05 2.83056E-04
 -1      4749-4.17727E-04 2.10726E-05 2.74694E-04
 -1      4750-6.58640E-04 5.60957E-05 3.95492E-04
 -1      4751-7.87893E-04 3.16437E-05 4.73042E-04
 -1      4752-5.27076E-04 1.46151E-06 3.37639E-04
 -1      4753-3.85903E-04 2.78295E-05 2.19724E-03
 -1      4754-8.74754E-04 1.40542E-05 2.42431E-03
 -1      4755-7.32027E-04 3.86087E-05 1.82450E-03
 -1      4756-8.24361E-03-2.09397E-04 6.13909E-03
 -1      4757-8.83417E-03-1.83327E-04 5.90288E-03
 -1      4758-8.76308E-03-1.52709E-04 6.23401E-03
 -1      4759-9.34306E-03-1.29951E-04 6.02775E-03
 -1      4760-8.46938E-03-1.78721E-04 5.18792E-03
 -1      4761-4.29023E-04-1.51460E-04 6.14423E-04
 -1      4762-6.85968E-04-1.73112E-04 7.92735E-04
 -1      4763-2.71207E-04-1.06474E-04 7.66760E-04
 -1      4764-3.00964E-04-1.29836E-04 4.12322E-04
 -1      4765-5.18336E-04-1.60761E-04 5.76239E-04
 -1      4766-6.20118E-04-2.05282E-04 4.61281E-04
 -1      4767-5.60892E-03-5.62872E-04 9.34270E-03
 -1      4768-5.50468E-03 3.43137E-04 9.49080E-03
 -1      4769-5.70482E-03 3.00921E-04 9.22330E-03
 -1      4770-5.52398E-03 4.01392E-04 9.45641E-03
 -1      4771-5.71683E-03 4.25118E-04 9.16645E-03
 -1      4772-5.51469E-03 4.76253E-04 9.46889E-03
 -1      4773-5.20463E-04-9.96646E-06 1.59369E-03
 -1      4774-3.11216E-04 9.51339E-06 1.45389E-03
 -1      4775-9.24391E-03-5.22280E-06 3.12255E-03
 -1      4776-8.49059E-03-1.07921E-04 1.31600E-03
 -1      4777-8.91120E-03-9.56711E-05 1.33165E-03
 -1      4778-8.75785E-03-1.34377E-04 1.04519E-03
 -1      4779-8.40824E-03-1.66081E-04 1.30536E-03
 -1      4780-8.82092E-03-1.43304E-04 1.31185E-03
 -1      4781-8.56610E-03-1.21121E-04 1.61643E-03
 -1      4782-5.07724E-04 5.27280E-05 3.63904E-03
 -1      4783-4.50440E-03-3.08169E-04 9.50787E-03
 -1      4784-8.13087E-03 1.99425E-04 1.78649E-03
 -1      4785-8.48015E-03 2.03992E-04 1.27802E-03
 -1      4786-9.69999E-04 1.61060E-04 4.78172E-03
 -1      4787-6.05099E-04 1.22897E-04 4.00155E-03
 -1      4788-6.32536E-04 1.21524E-04 5.04180E-03
 -1      4789-6.14139E-04 7.85199E-05 4.45759E-04
 -1      4790-8.71336E-04 1.09778E-04 6.99108E-04
 -1      4791-9.36645E-04 1.25188E-04 5.76333E-04
 -1      4792-4.90596E-04 4.40255E-05 2.60325E-04
 -1      4793-3.01461E-04 1.62681E-05 1.41190E-04
 -1      4794-4.12408E-04 4.05232E-05 2.36562E-04
 -1      4795-5.69909E-03 3.68577E-04 9.20922E-03
 -1      4796-4.49270E-03 3.78734E-04 9.47691E-03
 -1      4797-3.47779E-03 5.71960E-04 7.86791E-03
 -1      4798-4.40905E-03 5.36943E-04 7.45214E-03
 -1      4799-3.52864E-03 4.84517E-04 6.96201E-03
 -1      4800-3.88805E-03 4.55854E-04 7.03654E-03
 -1      4801-2.87376E-03 4.44862E-04 7.43514E-03
 -1      4802-1.12368E-03 4.07234E-05 7.92430E-04
 -1      4803-1.27523E-03 1.00151E-04 1.00224E-03
 -1      4804-1.43458E-03 5.99013E-05 1.18432E-03
 -1      4805-1.11745E-03 6.20965E-05 1.15145E-03
 -1      4806-1.00984E-03 1.17304E-05 9.05719E-04
 -1      4807-9.61102E-03-2.88047E-05 1.95035E-03
 -1      4808-8.94916E-03-7.25277E-05 2.13655E-03
 -1      4809-9.39709E-03-6.13831E-05 2.01050E-03
 -1      4810-9.68952E-03-3.55516E-05 1.59159E-03
 -1      4811-9.08651E-03-8.33341E-05 1.75948E-03
 -1      4812-9.29249E-03-4.15761E-05 1.69752E-03
 -1      4813-3.36436E-03-2.63054E-04 5.02193E-03
 -1      4814-2.78938E-03-2.14599E-04 5.59310E-03
 -1      4815-2.36025E-03-1.85076E-04 4.82999E-03
 -1      4816-5.48447E-03-4.06494E-04 9.50548E-03
 -1      4817-7.73568E-03-2.13727E-04 5.62604E-03
 -1      4818-5.27551E-04 1.48449E-04 3.61655E-04
 -1      4819-8.32520E-03-8.83164E-05 1.58222E-03
 -1      4820-8.23382E-03-1.46979E-04 1.57262E-03
 -1      4821-6.98132E-03-3.29335E-04 5.20964E-03
 -1      4822-6.66429E-03-3.19890E-04 4.97817E-03
 -1      4823-9.46220E-03 1.50626E-05 3.37137E-03
 -1      4824-9.49965E-03 2.45621E-05 2.96532E-03
 -1      4825-8.69776E-03 1.43735E-05 3.21026E-03
 -1      4826-5.66703E-03-4.98343E-04 9.23734E-03
 -1      4827-5.68150E-03-4.30386E-04 9.23703E-03
 -1      4828-5.87887E-03-3.18744E-04 8.85901E-03
 -1      4829-2.46287E-03 1.28422E-04 4.79998E-03
 -1      4830-2.96981E-03 1.39781E-04 4.17687E-03
 -1      4831-3.10684E-03 1.76507E-04 5.00386E-03
 -1      4832-2.60974E-03 1.98402E-04 5.20580E-03
 -1      4833-3.14674E-03 2.20728E-04 4.55195E-03
 -1      4834-2.52286E-03 1.66435E-04 4.35684E-03
 -1      4835-6.32970E-03 2.58708E-04 6.53160E-03
 -1      4836-7.17623E-03 1.65839E-04 6.49399E-03
 -1      4837-6.47108E-03 1.62442E-04 6.44981E-03
 -1      4838-5.97946E-03 2.44308E-04 7.18492E-03
 -1      4839-6.80835E-03 1.53779E-04 7.14408E-03
 -1      4840-6.67507E-03 2.49082E-04 7.23153E-03
 -1      4841-1.03092E-03-2.35592E-04 9.23313E-04
 -1      4842-1.45665E-03-2.83601E-04 1.07953E-03
 -1      4843-1.09479E-03-1.81785E-04 9.42006E-04
 -1      4844-5.87279E-03-3.83279E-04 8.84323E-03
 -1      4845-5.69170E-03-3.61427E-04 9.22340E-03
 -1      4846-3.33975E-03 6.30724E-04 8.35893E-03
 -1      4847-4.23198E-03 5.43666E-04 7.94481E-03
 -1      4848-4.39545E-03 5.68110E-04 8.58385E-03
 -1      4849-9.45700E-03 7.91903E-06 1.73024E-03
 -1      4850-9.61320E-03-1.02759E-05 1.95506E-03
 -1      4851-9.03962E-03-7.25433E-06 1.84534E-03
 -1      4852-9.64991E-03-1.92217E-05 1.64734E-03
 -1      4853-4.34416E-03 5.44178E-04 9.25071E-03
 -1      4854-4.81221E-03 5.03620E-04 9.66921E-03
 -1      4855-5.09846E-03 2.82458E-04 9.77132E-03
 -1      4856-5.70086E-04 1.08371E-04 3.61797E-03
 -1      4857-1.15985E-03 1.51595E-04 3.10879E-03
 -1      4858-4.50167E-03-3.75901E-04 9.48935E-03
 -1      4859-4.88894E-03-4.24089E-04 9.76855E-03
 -1      4860-4.55776E-03-4.62128E-04 9.59527E-03
 -1      4861-7.87950E-04-3.06983E-05 4.73552E-04
 -1      4862-6.16922E-04-2.56550E-05 4.71773E-04
 -1      4863-4.04560E-04-3.45295E-05 2.27900E-04
 -1      4864-5.16886E-04-1.80649E-05 2.99925E-04
 -1      4865-4.88004E-04-3.86764E-05 2.59701E-04
 -1      4866-5.68624E-03 6.25508E-05 8.39432E-03
 -1      4867-5.73871E-03 1.28437E-04 8.26993E-03
 -1      4868-6.53699E-03 1.14761E-04 8.44534E-03
 -1      4869-6.34993E-03 5.41689E-05 7.88907E-03
 -1      4870-1.12415E-03 1.16064E-06 7.95106E-04
 -1      4871-1.43445E-03 1.50836E-05 1.18957E-03
 -1      4872-5.30018E-03 2.44534E-04 9.69143E-03
 -1      4873-6.48780E-03 2.81373E-04 5.96115E-03
 -1      4874-6.69929E-03 2.74907E-04 5.01052E-03
 -1      4875-9.50330E-03 3.29379E-05 2.65087E-04
 -1      4876-9.24965E-03 6.61466E-05 4.38453E-04
 -1      4877-5.31009E-03-5.04006E-04 9.67635E-03
 -1      4878-4.69392E-03 3.49285E-04 9.66790E-03
 -1      4879-3.00638E-03-2.77306E-04 7.60246E-03
 -1      4880-5.66592E-03-3.08108E-04 8.32806E-03
 -1      4881-5.52824E-03-7.56142E-04 9.68449E-03
 -1      4882-5.17551E-03-5.70786E-04 9.81193E-03
 -1      4883-5.28697E-03-7.58932E-04 9.79375E-03
 -1      4884-9.66432E-03 1.48175E-04 9.64552E-05
 -1      4885-9.57538E-03 2.26181E-04 7.36248E-05
 -1      4886-9.57831E-03 1.95939E-04 1.32501E-04
 -1      4887-9.39120E-03 2.16207E-04 3.02992E-04
 -1      4888-9.30952E-03 2.91035E-04 2.80348E-04
 -1      4889-9.39178E-03 2.49741E-04 2.29562E-04
 -1      4890-3.58960E-03-1.79826E-04 6.49974E-03
 -1      4891-6.36205E-03 1.75035E-04 7.81962E-03
 -1      4892-5.47548E-03-4.80865E-04 9.51719E-03
 -1      4893-5.29009E-03-4.50992E-04 9.68062E-03
 -1      4894-6.03061E-03 1.80207E-04 7.12282E-03
 -1      4895-6.85992E-03 9.70203E-05 7.08110E-03
 -1      4896-9.04649E-03 4.27384E-05 2.80744E-03
 -1      4897-7.87645E-04-2.19591E-04 8.36478E-04
 -1      4898-3.53749E-04-1.34189E-04 7.98502E-04
 -1      4899-6.36326E-04-1.68165E-04 9.93819E-04
 -1      4900-4.22083E-03 3.18810E-04 7.88102E-03
 -1      4901-9.45111E-03 1.02803E-04 3.59967E-04
 -1      4902-9.43178E-03 1.38550E-04 3.12677E-04
 -1      4903-9.28792E-03 1.35075E-04 5.78649E-04
 -1      4904-9.32490E-03 7.87737E-05 5.36840E-04
 -1      4905-9.29111E-03 1.16662E-04 4.81115E-04
 -1      4906-9.49276E-03 1.26079E-04 3.77503E-04
 -1      4907-9.83863E-03 6.09729E-05 3.13980E-04
 -1      4908-9.79693E-03 7.03442E-05 6.08631E-04
 -1      4909-5.54296E-03 3.60433E-04 8.85210E-03
 -1      4910-6.45758E-03 3.07792E-04 8.56664E-03
 -1      4911-5.66919E-03 3.19773E-04 8.38420E-03
 -1      4912-8.61220E-04-1.50700E-04 3.67690E-03
 -1      4913-1.38783E-03-1.85071E-04 3.21068E-03
 -1      4914-5.88741E-04-1.18981E-04 3.04992E-03
 -1      4915-6.69700E-04-1.47095E-04 3.46556E-03
 -1      4916-1.19732E-03-1.97644E-04 3.01384E-03
 -1      4917-1.53023E-03-2.34712E-04 3.64318E-03
 -1      4918-4.33764E-03-5.41949E-04 9.24927E-03
 -1      4919-4.80408E-03-4.99802E-04 9.66996E-03
 -1      4920-6.47495E-03-2.99673E-04 8.48409E-03
 -1      4921-7.49714E-04 2.41770E-04 5.27539E-04
 -1      4922-6.98687E-04 1.81971E-04 6.84565E-04
 -1      4923-9.77931E-04 2.75233E-04 8.59714E-04
 -1      4924-9.34161E-03-7.37944E-05 2.33611E-03
 -1      4925-9.57205E-03-3.87979E-05 2.27537E-03
 -1      4926-1.60438E-03 8.66552E-05 1.42374E-03
 -1      4927-1.19267E-03 6.77616E-05 1.51053E-03
 -1      4928-1.56632E-03 1.37392E-04 1.57265E-03
 -1      4929-1.95044E-03 1.58131E-04 1.81318E-03
 -1      4930-1.47471E-03 1.23818E-04 1.91873E-03
 -1      4931-1.55179E-03 8.02446E-05 1.73958E-03
 -1      4932-5.32089E-04 7.66371E-05 1.55488E-03
 -1      4933-3.30958E-04 7.59276E-05 1.30512E-03
 -1      4934-7.53161E-04-2.84845E-04 3.83242E-04
 -1      4935-9.85638E-04-3.46234E-04 5.10536E-04
 -1      4936-1.22007E-03-3.96946E-04 7.84226E-04
 -1      4937-9.98069E-04-2.98867E-04 6.33754E-04
 -1      4938-9.47262E-04-3.29602E-04 6.32147E-04
 -1      4939-9.54005E-03 9.09415E-05 4.43573E-04
 -1      4940-9.63555E-03 9.04475E-05 1.99944E-04
 -1      4941-9.52878E-03 7.78683E-05 3.47706E-04
 -1      4942-8.00252E-03 3.76874E-04 2.88821E-03
 -1      4943-7.64194E-03 3.87478E-04 2.93217E-03
 -1      4944-7.40913E-03 5.25626E-04 2.65936E-03
 -1      4945-7.68594E-03 4.33596E-04 3.27644E-03
 -1      4946-7.29982E-03 4.44392E-04 3.32526E-03
 -1      4947-7.97469E-03 3.15241E-04 3.57994E-03
 -1      4948-4.88975E-03 3.16691E-04 9.76338E-03
 -1      4949-3.27157E-03 2.05470E-04 5.50729E-03
 -1      4950-3.32176E-03 2.50410E-04 5.03047E-03
 -1      4951-1.44689E-03 3.00876E-04 2.42485E-03
 -1      4952-2.02062E-03 4.18666E-04 2.32271E-03
 -1      4953-1.66719E-03 2.87152E-04 2.38341E-03
 -1      4954-1.60738E-03 3.54729E-04 2.08197E-03
 -1      4955-6.29129E-03 2.97575E-04 7.96869E-03
 -1      4956-7.18416E-04 8.13375E-05 1.13242E-03
 -1      4957-3.67405E-03 4.43671E-04 7.75287E-03
 -1      4958-2.72599E-03 3.72710E-04 7.29002E-03
 -1      4959-2.58560E-03-2.11975E-04 6.09977E-03
 -1      4960-3.19556E-03-2.57265E-04 5.50215E-03
 -1      4961-2.57222E-03-2.58296E-04 5.17478E-03
 -1      4962-9.57708E-03-2.25383E-04 7.31839E-05
 -1      4963-9.66660E-03-1.46639E-04 9.49068E-05
 -1      4964-9.57949E-03-1.95570E-04 1.32079E-04
 -1      4965-9.31205E-03-2.91020E-04 2.76042E-04
 -1      4966-9.39571E-03-2.15328E-04 2.98195E-04
 -1      4967-9.39743E-03-2.48141E-04 2.25433E-04
 -1      4968-8.58026E-03-7.94143E-05 1.11424E-03
 -1      4969-8.40658E-03-6.00938E-05 1.35416E-03
 -1      4970-8.70635E-03-4.88269E-05 1.38770E-03
 -1      4971-9.39157E-03-8.33632E-05 1.98891E-03
 -1      4972-9.68441E-03-5.23893E-05 1.57596E-03
 -1      4973-7.52925E-03 3.53257E-04 3.27001E-03
 -1      4974-7.38719E-03 3.26949E-04 3.12048E-03
 -1      4975-6.44565E-03 1.86005E-04 5.85100E-03
 -1      4976-7.13898E-03 1.86330E-04 5.89903E-03
 -1      4977-7.27044E-03 1.00904E-04 5.81453E-03
 -1      4978-2.83214E-03 5.34619E-04 3.17717E-03
 -1      4979-2.40827E-03 4.13796E-04 3.75544E-03
 -1      4980-5.69275E-03-4.32824E-04 8.24643E-03
 -1      4981-6.09826E-04-2.03527E-04 6.05766E-04
 -1      4982-2.36479E-03 4.29855E-04 2.43250E-03
 -1      4983-7.54521E-04-2.63578E-04 5.20354E-04
 -1      4984-9.99553E-04-2.78067E-04 8.00001E-04
 -1      4985-1.44114E-03 1.29450E-04 1.21952E-03
 -1      4986-1.06396E-03 1.00381E-04 1.29615E-03
 -1      4987-2.21902E-03 2.52029E-05 3.98511E-03
 -1      4988-2.96686E-03 8.52877E-05 4.19201E-03
 -1      4989-2.80973E-03 3.35148E-06 4.18264E-03
 -1      4990-2.39663E-03-4.25165E-05 4.57904E-03
 -1      4991-3.19069E-03 3.83866E-06 4.80881E-03
 -1      4992-2.55917E-03 2.69785E-05 4.59536E-03
 -1      4993-2.79262E-03 5.37785E-05 4.63634E-03
 -1      4994-2.17651E-03 6.72360E-05 4.42944E-03
 -1      4995-2.34246E-03 3.08201E-06 5.06494E-03
 -1      4996-5.21786E-04-2.15058E-05 2.83368E-04
 -1      4997-3.00309E-04-1.11653E-05 1.39814E-04
 -1      4998-1.21517E-03 2.83566E-04 1.23574E-03
 -1      4999-9.02411E-04 1.90211E-04 1.01649E-03
 -1      5000-1.19977E-03 2.10561E-04 1.36880E-03
 -1      5001-5.20900E-03-5.60657E-04 9.76669E-03
 -1      5002-6.55793E-03 5.29716E-04 4.78591E-03
 -1      5003-7.17765E-03 4.26081E-04 5.45607E-03
 -1      5004-7.36041E-03 4.36685E-04 4.34146E-03
 -1      5005-6.45652E-03 3.76598E-04 6.34121E-03
 -1      5006-6.31972E-03 3.14465E-04 6.50301E-03
 -1      5007-5.70754E-03 4.92795E-04 9.17090E-03
 -1      5008-5.54433E-03 4.09551E-04 8.78880E-03
 -1      5009-6.45192E-03 4.50172E-04 8.53976E-03
 -1      5010-6.46266E-03 3.74885E-04 8.56143E-03
 -1      5011-7.36147E-03 3.42188E-04 3.74075E-03
 -1      5012-6.85834E-03 3.08979E-04 4.51132E-03
 -1      5013-6.39765E-03-3.86229E-04 5.75449E-03
 -1      5014-7.59278E-03-3.07614E-04 5.09153E-03
 -1      5015-6.93312E-03-3.39642E-04 6.00291E-03
 -1      5016-9.59272E-03 2.32048E-04 7.15566E-05
 -1      5017-9.27525E-03 3.21764E-04 2.42190E-04
 -1      5018-1.01525E-04 5.03000E-05 8.21415E-05
 -1      5019-2.26517E-04 8.14743E-05 8.49753E-05
 -1      5020-2.16523E-04 6.09171E-05 1.48190E-04
 -1      5021-9.71326E-03 6.08880E-05 2.01720E-04
 -1      5022-1.83448E-04-6.87029E-05 2.38329E-04
 -1      5023-4.04803E-04-1.18862E-04 2.58639E-04
 -1      5024-1.84179E-04-7.82371E-05 1.12931E-04
 -1      5025-2.00840E-04-9.19752E-05 1.88423E-04
 -1      5026-4.16421E-04-1.64094E-04 2.06776E-04
 -1      5027-4.50184E-04-1.41805E-04 3.55282E-04
 -1      5028-4.18549E-03-3.20039E-04 7.88823E-03
 -1      5029-4.39271E-03-4.03824E-04 8.42385E-03
 -1      5030-3.29187E-03-3.79695E-04 8.16202E-03
 -1      5031-3.60277E-03-3.81774E-04 7.56868E-03
 -1      5032-4.11902E-04-1.87165E-05 2.66818E-04
 -1      5033-2.01357E-03 2.52405E-06 4.42544E-03
 -1      5034-8.52009E-04-1.29708E-04 3.69005E-03
 -1      5035-5.79865E-04-1.01982E-04 3.06390E-03
 -1      5036-4.03514E-03-3.39731E-04 7.28751E-03
 -1      5037-4.26299E-03-4.20677E-04 7.85989E-03
 -1      5038-5.30336E-03 3.93921E-04 9.66808E-03
 -1      5039-5.29394E-03 4.68478E-04 9.67804E-03
 -1      5040-5.28269E-03 7.58775E-04 9.79239E-03
 -1      5041-5.17437E-03 5.65238E-04 9.80116E-03
 -1      5042-5.46740E-03 5.88214E-04 9.55700E-03
 -1      5043-5.52447E-03 7.57513E-04 9.68587E-03
 -1      5044-5.11889E-03-5.45575E-04 9.84219E-03
 -1      5045-9.53237E-04-6.58576E-05 4.73096E-03
 -1      5046-1.73693E-03-7.00657E-05 5.22309E-03
 -1      5047-7.07481E-04-3.53793E-05 5.00874E-03
 -1      5048-5.02805E-04-3.90304E-05 4.04930E-03
 -1      5049-1.20430E-03-4.11790E-05 4.49351E-03
 -1      5050-1.41815E-03-7.84188E-05 4.23551E-03
 -1      5051-9.28433E-03 7.19617E-05 2.65531E-03
 -1      5052-9.23251E-03 6.18190E-05 3.04753E-03
 -1      5053-9.49745E-03 4.42209E-05 2.95233E-03
 -1      5054-9.46104E-03 3.55635E-05 3.36064E-03
 -1      5055-8.69140E-03 7.32662E-05 3.14368E-03
 -1      5056-6.47501E-03 5.02157E-05 6.47398E-03
 -1      5057-7.40447E-03 1.89394E-05 6.14583E-03
 -1      5058-6.57017E-03-2.36389E-05 6.20937E-03
 -1      5059-5.97948E-03-9.11022E-07 7.28074E-03
 -1      5060-6.90697E-03-2.77409E-05 6.93099E-03
 -1      5061-6.79906E-03 4.17534E-05 7.21356E-03
 -1      5062-3.83660E-03 4.32695E-04 8.32896E-03
 -1      5063-3.22327E-03 3.13359E-04 8.10291E-03
 -1      5064-5.30010E-03 3.14061E-04 9.67897E-03
 -1      5065-2.12019E-04 2.11517E-05 3.16652E-04
 -1      5066-2.15415E-04 3.52560E-05 3.10862E-04
 -1      5067-9.98633E-05 2.22907E-05 1.35317E-04
 -1      5068-3.01884E-04 3.24691E-05 2.11030E-04
 -1      5069-9.67366E-05 1.34954E-05 1.39476E-04
 -1      5070-8.16948E-04-3.19676E-04 3.46959E-04
 -1      5071-3.85419E-03 1.87394E-04 8.32582E-03
 -1      5072-2.99555E-03 5.61471E-04 7.76476E-03
 -1      5073-3.05243E-03 4.53552E-04 6.85497E-03
 -1      5074-6.71028E-03-1.09092E-04 8.22823E-03
 -1      5075-5.85649E-03-1.19334E-04 8.05499E-03
 -1      5076-6.49070E-03-1.62238E-04 7.60591E-03
 -1      5077-6.53798E-03 2.49256E-04 5.53726E-03
 -1      5078-7.31513E-03 1.76808E-04 4.95594E-03
 -1      5079-8.61642E-03-1.86491E-04 2.41224E-03
 -1      5080-9.17187E-03-1.23413E-04 2.07548E-03
 -1      5081-8.81623E-03-1.76581E-04 1.81401E-03
 -1      5082-8.72395E-03-2.27988E-04 2.04101E-03
 -1      5083-9.24404E-03-1.51453E-04 1.73342E-03
 -1      5084-9.11324E-03-1.59492E-04 2.32789E-03
 -1      5085-3.36148E-03-2.87810E-04 6.04084E-03
 -1      5086-3.60057E-03-2.33553E-04 6.48589E-03
 -1      5087-9.59415E-03-2.31423E-04 7.11575E-05
 -1      5088-9.27879E-03-3.21264E-04 2.38685E-04
 -1      5089-6.47768E-03 1.06570E-04 6.46461E-03
 -1      5090-6.03445E-03 1.20487E-04 7.13602E-03
 -1      5091-9.09095E-03 9.28662E-05 5.47532E-03
 -1      5092-8.38887E-03 7.78687E-05 5.58775E-03
 -1      5093-9.31544E-03 4.69119E-05 5.72754E-03
 -1      5094-9.38621E-03 6.71103E-05 4.97588E-03
 -1      5095-8.72944E-03 5.36676E-05 5.07132E-03
 -1      5096-8.53730E-03 1.08724E-04 4.84556E-03
 -1      5097-9.63550E-03 1.13529E-04 1.56324E-04
 -1      5098-9.85439E-03 4.90715E-05 3.10705E-05
 -1      5099-9.84374E-03 6.53150E-05 2.16852E-05
 -1      5100-9.88923E-03 5.58303E-05 1.03570E-05
 -1      5101-9.66941E-03 1.21792E-04 1.17298E-04
 -1      5102-3.91239E-03 3.30032E-04 7.17549E-03
 -1      5103-2.82339E-03 3.15500E-04 7.40632E-03
 -1      5104-3.65190E-03 3.80113E-04 7.76159E-03
 -1      5105-3.46296E-03 2.60068E-04 7.53175E-03
 -1      5106-5.83344E-03 2.19869E-04 7.76629E-03
 -1      5107-5.88045E-03 1.55047E-04 7.70230E-03
 -1      5108-1.31601E-03 1.81989E-04 2.66674E-03
 -1      5109-5.85985E-04 1.02293E-04 2.64110E-03
 -1      5110-7.48820E-04 1.42434E-04 2.71125E-03
 -1      5111-1.34457E-03 2.06284E-04 3.19172E-03
 -1      5112-5.38798E-04 1.12276E-04 3.17425E-03
 -1      5113-4.55134E-03 4.64448E-04 9.59124E-03
 -1      5114-9.03492E-03 1.67331E-04 6.01407E-04
 -1      5115-9.06104E-03 1.19069E-04 6.60203E-04
 -1      5116-9.09006E-03 9.37670E-05 5.66537E-04
 -1      5117-6.55896E-03-4.06800E-04 5.20841E-03
 -1      5118-5.82364E-04 6.73733E-05 1.86536E-03
 -1      5119-3.53493E-03-1.08611E-04 5.83525E-03
 -1      5120-6.81241E-03 4.07434E-04 4.70361E-03
 -1      5121-2.80657E-03-1.48456E-04 4.64956E-03
 -1      5122-8.29601E-03 4.02968E-05 1.86988E-03
 -1      5123-8.45001E-03 1.68859E-05 1.58416E-03
 -1      5124-7.88343E-03 6.06504E-06 2.22023E-03
 -1      5125-8.05790E-03-1.93664E-05 1.90777E-03
 -1      5126-8.57635E-03-3.90276E-06 1.96204E-03
 -1      5127-4.20782E-04 9.69500E-05 2.24878E-03
 -1      5128-1.09866E-03 1.82891E-04 2.26652E-03
 -1      5129-9.37769E-04 1.30851E-04 2.19848E-03
 -1      5130-9.42922E-03 8.73339E-05 3.01722E-04
 -1      5131-6.91051E-03-3.38306E-04 6.67634E-03
 -1      5132-7.60100E-03-3.00459E-04 5.72375E-03
 -1      5133-7.15970E-03-3.72742E-04 5.72151E-03
 -1      5134-4.89164E-03 3.84637E-04 9.75800E-03
 -1      5135-4.83748E-03 5.10342E-04 9.69301E-03
 -1      5136-4.88748E-03 4.26644E-04 9.76263E-03
 -1      5137-1.77319E-03 6.55191E-05 1.69788E-03
 -1      5138-2.12806E-03 1.35004E-04 2.12690E-03
 -1      5139-8.80456E-03 1.96466E-04 1.46584E-03
 -1      5140-8.54393E-03 1.93722E-04 2.02914E-03
 -1      5141-8.55750E-03 2.62891E-04 1.76600E-03
 -1      5142-2.97126E-03-1.85387E-04 4.18159E-03
 -1      5143-2.21701E-03-1.07186E-04 3.98552E-03
 -1      5144-2.81337E-03-1.01433E-04 4.17210E-03
 -1      5145-3.19437E-03-1.06735E-04 4.79906E-03
 -1      5146-2.55686E-03-1.14443E-04 4.59777E-03
 -1      5147-3.17054E-04 1.16742E-04 5.72797E-04
 -1      5148-5.18644E-04 1.83656E-04 4.54009E-04
 -1      5149-8.26590E-03-2.42343E-04 6.09110E-03
 -1      5150-9.27951E-03-1.72242E-04 6.24459E-03
 -1      5151-8.70206E-03-2.38093E-04 6.42011E-03
 -1      5152-8.36754E-03-2.41076E-04 5.37980E-03
 -1      5153-5.09937E-03 3.50681E-04 9.76282E-03
 -1      5154-8.23061E-03-1.98886E-04 1.55024E-03
 -1      5155-4.89255E-03-4.71712E-04 9.78483E-03
 -1      5156-9.03307E-03 1.55539E-05 4.70239E-03
 -1      5157-9.03246E-03 4.29038E-05 4.69873E-03
 -1      5158-9.07446E-03 2.86775E-05 4.34796E-03
 -1      5159-1.75324E-03-2.15785E-04 1.70875E-03
 -1      5160-1.37777E-03-2.00938E-04 1.59613E-03
 -1      5161-1.62309E-03-2.67755E-04 1.33150E-03
 -1      5162-1.78884E-03-1.87215E-04 1.57774E-03
 -1      5163-1.43115E-03-1.81015E-04 1.46400E-03
 -1      5164-1.51929E-03-1.35871E-04 1.85792E-03
 -1      5165-2.18293E-03-1.43425E-04 2.88123E-03
 -1      5166-2.33854E-03-1.69437E-04 3.25974E-03
 -1      5167-2.33401E-03-1.19913E-04 3.27929E-03
 -1      5168-9.51388E-04 1.47177E-05 4.71265E-03
 -1      5169-9.52232E-04 4.18856E-05 4.70558E-03
 -1      5170-1.00784E-03 2.98576E-05 5.20893E-03
 -1      5171-6.99796E-03 3.94120E-04 4.18988E-03
 -1      5172-7.52302E-03 2.99829E-04 4.34688E-03
 -1      5173-5.21034E-04 1.25121E-06 2.84543E-04
 -1      5174-7.87792E-04 4.66688E-07 4.74917E-04
 -1      5175-9.81228E-03-4.58526E-05 2.09666E-04
 -1      5176-9.73536E-03-5.43558E-05 1.58467E-04
 -1      5177-9.91940E-03-2.98115E-05 7.84452E-05
 -1      5178-9.90666E-03-2.65807E-05 2.24861E-04
 -1      5179-9.80508E-03-3.22547E-05 1.59180E-04
 -1      5180-9.64904E-03-4.28783E-05 3.21832E-04
 -1      5181-1.84776E-03 4.13157E-04 1.93581E-03
 -1      5182-1.46756E-03 3.49869E-04 1.71259E-03
 -1      5183-1.68035E-03 4.07076E-04 1.58255E-03
 -1      5184-9.55188E-03 6.60188E-05 7.64738E-04
 -1      5185-9.76943E-03 6.77417E-05 8.21539E-04
 -1      5186-9.80071E-03 4.09460E-05 6.98751E-04
 -1      5187-9.53015E-03 3.49576E-05 8.89092E-04
 -1      5188-9.77014E-03 4.58701E-05 9.63199E-04
 -1      5189-9.48231E-03 7.38392E-05 1.03526E-03
 -1      5190-6.48641E-03-5.75128E-05 7.65700E-03
 -1      5191-9.33782E-03 8.00083E-06 5.31769E-03
 -1      5192-9.33736E-03 3.30738E-05 5.31610E-03
 -1      5193-8.31992E-03 3.12619E-05 5.18552E-03
 -1      5194-3.28332E-03 3.13376E-06 7.40316E-03
 -1      5195-4.19163E-03-5.80049E-05 7.93996E-03
 -1      5196-3.84839E-03-5.80693E-05 8.34914E-03
 -1      5197-8.68775E-03 8.38368E-05 1.05131E-03
 -1      5198-9.18541E-03 7.37165E-05 8.12460E-04
 -1      5199-8.88969E-03 1.18261E-04 8.74200E-04
 -1      5200-8.89969E-03 9.33843E-05 7.55344E-04
 -1      5201-9.16392E-03 5.54952E-05 6.80566E-04
 -1      5202-7.68329E-03 1.52392E-04 3.18620E-03
 -1      5203-7.83963E-03 1.26323E-04 2.81135E-03
 -1      5204-7.47152E-03 8.11110E-05 3.14523E-03
 -1      5205-8.17435E-03 8.33653E-05 3.18324E-03
 -1      5206-7.29933E-03 1.08555E-04 3.54306E-03
 -1      5207-9.32682E-03 1.15639E-04 3.48926E-03
 -1      5208-8.42927E-03 2.04327E-04 3.50717E-03
 -1      5209-9.13527E-03 1.57875E-04 3.14689E-03
 -1      5210-9.44388E-03 1.28738E-04 3.47974E-03
 -1      5211-8.53567E-03 2.44073E-04 3.48770E-03
 -1      5212-8.71579E-03 1.87415E-04 3.84697E-03
 -1      5213-3.46536E-04 7.94994E-05 1.63961E-03
 -1      5214-3.76210E-04 7.27482E-05 1.96407E-03
 -1      5215-9.37285E-04 1.22886E-04 1.76171E-03
 -1      5216-9.55185E-03 6.79743E-05 3.59992E-04
 -1      5217-1.43592E-03 4.13285E-04 1.09674E-03
 -1      5218-1.26574E-03 3.56281E-04 1.20001E-03
 -1      5219-1.55729E-03 3.42294E-04 1.51613E-03
 -1      5220-4.45332E-03 4.31296E-06 8.95425E-03
 -1      5221-3.58419E-03 1.71670E-06 8.67578E-03
 -1      5222-2.63587E-04 3.24186E-05 4.67017E-04
 -1      5223-1.15831E-03 2.24579E-04 2.31941E-03
 -1      5224-4.64034E-04 1.18236E-04 2.30515E-03
 -1      5225-8.04618E-04 1.65233E-04 1.89128E-03
 -1      5226-2.13762E-03-9.01688E-05 5.99998E-03
 -1      5227-1.38017E-03-6.60131E-05 6.31492E-03
 -1      5228-2.07481E-03-1.35139E-04 6.82159E-03
 -1      5229-2.07924E-03-1.53710E-04 6.15980E-03
 -1      5230-1.28930E-03-1.18723E-04 6.49286E-03
 -1      5231-1.43090E-03-8.38312E-05 5.66220E-03
 -1      5232-9.02924E-03-1.22629E-04 1.84721E-03
 -1      5233-9.64457E-03-7.47911E-05 1.65679E-03
 -1      5234-9.35594E-03-8.24926E-05 1.44549E-03
 -1      5235-3.84409E-03 6.43645E-05 8.34662E-03
 -1      5236-3.54341E-03-2.93584E-04 5.53646E-03
 -1      5237-2.47907E-03-3.48755E-04 3.05823E-03
 -1      5238-1.78772E-03-2.61752E-04 3.27115E-03
 -1      5239-2.50745E-03-2.92928E-04 3.61422E-03
 -1      5240-2.88603E-03-3.75159E-04 3.73257E-03
 -1      5241-2.11902E-03-2.88181E-04 3.96955E-03
 -1      5242-2.14205E-03-3.39116E-04 3.36735E-03
 -1      5243-9.09944E-03 3.55361E-04 3.87591E-04
 -1      5244-5.84465E-03 5.24001E-04 8.85605E-03
 -1      5245-5.63014E-03 4.39170E-04 8.39238E-03
 -1      5246-8.64659E-03 1.99563E-04 2.95562E-03
 -1      5247-9.47245E-03 1.07151E-04 2.94217E-03
 -1      5248-8.80469E-03 1.46026E-04 3.27374E-03
 -1      5249-9.55395E-04-1.71314E-05 6.22564E-04
 -1      5250-8.00501E-04-4.71076E-05 5.29758E-04
 -1      5251-6.79022E-04-7.75625E-05 5.36827E-04
 -1      5252-1.03824E-03-8.51267E-05 6.93039E-04
 -1      5253-8.27878E-04-5.56000E-05 6.31289E-04
 -1      5254-3.59928E-04-1.23930E-04 9.42612E-04
 -1      5255-2.74263E-04-9.73866E-05 8.98574E-04
 -1      5256-2.18062E-03-1.45527E-04 4.45445E-03
 -1      5257-8.97264E-03-2.08783E-04 6.38222E-04
 -1      5258-9.28437E-03-1.61185E-04 3.75735E-04
 -1      5259-9.82029E-03 6.69427E-05 5.57989E-05
 -1      5260-9.86333E-03 7.53998E-05 2.69188E-05
 -1      5261-2.32270E-03 3.27478E-04 3.04994E-03
 -1      5262-2.73900E-03 3.70168E-04 3.65672E-03
 -1      5263-3.89511E-04 4.57872E-05 2.18484E-03
 -1      5264-3.52438E-04 3.61511E-05 1.86655E-03
 -1      5265-9.79408E-04 7.55222E-05 1.97073E-03
 -1      5266-8.82534E-03 4.82968E-07 1.38728E-03
 -1      5267-8.40689E-03-1.27340E-05 1.35905E-03
 -1      5268-8.47326E-03-3.23475E-05 1.68821E-03
 -1      5269-3.75988E-04 1.28599E-04 8.16797E-04
 -1      5270-3.52480E-04 1.11933E-04 7.98649E-04
 -1      5271-3.19236E-04 9.64937E-05 1.07478E-03
 -1      5272-2.99427E-04 8.14212E-05 1.03987E-03
 -1      5273-6.65220E-04 1.60826E-04 9.26337E-04
 -1      5274-8.01876E-03 1.89926E-04 4.23674E-03
 -1      5275-8.24201E-03 1.90040E-04 3.32732E-03
 -1      5276-1.97099E-03 1.92133E-04 3.54112E-03
 -1      5277-2.86505E-03 2.24839E-04 3.78216E-03
 -1      5278-2.62579E-03 1.77462E-04 4.11408E-03
 -1      5279-2.16972E-03 1.91935E-04 4.29434E-03
 -1      5280-2.44390E-03 2.39361E-04 3.93988E-03
 -1      5281-6.24702E-04-1.35997E-04 3.04231E-03
 -1      5282-5.44720E-04-1.08908E-04 2.65304E-03
 -1      5283-4.46091E-04-1.16095E-04 2.42357E-03
 -1      5284-9.57684E-04-1.77842E-04 2.39855E-03
 -1      5285-1.07372E-03-2.17824E-04 2.75740E-03
 -1      5286-4.64567E-04-7.64460E-05 5.74604E-04
 -1      5287-6.72454E-04-8.45880E-05 9.35934E-04
 -1      5288-6.53373E-04-1.16963E-04 7.21315E-04
 -1      5289-5.06045E-04-1.19486E-04 6.44650E-04
 -1      5290-7.13679E-04-1.32919E-04 1.02872E-03
 -1      5291-5.05326E-04-9.12132E-05 8.61057E-04
 -1      5292-9.74730E-04 1.54689E-05 1.99172E-03
 -1      5293-9.41401E-03 5.35693E-05 4.59773E-03
 -1      5294-3.14427E-03-2.14241E-04 4.63941E-03
 -1      5295-7.87963E-03 1.80747E-05 6.83596E-03
 -1      5296-7.96867E-03-3.89319E-05 6.57717E-03
 -1      5297-7.32665E-03-2.71299E-05 7.65204E-03
 -1      5298-7.66885E-04 9.20259E-05 4.42039E-04
 -1      5299-8.45704E-04 5.65102E-05 1.17148E-03
 -1      5300-6.81895E-04 7.71466E-05 8.15227E-04
 -1      5301-3.03486E-03 3.15949E-04 5.25671E-03
 -1      5302-2.55354E-03 2.62565E-04 6.01515E-03
 -1      5303-3.58207E-03 3.16137E-04 6.01450E-03
 -1      5304-3.33020E-03 3.06488E-04 4.99299E-03
 -1      5305-2.88844E-03 2.49376E-04 5.72747E-03
 -1      5306-2.37230E-03 2.45906E-04 4.99618E-03
 -1      5307-1.40166E-04 5.21658E-05 2.57039E-04
 -1      5308-5.08740E-03 5.94553E-04 9.83769E-03
 -1      5309-4.94865E-03 5.08810E-04 9.84846E-03
 -1      5310-9.92448E-03-2.20711E-05 8.61944E-05
 -1      5311-9.91052E-03-1.65128E-05 2.31005E-04
 -1      5312-9.22870E-03 8.49677E-05 3.02472E-03
 -1      5313-9.45865E-03 5.54715E-05 3.34403E-03
 -1      5314-2.03599E-03 1.28437E-04 3.93473E-03
 -1      5315-2.29178E-03 1.68439E-04 3.60348E-03
 -1      5316-3.18322E-04 8.83061E-06 9.09121E-04
 -1      5317-2.04964E-04 3.05125E-05 8.26138E-04
 -1      5318-1.78405E-03-7.64646E-05 3.50492E-03
 -1      5319-2.64946E-03-7.45922E-05 3.73596E-03
 -1      5320-2.79794E-03-1.57280E-04 3.74919E-03
 -1      5321-1.92728E-03-1.41423E-04 3.50722E-03
 -1      5322-9.80562E-03 2.61423E-05 7.09316E-04
 -1      5323-9.77531E-03 3.02470E-05 9.76214E-04
 -1      5324-8.86591E-03 7.51452E-05 2.53042E-03
 -1      5325-9.58943E-03 4.42965E-05 2.35612E-03
 -1      5326-7.62641E-05 1.41896E-05 7.29170E-05
 -1      5327-1.40964E-03-1.51798E-04 1.29717E-03
 -1      5328-1.25765E-03-1.67275E-04 1.05076E-03
 -1      5329-1.41297E-03-1.96893E-04 1.27181E-03
 -1      5330-1.00947E-03-8.31524E-05 5.22449E-03
 -1      5331-9.55318E-04-9.19670E-05 4.71276E-03
 -1      5332-9.43984E-03 4.13931E-05 4.25193E-03
 -1      5333-8.47588E-03 6.59361E-05 4.47724E-03
 -1      5334-7.45694E-04 1.75890E-06 5.53074E-03
 -1      5335-7.06902E-04-1.06840E-05 5.01548E-03
 -1      5336-1.73220E-03 3.09442E-06 5.19646E-03
 -1      5337-2.93024E-03-2.17897E-04 7.51891E-03
 -1      5338-2.64200E-03-1.57670E-04 7.28410E-03
 -1      5339-3.25806E-03-1.39224E-04 8.23011E-03
 -1      5340-8.68022E-04 2.19892E-04 1.03293E-03
 -1      5341-9.87493E-03 1.82869E-05 2.82058E-05
 -1      5342-9.89284E-03 8.72939E-06 2.17941E-05
 -1      5343-8.98316E-03-2.44079E-04 6.01471E-04
 -1      5344-7.36687E-04 3.67978E-05 2.93773E-03
 -1      5345-7.35092E-04 1.29408E-05 2.94433E-03
 -1      5346-4.72464E-04 4.16199E-05 3.22660E-03
 -1      5347-4.70292E-04 2.23950E-05 3.23742E-03
 -1      5348-1.28567E-03 5.29542E-05 3.36503E-03
 -1      5349-1.09073E-03-1.81215E-04 1.16877E-03
 -1      5350-1.21755E-03-1.23747E-04 1.39799E-03
 -1      5351-4.03713E-03 4.35545E-04 7.64687E-03
 -1      5352-2.11525E-03-1.70243E-05 5.98746E-03
 -1      5353-2.14459E-03-3.77307E-05 5.35765E-03
 -1      5354-8.79601E-03 3.25776E-04 7.06620E-04
 -1      5355-8.88784E-03 3.35872E-04 7.21659E-04
 -1      5356-9.09592E-03 2.57421E-04 6.77054E-04
 -1      5357-9.52006E-03 2.29014E-04 1.62406E-04
 -1      5358-9.47153E-03 2.12842E-04 1.97827E-04
 -1      5359-9.14859E-03 3.24816E-04 3.54668E-04
 -1      5360-9.32072E-03 1.15475E-05 4.21307E-04
 -1      5361-9.62899E-03 8.36985E-06 2.25151E-04
 -1      5362-9.47796E-03 1.64997E-05 2.83543E-04
 -1      5363-9.27972E-03-1.32691E-05 4.22991E-04
 -1      5364-9.59741E-03-7.32974E-06 2.23014E-04
 -1      5365-9.48099E-03-1.64110E-05 3.66576E-04
 -1      5366-1.08360E-03 2.52495E-04 6.36371E-04
 -1      5367-7.25663E-04 1.70290E-04 4.99521E-04
 -1      5368-7.30280E-04 2.24961E-04 3.89810E-04
 -1      5369-2.94632E-03 2.94522E-05 5.13271E-03
 -1      5370-3.36136E-03-2.38040E-05 5.30963E-03
 -1      5371-5.60836E-03 5.53984E-04 9.34577E-03
 -1      5372-2.26816E-04-1.06685E-04 4.97526E-05
 -1      5373-7.51810E-05-3.89185E-05-1.42569E-05
 -1      5374-1.57156E-04-6.55107E-05 2.14316E-05
 -1      5375-2.52547E-04-8.54968E-05 1.11191E-04
 -1      5376-1.01472E-04-3.66804E-05 3.37215E-06
 -1      5377-1.50165E-04-6.41463E-05 3.25760E-05
 -1      5378-1.29869E-03 1.90343E-05 3.52020E-03
 -1      5379-4.66454E-04 1.67177E-06 3.38762E-03
 -1      5380-1.03036E-03 3.31243E-05 3.83055E-03
 -1      5381-7.42714E-04-5.02634E-05 5.52066E-03
 -1      5382-5.01525E-04 6.80808E-05 2.75531E-04
 -1      5383-9.13465E-05-5.09084E-05 6.23843E-03
 -1      5384-8.91799E-04-4.16161E-05 6.17128E-03
 -1      5385-6.54529E-04-8.82383E-05 5.68523E-03
 -1      5386-7.89478E-04-8.43048E-05 6.34668E-03
 -1      5387-7.83483E-03 1.75672E-04 2.79097E-03
 -1      5388-9.46499E-03-2.14137E-04 2.01345E-04
 -1      5389-9.13703E-03-2.74578E-04 4.14172E-04
 -1      5390-9.14467E-03-3.25254E-04 3.57344E-04
 -1      5391-3.82466E-04 1.94966E-05 3.61072E-04
 -1      5392-5.77167E-04 2.45210E-05 6.14876E-04
 -1      5393-4.70835E-04 5.44850E-05 5.34506E-04
 -1      5394-1.95156E-03 1.56106E-04 4.79911E-03
 -1      5395-1.12600E-03 2.87017E-04 1.41564E-03
 -1      5396-1.41984E-03 2.77268E-04 1.73284E-03
 -1      5397-5.33949E-04 1.55919E-06 4.27020E-03
 -1      5398-5.34692E-04 2.31077E-05 4.26619E-03
 -1      5399-1.47021E-03 2.00465E-05 4.43147E-03
 -1      5400-9.88962E-03-5.50563E-05 9.52547E-06
 -1      5401-9.68294E-03-1.17866E-04 1.10701E-04
 -1      5402-9.86248E-03-4.64026E-05 2.78975E-05
 -1      5403-9.93659E-03-2.70394E-05-8.74567E-06
 -1      5404-9.78960E-03-6.71376E-05 6.24735E-05
 -1      5405-9.80875E-03-8.86340E-05 2.92820E-05
 -1      5406-7.00545E-04 1.34818E-04 8.99995E-04
 -1      5407-3.93984E-04 9.82036E-05 7.72070E-04
 -1      5408-2.18539E-04 6.05698E-05 7.96609E-04
 -1      5409-5.63474E-04 9.88044E-05 6.77027E-04
 -1      5410-2.44251E-03-2.07848E-04 2.84650E-03
 -1      5411-2.61820E-03-2.37011E-04 3.21800E-03
 -1      5412-1.80120E-03-1.59548E-04 3.01137E-03
 -1      5413-2.44734E-04-5.83416E-05 8.36460E-04
 -1      5414-4.29442E-04-9.00356E-05 9.98958E-04
 -1      5415-2.61783E-04-8.43237E-05 9.22386E-04
 -1      5416-9.86820E-03 6.42510E-05 5.95465E-05
 -1      5417-9.62634E-03 1.18192E-04 1.70137E-04
 -1      5418-9.68109E-03 1.48625E-04 1.21437E-04
 -1      5419-2.79363E-04-1.92300E-05 1.64125E-03
 -1      5420-2.47255E-04-1.05846E-05 1.36368E-03
 -1      5421-7.85273E-04-3.16786E-05 1.46171E-03
 -1      5422-3.57397E-03 5.13141E-05 5.49474E-03
 -1      5423-3.39842E-03 7.89917E-05 4.98042E-03
 -1      5424-2.54427E-03 6.42213E-05 5.23762E-03
 -1      5425-1.47214E-04 3.83953E-05 4.38987E-04
 -1      5426-1.93262E-03-2.23125E-04 3.38973E-03
 -1      5427-2.62263E-03-2.89334E-04 3.18010E-03
 -1      5428-1.93932E-03-2.69316E-04 2.84960E-03
 -1      5429-5.55531E-05-3.28452E-05-2.80973E-05
 -1      5430-7.22963E-05-3.09035E-05-1.15780E-05
 -1      5431-5.87298E-04-2.42370E-04 3.23396E-04
 -1      5432-6.15184E-04-2.18503E-04 3.35627E-04
 -1      5433-5.00476E-04 1.18400E-05 3.81538E-03
 -1      5434-5.05564E-04 3.32333E-05 3.65293E-03
 -1      5435-8.32624E-03-4.06269E-05 1.59109E-03
 -1      5436-8.43177E-03-5.68145E-05 1.95763E-03
 -1      5437-9.76453E-03-4.68240E-05 3.48560E-04
 -1      5438-9.88212E-03-2.56051E-05 3.67470E-04
 -1      5439-7.63534E-03 4.41026E-04 2.46042E-03
 -1      5440-7.96068E-03 4.31457E-04 2.40246E-03
 -1      5441-8.19920E-03 3.11741E-04 2.67204E-03
 -1      5442-2.16550E-03 3.21535E-04 6.80139E-03
 -1      5443-2.48675E-03 3.10609E-04 5.88755E-03
 -1      5444-1.69344E-03 2.44217E-04 6.14151E-03
 -1      5445-2.24576E-03 2.73126E-04 6.91359E-03
 -1      5446-3.04484E-03 3.28726E-04 6.68277E-03
 -1      5447-1.82116E-03-3.47706E-05 4.70164E-03
 -1      5448-2.02131E-03-7.87173E-05 4.44836E-03
 -1      5449-1.49638E-03-4.81997E-05 3.76756E-03
 -1      5450-9.78674E-03-8.47346E-05 5.99374E-05
 -1      5451-2.62365E-03-5.38113E-04 2.70723E-03
 -1      5452-2.83162E-03-5.40033E-04 3.16884E-03
 -1      5453-2.18867E-03-4.05712E-04 3.12570E-03
 -1      5454-2.39964E-03-4.24316E-04 2.76676E-03
 -1      5455-2.02855E-03-4.03016E-04 2.66651E-03
 -1      5456-1.52868E-03-1.09984E-04 1.30828E-03
 -1      5457-1.36046E-03-1.27420E-04 1.06822E-03
 -1      5458-1.01604E-03-1.00709E-04 1.12183E-03
 -1      5459-3.19652E-03 3.47861E-04 5.77105E-03
 -1      5460-3.75687E-03 3.48968E-04 6.56621E-03
 -1      5461-8.89319E-03 2.12531E-04 2.11721E-03
 -1      5462-9.52918E-03 1.24877E-04 2.27912E-03
 -1      5463-9.33370E-03 1.39792E-04 2.11815E-03
 -1      5464-8.84909E-03 1.74328E-04 2.34255E-03
 -1      5465-9.50907E-03 1.08227E-04 2.51781E-03
 -1      5466-9.03124E-03 1.74369E-04 2.51134E-03
 -1      5467-1.25550E-03-1.16569E-05 4.71808E-03
 -1      5468-5.33745E-04-1.98260E-05 4.26709E-03
 -1      5469-9.90255E-04-2.34776E-05 3.78785E-03
 -1      5470-2.07488E-04-4.71798E-05 6.52190E-04
 -1      5471-2.31930E-04-6.46623E-05 4.63733E-04
 -1      5472-2.25034E-04-7.29961E-05 7.33973E-04
 -1      5473-8.79660E-03-2.09042E-05 1.63840E-03
 -1      5474-9.14150E-03 1.31043E-04 8.38645E-04
 -1      5475-8.63393E-03 1.61924E-04 1.08377E-03
 -1      5476-8.96458E-03 1.07355E-04 1.01964E-03
 -1      5477-3.69534E-03 4.11692E-04 6.43528E-03
 -1      5478-6.13495E-04-1.45955E-04 1.79099E-03
 -1      5479-9.40544E-04-2.21336E-04 1.36105E-03
 -1      5480-4.33623E-04-1.31396E-04 1.42982E-03
 -1      5481-4.17978E-04-1.21003E-04 2.02496E-03
 -1      5482-8.07203E-04-2.03944E-04 1.54954E-03
 -1      5483-1.02720E-03-2.15885E-04 1.92996E-03
 -1      5484-9.87303E-03 7.54208E-05-2.34499E-05
 -1      5485-9.67675E-03 1.58600E-04 1.24135E-04
 -1      5486-9.80124E-03 1.00576E-04 1.47701E-04
 -1      5487-9.89605E-03 6.14609E-05-1.24683E-05
 -1      5488-9.70876E-03 1.33114E-04 1.22283E-04
 -1      5489-9.82556E-03 1.07939E-04-2.63303E-05
 -1      5490-1.78701E-03-1.36341E-04 1.59966E-03
 -1      5491-9.73241E-05 4.38916E-05 1.08402E-04
 -1      5492-2.47962E-03-3.92654E-04 3.00170E-03
 -1      5493-2.88733E-03-4.21279E-04 3.67415E-03
 -1      5494-5.84944E-04 5.66788E-05 4.71124E-03
 -1      5495-6.17322E-04 4.82285E-05 5.21974E-03
 -1      5496-1.57476E-03 7.09074E-05 4.88891E-03
 -1      5497-4.22442E-04 3.75756E-05 2.54198E-03
 -1      5498-1.14629E-03 4.74602E-05 2.67003E-03
 -1      5499-4.19987E-04 1.90332E-05 2.55172E-03
 -1      5500-1.14791E-04 5.74634E-06 2.78991E-04
 -1      5501-2.64388E-03-1.07219E-04 7.29485E-03
 -1      5502-2.61883E-03-2.14089E-05 7.28335E-03
 -1      5503-3.24840E-03-8.36513E-05 8.24323E-03
 -1      5504-6.79671E-05-3.99558E-05-2.58004E-05
 -1      5505-2.47995E-05-1.28548E-05-2.86524E-05
 -1      5506-7.11100E-05-3.46863E-05 1.19215E-05
 -1      5507-1.55515E-03-1.42219E-05 3.97564E-03
 -1      5508-4.22725E-04-6.98022E-05 1.02709E-03
 -1      5509-2.38443E-04-4.25602E-05 8.57644E-04
 -1      5510-1.21108E-03-1.58389E-04 8.53954E-04
 -1      5511-9.18862E-04-1.26376E-04 8.88284E-04
 -1      5512-1.01794E-03-9.60065E-05 8.98466E-04
 -1      5513-2.80358E-03-2.11889E-04 3.72621E-03
 -1      5514-9.27848E-03 1.24657E-04 3.98408E-03
 -1      5515-9.40584E-03 1.37820E-04 3.97717E-03
 -1      5516-9.45882E-03 1.17401E-04 4.43655E-03
 -1      5517-8.85770E-03 1.79483E-04 4.28525E-03
 -1      5518-8.73019E-03 1.47278E-04 4.27965E-03
 -1      5519-6.36942E-03-3.75510E-04 6.42232E-03
 -1      5520-9.83016E-03-6.33273E-05 5.15402E-05
 -1      5521-9.86435E-03-7.47105E-05 2.61717E-05
 -1      5522-2.07143E-03 1.92174E-04 5.23181E-03
 -1      5523-7.81270E-04 9.24724E-05 2.06819E-03
 -1      5524-2.28474E-03-1.26724E-04 2.57278E-03
 -1      5525-1.68534E-03-9.76955E-05 2.72343E-03
 -1      5526-2.45498E-03-1.01265E-04 2.94406E-03
 -1      5527-9.87463E-03 2.66877E-05 2.59218E-05
 -1      5528-9.85562E-03 3.79350E-05 3.46486E-05
 -1      5529-8.74867E-03-1.75380E-04 1.03394E-03
 -1      5530-8.80433E-03-2.08754E-04 8.26509E-04
 -1      5531-8.81390E-03-1.65247E-04 8.41457E-04
 -1      5532-9.12836E-03-1.40678E-04 8.28250E-04
 -1      5533-9.86381E-03-5.17744E-05 2.25803E-04
 -1      5534-9.83380E-03-5.39913E-05 3.73039E-04
 -1      5535-9.59980E-03-8.77381E-05 3.30029E-04
 -1      5536-4.89125E-04-1.67779E-05 2.63278E-04
 -1      5537-9.86228E-03-6.62783E-05 6.20988E-05
 -1      5538-9.63432E-03-1.15781E-04 1.65324E-04
 -1      5539-9.67649E-03-1.49986E-04 1.23528E-04
 -1      5540-5.01091E-04-4.92367E-05 5.58885E-04
 -1      5541-2.01233E-04-3.17493E-05 6.61849E-04
 -1      5542-2.63934E-04-3.10168E-05 4.57518E-04
 -1      5543-3.79330E-04-1.86233E-05 3.50772E-04
 -1      5544-1.46636E-04-1.20140E-05 4.28242E-04
 -1      5545-3.72333E-04-2.23395E-05 5.20312E-04
 -1      5546-2.17766E-04 1.30919E-05 1.70839E-04
 -1      5547-7.74863E-03-2.51491E-04 2.44402E-03
 -1      5548-8.16158E-03-2.11771E-04 2.71001E-03
 -1      5549-7.60349E-03-2.09814E-04 3.02818E-03
 -1      5550-7.59377E-03-1.66722E-04 2.82090E-03
 -1      5551-8.04475E-03-1.43651E-04 3.11161E-03
 -1      5552-8.13700E-03-1.78474E-04 2.51543E-03
 -1      5553-9.42453E-03 2.62966E-05 3.78326E-03
 -1      5554-8.51588E-03 4.21818E-05 3.99978E-03
 -1      5555-9.39933E-03 2.20325E-06 4.48040E-03
 -1      5556-8.40976E-03 3.50719E-06 4.71184E-03
 -1      5557-8.81665E-03 7.43555E-06 4.11782E-03
 -1      5558-5.10363E-03 4.32038E-04 9.76133E-03
 -1      5559-9.62888E-03 1.61826E-05 2.03671E-03
 -1      5560-9.04072E-03 3.56663E-05 1.91978E-03
 -1      5561-9.71193E-03 1.57247E-05 1.49639E-03
 -1      5562-9.32916E-03 4.31669E-05 1.66450E-03
 -1      5563-4.99963E-03 4.62847E-04 9.82838E-03
 -1      5564-2.21212E-03-5.28188E-04 1.90691E-03
 -1      5565-2.42020E-03-5.34447E-04 2.29080E-03
 -1      5566-2.21257E-03-4.21013E-04 2.35105E-03
 -1      5567-1.86598E-03-3.98789E-04 2.24816E-03
 -1      5568-6.27604E-04-9.33128E-05 5.14542E-03
 -1      5569-1.67773E-03-1.26178E-04 5.37290E-03
 -1      5570-6.53536E-04-1.13671E-04 5.42101E-04
 -1      5571-6.07934E-04-1.53396E-04 5.32051E-04
 -1      5572-5.41661E-04-1.23084E-04 3.56690E-04
 -1      5573-7.66351E-03 3.75225E-04 5.80320E-03
 -1      5574-8.01878E-03 3.17484E-04 5.08237E-03
 -1      5575-8.34699E-03 2.52206E-04 5.09750E-03
 -1      5576-8.32647E-03 3.03367E-04 5.37732E-03
 -1      5577-8.02383E-03 3.04449E-04 5.81031E-03
 -1      5578-2.15256E-03-1.79182E-04 5.30509E-03
 -1      5579-2.15439E-04-2.01988E-05 3.18114E-04
 -1      5580-1.16974E-04-4.94664E-06 2.90374E-04
 -1      5581-5.74173E-04-6.21630E-05 4.21288E-03
 -1      5582-1.51359E-03-1.14386E-04 4.40307E-03
 -1      5583-5.76975E-04-8.21368E-05 4.19049E-03
 -1      5584-8.31166E-04 1.12207E-04 1.06277E-03
 -1      5585-9.38804E-03 1.32974E-04 1.79974E-03
 -1      5586-9.54671E-03 1.03019E-04 2.16897E-03
 -1      5587-2.89668E-03 3.29997E-04 3.75748E-03
 -1      5588-2.21333E-03 2.86022E-04 3.57511E-03
 -1      5589-2.92130E-03 3.83798E-04 4.13576E-03
 -1      5590-3.18015E-03 3.25982E-04 4.53532E-03
 -1      5591-2.43313E-03 2.85176E-04 4.34247E-03
 -1      5592-9.11165E-03-9.49136E-05 8.75647E-04
 -1      5593-9.13874E-03-1.19638E-04 6.80958E-04
 -1      5594-8.78940E-03-1.05872E-04 8.85928E-04
 -1      5595-1.16831E-04-2.88673E-05 3.65116E-04
 -1      5596-9.02260E-05-1.96003E-05 2.39269E-04
 -1      5597-3.33632E-04-4.39661E-05 2.91884E-04
 -1      5598-2.65264E-03-6.54068E-05 3.30860E-03
 -1      5599-1.83685E-03-7.13082E-05 3.08075E-03
 -1      5600-2.12113E-03-3.15477E-05 3.51751E-03
 -1      5601-3.04046E-03 5.35741E-04 3.67410E-03
 -1      5602-2.84635E-03 4.27274E-04 3.86335E-03
 -1      5603-1.03916E-03-1.25504E-04 6.80980E-04
 -1      5604-2.15781E-03 3.36732E-04 2.62470E-03
 -1      5605-2.26693E-03 3.82147E-04 2.29533E-03
 -1      5606-7.17095E-03 5.33398E-04 3.17659E-03
 -1      5607-7.07410E-03 4.50699E-04 3.89926E-03
 -1      5608-7.81664E-04-5.74141E-05 7.15697E-04
 -1      5609-9.47537E-04-3.04034E-05 8.15028E-04
 -1      5610-3.96833E-04 6.07128E-05 3.58272E-04
 -1      5611-2.29124E-04 4.14837E-05 1.69813E-04
 -1      5612-1.32132E-04 4.06170E-05 2.69852E-04
 -1      5613-9.14928E-03-1.64291E-04 4.92169E-04
 -1      5614-9.36924E-03-1.14722E-04 4.69035E-04
 -1      5615-9.37508E-03-1.07531E-04 3.48754E-04
 -1      5616-9.45923E-03-1.14604E-04 2.72608E-04
 -1      5617-9.58760E-03-8.30247E-05 2.23715E-04
 -1      5618-2.37773E-04-8.91388E-05 6.92489E-04
 -1      5619-2.59942E-04-1.07951E-04 3.70888E-04
 -1      5620-9.10358E-03-1.66381E-04 1.47844E-03
 -1      5621-8.60080E-03-2.41719E-04 1.77359E-03
 -1      5622-9.02521E-03-2.10255E-04 1.67607E-03
 -1      5623-9.49876E-03 7.76781E-07 3.91160E-03
 -1      5624-8.88340E-03-2.75270E-05 4.24036E-03
 -1      5625-8.95687E-03 5.34826E-06 3.57132E-03
 -1      5626-5.44029E-04-8.73765E-05 3.71716E-03
 -1      5627-1.42604E-03-1.58871E-04 3.87567E-03
 -1      5628-1.09916E-03-1.30577E-04 3.23018E-03
 -1      5629-9.30892E-03 2.26387E-04 3.25523E-04
 -1      5630-8.96734E-03 3.25085E-04 5.25340E-04
 -1      5631-4.26424E-04-2.25979E-04 7.43828E-05
 -1      5632-4.09910E-04-2.32897E-04 7.19472E-05
 -1      5633-6.17620E-04-2.59771E-04 2.44607E-04
 -1      5634-6.37264E-04-2.81143E-04 2.14382E-04
 -1      5635-5.25981E-04-2.11252E-04 1.97959E-04
 -1      5636-8.50188E-04-1.72664E-04 8.85073E-04
 -1      5637-1.15489E-03-1.42198E-04 1.53605E-03
 -1      5638-8.35433E-03 8.62315E-05 2.64915E-03
 -1      5639-7.71976E-03 8.57172E-05 2.62263E-03
 -1      5640-8.01581E-03 4.83488E-05 2.96622E-03
 -1      5641-5.08786E-04-8.85550E-05 2.61628E-04
 -1      5642-6.87441E-04-1.37788E-04 3.64257E-04
 -1      5643-8.58528E-04-1.40961E-04 4.96946E-04
 -1      5644-4.49408E-04-9.41213E-05 2.28596E-04
 -1      5645-3.86210E-03 3.96019E-04 7.05516E-03
 -1      5646-3.98004E-04-1.36580E-04 1.09936E-03
 -1      5647-7.23478E-04-2.14650E-04 1.33097E-03
 -1      5648-3.22249E-04-1.23580E-04 1.40963E-03
 -1      5649-3.89027E-04-1.26294E-04 1.63398E-03
 -1      5650-7.56816E-04-2.03174E-04 1.91528E-03
 -1      5651-8.15819E-03-1.15503E-04 1.85996E-03
 -1      5652-8.67764E-03-1.00274E-04 1.90552E-03
 -1      5653-8.14030E-03-1.52428E-04 2.13886E-03
 -1      5654-7.88223E-03-9.78397E-05 2.20689E-03
 -1      5655-8.45080E-03-8.87175E-05 2.26013E-03
 -1      5656-1.76389E-03-4.37465E-04 1.68323E-03
 -1      5657-1.73794E-03-3.44995E-04 2.10988E-03
 -1      5658-2.06405E-03-4.59545E-04 1.79052E-03
 -1      5659-9.80190E-03 9.05347E-05 2.27546E-04
 -1      5660-9.57130E-03 1.61305E-04 2.40381E-04
 -1      5661-9.81202E-03 8.02817E-05 1.14777E-04
 -1      5662-9.89826E-03 5.66545E-05 3.37233E-05
 -1      5663-9.77182E-03 1.07076E-04 5.04200E-05
 -1      5664-8.37948E-03-1.18984E-04 2.53606E-03
 -1      5665-7.76772E-03-1.37979E-04 2.47287E-03
 -1      5666-8.09451E-03-7.34211E-05 2.59347E-03
 -1      5667-7.98413E-03-1.79515E-04 2.46289E-03
 -1      5668-7.87844E-03-2.08836E-04 2.13966E-03
 -1      5669-8.05662E-03-1.77768E-04 1.84441E-03
 -1      5670-8.56836E-03-1.50304E-04 1.88082E-03
 -1      5671-1.97333E-04-1.71329E-05 6.65937E-04
 -1      5672-5.55322E-04-2.86517E-05 8.12964E-04
 -1      5673-1.96233E-03-2.81294E-04 1.78817E-03
 -1      5674-1.65531E-03-2.09596E-04 2.10265E-03
 -1      5675-1.57665E-03-2.61060E-04 1.66518E-03
 -1      5676-9.51326E-03-2.30986E-04 1.65183E-04
 -1      5677-3.74197E-03 2.93792E-04 6.59751E-03
 -1      5678-3.49495E-03 2.81388E-04 5.53114E-03
 -1      5679-9.38943E-03 3.16129E-04 1.65936E-04
 -1      5680-6.60864E-03 2.11863E-04 5.31733E-03
 -1      5681-9.20306E-03 1.37459E-04 2.02260E-03
 -1      5682-9.08549E-03 1.69110E-04 1.67550E-03
 -1      5683-9.05348E-03 1.23700E-04 2.41581E-03
 -1      5684-8.92689E-03 1.52617E-04 2.04219E-03
 -1      5685-9.26090E-03 1.20241E-04 1.74306E-03
 -1      5686-1.31311E-03 2.89744E-04 2.63891E-03
 -1      5687-9.37258E-03-9.82610E-06 4.83726E-03
 -1      5688-8.66696E-03-4.93981E-06 5.31377E-03
 -1      5689-4.86591E-04-2.23358E-04 1.84830E-04
 -1      5690-4.29737E-04-1.93552E-04 1.38739E-04
 -1      5691-7.94997E-03-1.85121E-04 6.68522E-03
 -1      5692-7.54261E-03-2.51031E-04 7.08112E-03
 -1      5693-7.42132E-04-2.56850E-04 6.69751E-04
 -1      5694-5.81240E-04-2.03914E-04 7.65980E-04
 -1      5695-4.78301E-04-1.96443E-04 3.86051E-04
 -1      5696-9.10252E-03-3.55562E-04 3.83012E-04
 -1      5697-3.56159E-03 6.34966E-04 8.69096E-03
 -1      5698-3.96904E-03 6.24078E-04 8.94047E-03
 -1      5699-4.72860E-03 5.40023E-04 8.82759E-03
 -1      5700-4.79552E-03 5.27356E-04 9.25224E-03
 -1      5701-9.40715E-03 1.03190E-04 7.62434E-04
 -1      5702-9.47212E-03 5.74033E-05 6.45248E-04
 -1      5703-9.37824E-03 6.65801E-05 8.93880E-04
 -1      5704-9.90870E-03 1.74889E-05 1.12928E-05
 -1      5705-9.90986E-03 2.08119E-05 4.99708E-05
 -1      5706-9.98444E-03 4.82570E-06-1.57016E-05
 -1      5707-9.93730E-03 9.38556E-06 2.97587E-06
 -1      5708-9.95486E-03 1.08247E-05 4.29164E-05
 -1      5709-9.79829E-03 2.31908E-05 1.25665E-04
 -1      5710-8.84231E-04 1.01209E-04 4.17513E-03
 -1      5711-7.83663E-03-3.17053E-04 6.76863E-03
 -1      5712-7.56369E-03-2.93861E-04 7.03590E-03
 -1      5713-1.44933E-03-2.32939E-04 1.11059E-03
 -1      5714-4.40133E-03-4.56785E-04 8.39775E-03
 -1      5715-5.69178E-03-1.55731E-06 8.40320E-03
 -1      5716-9.84007E-03 7.74098E-05 1.30921E-05
 -1      5717-9.88560E-03 6.71700E-05 2.86347E-06
 -1      5718-4.37058E-04 1.21794E-04 1.97235E-03
 -1      5719-3.94380E-04 1.01092E-04 1.92752E-03
 -1      5720-6.45074E-03 1.29973E-04 5.87094E-03
 -1      5721-7.21853E-03 1.61888E-04 3.74958E-03
 -1      5722-8.11942E-03 1.24145E-04 3.38100E-03
 -1      5723-7.74975E-03 8.92413E-05 3.74154E-03
 -1      5724-9.84133E-03 3.04163E-06 5.28144E-04
 -1      5725-9.48962E-03 7.04282E-06 7.73090E-04
 -1      5726-9.75252E-03-1.46358E-05 6.46190E-04
 -1      5727-9.88564E-03-1.37443E-05 3.72630E-04
 -1      5728-9.57797E-03-2.26025E-05 5.89396E-04
 -1      5729-9.68032E-03 7.89192E-07 4.74677E-04
 -1      5730-1.91543E-03-1.95930E-04 2.02573E-03
 -1      5731-2.13859E-03-2.59524E-04 2.11504E-03
 -1      5732-1.70266E-03 3.01855E-04 1.68492E-03
 -1      5733-1.35291E-03 2.26210E-04 1.72653E-03
 -1      5734-2.02544E-03 2.87902E-04 1.99807E-03
 -1      5735-1.80589E-03 2.67747E-04 1.62109E-03
 -1      5736-1.47782E-03 2.02053E-04 1.64641E-03
 -1      5737-1.21739E-03 1.70008E-06 2.81357E-03
 -1      5738-4.73649E-04-8.96686E-06 2.68629E-03
 -1      5739-9.95947E-04-1.13171E-05 3.23386E-03
 -1      5740-9.53098E-03-9.16681E-06 3.48916E-03
 -1      5741-8.74970E-03-2.39430E-05 3.31886E-03
 -1      5742-9.56367E-03-1.85094E-05 3.07866E-03
 -1      5743-6.53686E-03-1.59825E-04 6.34640E-03
 -1      5744-7.06884E-03-1.44039E-04 6.71431E-03
 -1      5745-6.16756E-03-1.12716E-04 6.90104E-03
 -1      5746-6.37845E-03-1.10175E-04 5.78565E-03
 -1      5747-6.90139E-03-9.91329E-05 6.14163E-03
 -1      5748-7.25224E-03-1.38466E-04 5.61262E-03
 -1      5749-6.55902E-04 1.27575E-05 1.11601E-03
 -1      5750-2.76025E-04 1.77244E-05 1.18765E-03
 -1      5751-7.79557E-03 2.08542E-04 2.40630E-03
 -1      5752-8.40973E-03 1.39371E-04 2.44729E-03
 -1      5753-7.80062E-03 1.55325E-04 2.42950E-03
 -1      5754-2.37641E-04-2.14856E-05 2.60335E-04
 -1      5755-1.31368E-03 1.82150E-06 2.35130E-03
 -1      5756-1.36245E-03 1.84635E-06 1.93676E-03
 -1      5757-1.24083E-03 5.22833E-05 2.21925E-03
 -1      5758-8.27061E-03 5.97154E-05 1.57827E-03
 -1      5759-8.09682E-03 8.67174E-05 1.85704E-03
 -1      5760-8.73237E-03 5.70916E-05 1.61647E-03
 -1      5761-5.05172E-03 5.66951E-04 9.93139E-03
 -1      5762-4.98866E-03 6.34663E-04 9.87136E-03
 -1      5763-9.71055E-03-6.97751E-06 8.51191E-04
 -1      5764-9.80831E-03 1.11209E-05 7.15212E-04
 -1      5765-1.96545E-03-1.66845E-04 1.87561E-03
 -1      5766-1.57729E-04 7.68727E-05 1.22416E-05
 -1      5767-1.54259E-04 6.49194E-05 2.01030E-05
 -1      5768-7.62365E-05 4.60874E-05-2.09130E-05
 -1      5769-7.36884E-05 3.84549E-05-1.46506E-05
 -1      5770-2.23426E-04 1.05277E-04 4.80404E-05
 -1      5771-9.92538E-03 3.87257E-05-1.44058E-05
 -1      5772-9.92241E-03 4.64804E-05-2.12666E-05
 -1      5773-7.10447E-03-7.02507E-05 6.56651E-03
 -1      5774-6.17439E-03-5.39997E-05 6.91001E-03
 -1      5775-9.33288E-03 9.39083E-05 3.52595E-03
 -1      5776-8.54154E-03 1.32755E-04 3.32826E-03
 -1      5777-9.47967E-03 8.83030E-05 2.98204E-03
 -1      5778-8.75243E-03 1.32421E-04 2.80057E-03
 -1      5779-9.86272E-03-7.35061E-07 4.41881E-05
 -1      5780-9.78084E-03-4.20860E-06 9.82650E-05
 -1      5781-9.87523E-03-8.86529E-06 3.00920E-05
 -1      5782-9.85664E-03-1.37137E-05 5.08790E-05
 -1      5783-9.76107E-03-2.55983E-05 1.04620E-04
 -1      5784-9.72502E-03-1.18366E-05 1.23007E-04
 -1      5785-7.79099E-03 3.71984E-04 4.65551E-03
 -1      5786-8.10742E-03 2.99154E-04 4.67762E-03
 -1      5787-3.06599E-03 3.64700E-04 4.58300E-03
 -1      5788-3.32714E-03 3.90158E-04 5.21958E-03
 -1      5789-2.40918E-03 3.50554E-04 4.53828E-03
 -1      5790-2.65542E-03 3.10227E-04 4.95983E-03
 -1      5791-8.48742E-03-1.81407E-04 2.17554E-03
 -1      5792-8.41755E-03-1.49392E-04 2.74140E-03
 -1      5793-5.05050E-03-5.67592E-04 9.93653E-03
 -1      5794-5.08587E-03-5.97911E-04 9.84320E-03
 -1      5795-4.99286E-03-6.33646E-04 9.87120E-03
 -1      5796-4.94637E-03-5.08511E-04 9.85059E-03
 -1      5797-2.95534E-03 1.98340E-05 5.41902E-03
 -1      5798-8.61455E-03 2.85911E-04 1.14601E-03
 -1      5799-8.48017E-03 2.55782E-04 1.23803E-03
 -1      5800-9.42275E-04-2.73522E-04 1.19926E-03
 -1      5801-1.02772E-03-2.64973E-04 1.75151E-03
 -1      5802-8.69652E-03-8.69312E-05 6.51201E-03
 -1      5803-8.02186E-03-1.19737E-04 6.00027E-03
 -1      5804-8.05695E-03-1.40774E-04 6.64607E-03
 -1      5805-8.86509E-03-1.16054E-04 6.20044E-03
 -1      5806-8.20731E-03-1.54993E-04 5.70316E-03
 -1      5807-8.77612E-03-1.02482E-04 5.57082E-03
 -1      5808-8.69485E-03 2.39014E-04 2.70169E-03
 -1      5809-9.49488E-03 1.23864E-04 2.69235E-03
 -1      5810-8.94980E-03 2.08271E-04 2.99652E-03
 -1      5811-1.62680E-03 1.82397E-04 1.39900E-03
 -1      5812-1.13891E-03 1.36871E-04 1.13036E-03
 -1      5813-1.21719E-03 1.41554E-04 1.48485E-03
 -1      5814-9.67726E-03 9.57937E-05 1.52479E-03
 -1      5815-3.48151E-04-3.47986E-05 1.85625E-03
 -1      5816-8.87278E-04-5.70341E-05 1.66554E-03
 -1      5817-5.86929E-04-4.98580E-05 1.42123E-03
 -1      5818-9.63337E-03-9.16327E-05 1.64031E-03
 -1      5819-9.56036E-03-9.69142E-05 2.22050E-03
 -1      5820-9.60172E-03-1.11762E-04 1.85706E-03
 -1      5821-4.34482E-03 2.32430E-04 8.45331E-03
 -1      5822-4.37472E-03 1.68729E-04 8.55099E-03
 -1      5823-8.15583E-03 2.65622E-04 2.00343E-03
 -1      5824-7.99671E-03 2.94285E-04 2.31465E-03
 -1      5825-7.83063E-03 3.55596E-04 2.10536E-03
 -1      5826-9.94186E-03 2.06249E-05 1.18138E-05
 -1      5827-9.94589E-03 1.55109E-05-8.51701E-06
 -1      5828-9.80323E-03 4.66330E-05 8.32430E-05
 -1      5829-2.89873E-04-3.75297E-05 1.28496E-04
 -1      5830-7.56329E-03 2.47474E-04 2.80517E-03
 -1      5831-7.39396E-03 2.21594E-04 3.20482E-03
 -1      5832-8.23476E-03 1.69008E-04 2.85741E-03
 -1      5833-2.11567E-05-1.04537E-05-2.34142E-05
 -1      5834-6.91447E-05-2.39778E-05-6.93247E-06
 -1      5835-9.90576E-03-4.11173E-06 1.38057E-05
 -1      5836-9.89264E-03 2.33790E-06 2.17446E-05
 -1      5837-9.22197E-03 4.37479E-05 4.63300E-04
 -1      5838-9.43673E-03 2.83616E-05 4.09195E-04
 -1      5839-6.12373E-03 5.23976E-04 6.13630E-03
 -1      5840-6.34471E-03 5.29210E-04 5.42137E-03
 -1      5841-6.45507E-03 4.35096E-04 6.25340E-03
 -1      5842-6.99583E-03 4.39963E-04 6.13161E-03
 -1      5843-9.83401E-03-3.88140E-05 5.08790E-04
 -1      5844-9.55711E-03-6.46567E-05 4.52556E-04
 -1      5845-9.62530E-03-7.75810E-05 4.73158E-04
 -1      5846-8.75357E-03 1.36975E-04 1.73268E-03
 -1      5847-8.93466E-03 1.56174E-04 1.68899E-03
 -1      5848-8.99859E-03 1.39714E-04 1.21990E-03
 -1      5849-9.46185E-03 1.62049E-04 3.03377E-04
 -1      5850-9.05186E-03 2.50741E-04 5.27523E-04
 -1      5851-9.16559E-03 2.39795E-04 5.11341E-04
 -1      5852-1.13564E-03-3.40232E-04 6.13351E-04
 -1      5853-1.39749E-03-4.60827E-04 7.49962E-04
 -1      5854-1.41715E-03-4.00666E-04 8.98412E-04
 -1      5855-3.28373E-04-4.77488E-05 4.49150E-04
 -1      5856-8.41691E-03 1.17528E-04 1.34205E-03
 -1      5857-8.78452E-03 7.09894E-05 1.27061E-03
 -1      5858-8.73548E-03 1.39991E-04 1.31009E-03
 -1      5859-8.88523E-03 2.51835E-04 7.03582E-04
 -1      5860-1.02731E-03-7.81267E-05 3.73673E-03
 -1      5861-8.03111E-04-5.11819E-05 2.06318E-03
 -1      5862-9.90416E-03 9.37231E-06 1.38743E-05
 -1      5863-2.09049E-03 1.55850E-04 4.74354E-03
 -1      5864-1.84730E-03 1.24718E-04 5.27070E-03
 -1      5865-1.83045E-03 9.75177E-05 4.41201E-03
 -1      5866-1.35753E-03-3.82371E-05 1.08798E-03
 -1      5867-1.19313E-03-2.22900E-05 1.23601E-03
 -1      5868-2.41990E-04-8.23841E-05 4.33260E-04
 -1      5869-9.67112E-03 1.68777E-04 6.27557E-05
 -1      5870-9.78253E-03 1.35162E-04-1.65326E-05
 -1      5871-9.70642E-03 1.62615E-04 2.89176E-05
 -1      5872-3.18007E-03 4.08919E-04 4.73979E-03
 -1      5873-9.62647E-03 3.44322E-05 2.02693E-03
 -1      5874-9.70903E-03 3.27954E-05 1.48728E-03
 -1      5875-4.16838E-04 1.93998E-04 1.30791E-04
 -1      5876-3.24806E-04 1.67273E-04 6.11572E-05
 -1      5877-2.16108E-04 1.35529E-04-1.69489E-05
 -1      5878-2.92035E-04 1.62303E-04 2.73992E-05
 -1      5879-9.74414E-03 2.34516E-05 1.22446E-03
 -1      5880-8.36038E-03-2.13701E-04 1.85955E-03
 -1      5881-9.67207E-03-1.68445E-04 6.23689E-05
 -1      5882-9.70641E-03-1.62343E-04 2.85653E-05
 -1      5883-9.78224E-03-1.35198E-04-1.69605E-05
 -1      5884-9.77271E-03-1.06633E-04 5.06107E-05
 -1      5885-8.57743E-03 1.33334E-06 4.12710E-03
 -1      5886-9.63863E-04 1.91186E-04 6.37379E-04
 -1      5887-1.11627E-03 1.83962E-04 8.31357E-04
 -1      5888-9.38492E-04 1.65745E-04 5.60170E-04
 -1      5889-1.10879E-03 1.60514E-04 7.31434E-04
 -1      5890-7.39157E-04 1.37299E-04 5.66783E-04
 -1      5891-3.49829E-03 4.20878E-04 5.73526E-03
 -1      5892-2.33378E-03 3.09282E-04 5.22514E-03
 -1      5893-2.79493E-03 3.75782E-04 5.84817E-03
 -1      5894-1.89124E-03 5.60028E-05 5.46303E-03
 -1      5895-8.77026E-04 4.03345E-05 5.79732E-03
 -1      5896-1.65517E-03 1.68323E-05 5.77732E-03
 -1      5897-9.68731E-03-1.88555E-04 2.35766E-05
 -1      5898-2.16681E-04-1.34729E-04-1.68647E-05
 -1      5899-3.27158E-04-1.67931E-04 6.20797E-05
 -1      5900-4.04804E-04-2.03839E-04 9.72898E-05
 -1      5901-2.83638E-04-1.35357E-04 9.35544E-05
 -1      5902-5.57824E-04-1.33376E-04 1.51564E-03
 -1      5903-3.90215E-04-1.21103E-04 1.18654E-03
 -1      5904-9.68558E-03 1.89159E-04 2.38701E-05
 -1      5905-3.35571E-04 1.96830E-04 3.31565E-05
 -1      5906-4.45937E-04 2.32288E-04 8.65593E-05
 -1      5907-3.53365E-04 1.53498E-04 1.08128E-04
 -1      5908-1.04684E-04 4.21286E-05 1.45571E-05
 -1      5909-1.05637E-04 5.04630E-05 1.20974E-05
 -1      5910-3.20173E-04 1.15849E-04 1.13562E-04
 -1      5911-9.50644E-03 2.17298E-04 2.23046E-04
 -1      5912-9.87557E-04 2.16944E-04 1.66995E-03
 -1      5913-1.02398E-03 2.67712E-04 1.64455E-03
 -1      5914-1.32723E-03 2.69448E-04 1.98645E-03
 -1      5915-1.16912E-03-2.87461E-04 1.55556E-03
 -1      5916-2.07878E-03-9.31100E-05 6.84023E-03
 -1      5917-2.05710E-03-1.90403E-05 6.82672E-03
 -1      5918-1.37584E-03-3.20709E-05 6.32637E-03
 -1      5919-9.17720E-03 3.13263E-04 4.32523E-04
 -1      5920-9.01439E-03 3.38888E-04 6.50178E-04
 -1      5921-9.36474E-03 2.35536E-04 5.60529E-04
 -1      5922-9.09701E-03 2.65232E-04 8.76481E-04
 -1      5923-9.23540E-03 2.47100E-04 6.20139E-04
 -1      5924-6.85636E-03-4.41082E-04 7.93514E-03
 -1      5925-5.71965E-04-3.34020E-06 1.32546E-03
 -1      5926-7.73121E-03 2.72558E-04 2.43334E-03
 -1      5927-8.37111E-03 2.25368E-04 2.39818E-03
 -1      5928-7.55290E-03 3.03052E-04 2.77630E-03
 -1      5929-8.83598E-03-9.78088E-05 2.59609E-03
 -1      5930-9.52764E-03-5.39304E-05 2.75474E-03
 -1      5931-9.08297E-03-5.23150E-05 2.52396E-03
 -1      5932-9.93404E-03-5.34384E-06 1.07100E-06
 -1      5933-9.93862E-03 9.22961E-08 3.99047E-06
 -1      5934-9.90446E-03 2.91893E-06 1.40081E-05
 -1      5935-9.83819E-03-2.62708E-06 9.88601E-05
 -1      5936-8.18561E-03 3.43329E-04 1.50639E-03
 -1      5937-1.44804E-04 2.24083E-05 7.89029E-05
 -1      5938-1.45444E-04 3.15748E-05 7.79816E-05
 -1      5939-3.63413E-04 8.36908E-05 1.72165E-04
 -1      5940-1.70485E-04 3.41354E-05 5.83374E-05
 -1      5941-3.63603E-04 6.37202E-05 1.77730E-04
 -1      5942-7.42715E-03-8.76904E-05 3.22955E-03
 -1      5943-8.26212E-03-5.86552E-05 2.93452E-03
 -1      5944-7.68559E-03-3.47683E-05 3.26440E-03
 -1      5945-7.53508E-03-4.74198E-05 2.91528E-03
 -1      5946-8.32911E-03-2.80229E-05 2.62882E-03
 -1      5947-1.60353E-03 3.94715E-05 1.43209E-03
 -1      5948-6.97755E-03 5.32312E-04 3.67118E-03
 -1      5949-7.53493E-03 4.33782E-04 3.78220E-03
 -1      5950-6.01737E-03 6.22292E-04 8.95360E-03
 -1      5951-5.28172E-03 5.25915E-04 8.81796E-03
 -1      5952-5.68324E-03 4.89916E-04 8.22432E-03
 -1      5953-5.91641E-03 5.53395E-04 8.32472E-03
 -1      5954-6.55238E-03 5.12936E-04 8.37669E-03
 -1      5955-3.35671E-04-1.48537E-04 9.67515E-05
 -1      5956-5.36787E-04-1.85362E-04 2.57222E-04
 -1      5957-7.46684E-03-1.09108E-04 6.02734E-03
 -1      5958-7.28309E-03-6.82440E-05 5.47916E-03
 -1      5959-9.86570E-03 4.99592E-05 6.77935E-05
 -1      5960-9.82153E-03 5.24526E-05 6.28311E-05
 -1      5961-5.69654E-04 1.30358E-04 2.96145E-03
 -1      5962-1.17409E-03 2.01674E-04 3.45802E-03
 -1      5963-7.17806E-03 4.06788E-04 3.68746E-03
 -1      5964-2.42258E-04-1.16487E-04 5.51817E-04
 -1      5965-9.65155E-03-3.12767E-05 1.78910E-04
 -1      5966-9.67168E-03-4.60821E-06 1.63631E-04
 -1      5967-9.48142E-03-3.30873E-05 2.78564E-04
 -1      5968-9.56925E-03-4.11930E-05 2.31717E-04
 -1      5969-9.31015E-03 2.38793E-04 4.30666E-04
 -1      5970-9.51858E-03 7.76943E-05 2.61695E-03
 -1      5971-2.41153E-03 1.06253E-04 2.85920E-03
 -1      5972-2.58434E-03 1.34365E-04 3.23524E-03
 -1      5973-2.47674E-03 1.55546E-05 2.92471E-03
 -1      5974-2.65134E-03 4.29201E-05 3.30986E-03
 -1      5975-2.08466E-03 5.74630E-05 3.03918E-03
 -1      5976-8.15792E-03 2.60370E-04 3.94716E-03
 -1      5977-8.32777E-03 3.17127E-04 3.07740E-03
 -1      5978-8.03044E-03 3.69384E-04 3.47696E-03
 -1      5979-9.25971E-03-1.82479E-04 6.14747E-04
 -1      5980-9.49666E-03-1.68093E-04 3.28534E-04
 -1      5981-9.21827E-03-2.44373E-04 5.37716E-04
 -1      5982-9.12338E-03-2.32034E-04 5.71119E-04
 -1      5983-7.51143E-03 4.03694E-04 2.77656E-03
 -1      5984-8.05919E-03 2.97468E-04 2.54000E-03
 -1      5985-7.24727E-04-4.75393E-07 6.88118E-04
 -1      5986-8.09924E-04 4.00518E-05 9.12653E-04
 -1      5987-9.27650E-04 9.49215E-06 1.08737E-03
 -1      5988-1.01904E-04-3.92772E-05 1.25980E-05
 -1      5989-2.24705E-04-6.80437E-05 7.69276E-05
 -1      5990-3.09715E-04-1.08645E-04 1.11528E-04
 -1      5991-9.17984E-03 3.73251E-04 2.64341E-04
 -1      5992-5.40036E-04 1.95683E-04 2.59888E-04
 -1      5993-5.68854E-04 2.11152E-04 3.26081E-04
 -1      5994-2.75759E-03 9.35042E-05 4.75679E-03
 -1      5995-1.77307E-03 8.21420E-05 3.02317E-03
 -1      5996-2.32994E-03 7.63851E-05 3.28795E-03
 -1      5997-1.83425E-03 1.21687E-05 3.08848E-03
 -1      5998-6.57443E-03-7.82477E-05 6.20280E-03
 -1      5999-1.49523E-03 8.34524E-05 5.45293E-03
 -1      6000-9.12024E-03 1.59256E-04 1.20557E-03
 -1      6001-8.90610E-03 2.17032E-04 1.47975E-03
 -1      6002-3.47916E-04-1.26846E-04 1.70560E-03
 -1      6003-4.21916E-04-1.30478E-04 1.94889E-03
 -1      6004-9.22132E-03-1.14162E-04 4.87706E-04
 -1      6005-8.98042E-03-1.69871E-04 6.53853E-04
 -1      6006-1.19751E-03-4.36682E-04 5.48894E-04
 -1      6007-8.58285E-03-9.25237E-05 3.75494E-03
 -1      6008-8.36900E-03-6.63512E-05 3.53150E-03
 -1      6009-7.87944E-03-8.08444E-05 4.32042E-03
 -1      6010-7.73350E-03-1.29045E-04 4.28729E-03
 -1      6011-7.52887E-03-9.15896E-05 4.05728E-03
 -1      6012-8.23562E-03-1.08915E-04 3.49904E-03
 -1      6013-3.06382E-03-4.02799E-04 4.16140E-03
 -1      6014-2.66494E-03-3.18506E-04 4.03781E-03
 -1      6015-3.20100E-03-3.41470E-04 4.47138E-03
 -1      6016-2.23214E-03-2.45833E-04 4.26881E-03
 -1      6017-2.63108E-03-3.18973E-04 4.39632E-03
 -1      6018-1.43790E-03-5.53608E-05 2.04779E-03
 -1      6019-2.10876E-03-4.69932E-05 2.24895E-03
 -1      6020-1.71552E-03-2.08168E-05 1.89127E-03
 -1      6021-1.34381E-03-6.74543E-05 1.70694E-03
 -1      6022-1.95950E-03-6.27442E-05 1.90269E-03
 -1      6023-1.70130E-03-9.76298E-05 2.04289E-03
 -1      6024-5.74589E-04 6.42555E-05 2.69620E-03
 -1      6025-9.38083E-03-3.18560E-04 1.69586E-04
 -1      6026-1.45834E-03-2.47257E-04 4.03919E-03
 -1      6027-7.44778E-04-1.54257E-04 4.08320E-03
 -1      6028-5.62553E-04-1.19782E-04 4.12954E-03
 -1      6029-1.39867E-03-2.04308E-04 4.74292E-03
 -1      6030-1.27365E-03-1.97004E-04 4.08497E-03
 -1      6031-9.92088E-03 3.01921E-05-3.69443E-06
 -1      6032-9.76609E-03 8.34290E-05 8.20068E-05
 -1      6033-9.75656E-03 6.88649E-05 8.91203E-05
 -1      6034-2.22992E-03 9.80079E-05 5.29112E-03
 -1      6035-9.84791E-03-2.60097E-05 6.60704E-05
 -1      6036-9.90665E-03-1.44712E-05 1.10231E-04
 -1      6037-9.77676E-03-1.87627E-05 1.89740E-04
 -1      6038-9.93878E-03 4.66184E-06 2.82437E-06
 -1      6039-1.10824E-03 3.51624E-05 1.76819E-03
 -1      6040-9.53789E-03-7.26445E-05 2.60760E-03
 -1      6041-8.86211E-03-1.30625E-04 2.45093E-03
 -1      6042-9.57011E-03-7.99276E-05 2.23706E-03
 -1      6043-9.85987E-03-5.14566E-05 7.10830E-05
 -1      6044-9.83072E-03-4.98708E-05 5.88148E-05
 -1      6045-6.42099E-03 6.33734E-04 8.69273E-03
 -1      6046-6.32022E-03 5.49800E-04 8.01001E-03
 -1      6047-2.95850E-04-1.21610E-04 1.09707E-03
 -1      6048-6.52300E-04-2.10126E-04 1.03048E-03
 -1      6049-2.64759E-03-2.27929E-05 3.74142E-03
 -1      6050-2.79503E-03 5.73204E-05 3.75579E-03
 -1      6051-6.53008E-03-2.13774E-04 6.32662E-03
 -1      6052-6.14844E-03-2.76457E-04 6.72522E-03
 -1      6053-7.54277E-03 1.81874E-04 4.30283E-03
 -1      6054-8.14270E-03 1.48591E-04 3.89862E-03
 -1      6055-7.82008E-03 1.84531E-04 3.39310E-03
 -1      6056-2.01547E-03 2.76971E-05 2.12885E-03
 -1      6057-1.72658E-03-1.79039E-05 2.29646E-03
 -1      6058-9.53718E-03 5.72897E-05 1.61322E-03
 -1      6059-9.13635E-03 7.50812E-05 1.80309E-03
 -1      6060-9.29470E-03 7.08025E-05 1.29796E-03
 -1      6061-1.55896E-03 3.20410E-04 1.39446E-03
 -1      6062-1.64400E-03 2.87208E-04 1.34712E-03
 -1      6063-9.84791E-03 1.55425E-05 8.25974E-05
 -1      6064-9.86534E-03 6.84372E-06 4.50606E-05
 -1      6065-8.95571E-03-1.69152E-04 1.07498E-03
 -1      6066-8.57592E-03-2.48530E-04 1.05893E-03
 -1      6067-8.96934E-03-2.03037E-04 8.45600E-04
 -1      6068-8.82900E-03 1.10531E-04 2.46449E-03
 -1      6069-9.54627E-03 6.53996E-05 2.28967E-03
 -1      6070-9.13689E-03 2.11909E-04 2.36690E-03
 -1      6071-8.74303E-03 2.76527E-04 2.60041E-03
 -1      6072-9.03464E-03 2.15950E-04 3.12345E-03
 -1      6073-8.59186E-03 2.81301E-04 3.38701E-03
 -1      6074-8.45820E-03 2.78806E-04 2.09446E-03
 -1      6075-7.67660E-03 3.78544E-04 2.45498E-03
 -1      6076-8.27718E-03 3.41608E-04 1.87935E-03
 -1      6077-9.31686E-03 1.96184E-04 8.38034E-04
 -1      6078-1.92602E-03 6.49539E-05 3.51937E-03
 -1      6079-2.79716E-03 1.11479E-04 3.74425E-03
 -1      6080-2.26390E-03 3.72927E-05 3.53133E-03
 -1      6081-7.16485E-03 3.31487E-04 4.56967E-03
 -1      6082-6.71584E-04-2.84513E-04 2.77416E-04
 -1      6083-9.58686E-03-1.94557E-04 1.55476E-04
 -1      6084-9.65028E-03-1.41453E-04 1.74447E-04
 -1      6085-9.41065E-03-2.18563E-04 3.41443E-04
 -1      6086-8.45033E-03 1.21458E-04 6.23618E-03
 -1      6087-9.45656E-03 7.69558E-05 6.39489E-03
 -1      6088-8.67844E-03 6.16713E-05 6.48592E-03
 -1      6089-9.55595E-03 3.61053E-05 2.72504E-03
 -1      6090-8.58033E-03-8.05162E-06 6.55341E-03
 -1      6091-8.03568E-03-5.06595E-06 5.84123E-03
 -1      6092-7.96252E-03 4.87457E-05 6.09284E-03
 -1      6093-6.61607E-03 1.55604E-04 5.33491E-03
 -1      6094-1.49139E-03-1.86566E-04 4.30216E-03
 -1      6095-9.19532E-03-8.57820E-05 6.34513E-03
 -1      6096-9.35071E-03-1.07691E-04 6.06096E-03
 -1      6097-4.33084E-03-2.86301E-05 8.49139E-03
 -1      6098-4.38038E-03-9.57656E-05 8.57098E-03
 -1      6099-6.69503E-03-1.82426E-04 5.78461E-03
 -1      6100-6.54798E-03-1.37010E-04 5.25424E-03
 -1      6101-3.03879E-04 1.12538E-04 1.04606E-03
 -1      6102-6.27941E-04 1.52401E-04 1.15949E-03
 -1      6103-6.59939E-04 1.97982E-04 8.88525E-04
 -1      6104-7.89134E-03 5.87365E-05 2.28422E-03
 -1      6105-8.59409E-03 3.59456E-05 2.02714E-03
 -1      6106-8.19984E-03 7.39088E-06 2.38577E-03
 -1      6107-9.38522E-03-8.05153E-05 8.23716E-04
 -1      6108-9.79726E-03-5.02527E-05 6.89186E-04
 -1      6109-9.60206E-03-7.47277E-05 8.96939E-04
 -1      6110-9.25518E-03-7.91184E-05 1.20242E-03
 -1      6111-9.75107E-03-4.99027E-05 1.04979E-03
 -1      6112-9.50112E-03-5.39211E-05 9.56678E-04
 -1      6113-9.74166E-04 8.69182E-05 2.43588E-03
 -1      6114-9.21319E-04 5.66671E-05 2.93574E-03
 -1      6115-9.85810E-03 4.18140E-05 7.28344E-05
 -1      6116-9.61747E-03 9.46909E-05 1.85538E-04
 -1      6117-2.81051E-03-4.90022E-05 4.18074E-03
 -1      6118-3.19161E-03-5.14331E-05 4.80676E-03
 -1      6119-9.56486E-03 1.20054E-04 1.94706E-03
 -1      6120-3.72180E-03 4.37373E-06 7.07462E-03
 -1      6121-4.19024E-03 4.85015E-06 7.94285E-03
 -1      6122-2.87359E-03 2.79364E-04 3.75491E-03
 -1      6123-3.15607E-03 2.75436E-04 4.52667E-03
 -1      6124-3.02102E-03-3.13906E-04 4.02466E-03
 -1      6125-9.44960E-03 1.10855E-04 2.80352E-04
 -1      6126-9.27055E-03 9.30883E-05 4.14499E-04
 -1      6127-9.65050E-03 8.87301E-05 1.88224E-03
 -1      6128-9.51231E-03 9.44790E-05 2.58345E-03
 -1      6129-9.54022E-03 8.31104E-05 2.26185E-03
 -1      6130-8.35544E-03-3.50999E-05 3.87151E-03
 -1      6131-8.58510E-03-6.44868E-05 4.11279E-03
 -1      6132-9.00388E-03-5.05048E-05 3.35035E-03
 -1      6133-7.21433E-03 2.15183E-04 3.72357E-03
 -1      6134-1.45059E-03 3.49341E-05 1.73265E-03
 -1      6135-2.01637E-03 7.84971E-05 2.12138E-03
 -1      6136-1.75996E-03 9.23061E-05 2.17441E-03
 -1      6137-2.05690E-03-2.05215E-04 3.92402E-03
 -1      6138-2.80763E-03-2.63668E-04 3.69196E-03
 -1      6139-2.56008E-03-2.23179E-04 4.33843E-03
 -1      6140-9.58684E-03 5.51338E-05 1.96815E-03
 -1      6141-9.10447E-03 1.07224E-04 1.74383E-03
 -1      6142-9.15282E-03 7.42548E-05 2.17064E-03
 -1      6143-5.00503E-04 1.59097E-04 2.45408E-04
 -1      6144-6.31327E-03 7.94916E-05 7.04452E-03
 -1      6145-5.82750E-03 2.92234E-05 7.85218E-03
 -1      6146-9.66210E-03-9.78598E-05 1.33381E-03
 -1      6147-9.46435E-03-1.43832E-04 1.27589E-03
 -1      6148-9.72083E-03-9.60847E-05 1.01150E-03
 -1      6149-9.22714E-03-1.67135E-04 1.14334E-03
 -1      6150-9.40720E-03-1.16843E-04 1.18280E-03
 -1      6151-1.97830E-03-5.37503E-05 2.74570E-03
 -1      6152-9.20062E-03-1.17293E-04 1.27364E-03
 -1      6153-9.32276E-03-1.18251E-04 9.68932E-04
 -1      6154-9.45619E-03-8.49292E-05 1.12099E-03
 -1      6155-7.01522E-03-7.75843E-05 7.77812E-03
 -1      6156-6.78421E-03-3.22377E-05 8.13928E-03
 -1      6157-1.34912E-03-8.85360E-05 1.39978E-03
 -1      6158-1.67825E-03-2.38247E-04 4.27003E-03
 -1      6159-8.80247E-03-3.44527E-04 1.14295E-03
 -1      6160-8.84629E-03-2.75526E-04 1.17877E-03
 -1      6161-8.86788E-03-2.88397E-04 1.41490E-03
 -1      6162-8.58976E-03-3.51406E-04 1.67883E-03
 -1      6163-8.62837E-03-2.82950E-04 1.70403E-03
 -1      6164-8.56826E-03-3.38339E-04 1.42322E-03
 -1      6165-2.22460E-03-2.01033E-04 3.45567E-03
 -1      6166-9.58081E-03 6.52855E-05 1.32573E-03
 -1      6167-9.62197E-03 6.29025E-05 1.65005E-03
 -1      6168-9.84455E-03 8.94910E-05 5.70281E-05
 -1      6169-9.76024E-03 1.11773E-04 2.81449E-04
 -1      6170-9.50514E-03-1.91167E-04 2.02487E-04
 -1      6171-9.42440E-03-1.33699E-04 4.74064E-04
 -1      6172-9.63583E-03-1.17735E-04 2.27046E-04
 -1      6173-9.61319E-03-1.00623E-04 2.20662E-04
 -1      6174-8.44592E-04 1.25271E-04 8.16634E-04
 -1      6175-1.27758E-03 1.44572E-04 9.87058E-04
 -1      6176-6.01985E-03-6.21912E-04 8.95086E-03
 -1      6177-5.28091E-03-5.26052E-04 8.83000E-03
 -1      6178-5.89762E-03-5.55963E-04 8.35509E-03
 -1      6179-1.45736E-03 1.99127E-04 1.14522E-03
 -1      6180-9.93858E-03-7.10998E-06 3.47804E-05
 -1      6181-9.98684E-03-1.43506E-06-1.35925E-05
 -1      6182-9.95672E-03-2.69484E-08 4.56063E-05
 -1      6183-9.28940E-03 1.06859E-04 3.94291E-03
 -1      6184-9.46647E-03 1.02275E-04 4.39254E-03
 -1      6185-3.04087E-03-5.35420E-04 3.67627E-03
 -1      6186-2.59039E-03-4.21438E-04 3.23342E-03
 -1      6187-9.24904E-03 1.69366E-04 1.12700E-03
 -1      6188-8.80682E-03 2.63970E-04 1.20632E-03
 -1      6189-1.23232E-03-1.19113E-04 4.81016E-03
 -1      6190-9.04414E-03-6.53589E-05 4.65632E-03
 -1      6191-8.49782E-03-1.24157E-04 4.91470E-03
 -1      6192-9.48871E-03-7.02804E-05 5.03669E-03
 -1      6193-9.48200E-03-5.92232E-05 4.30460E-03
 -1      6194-8.97057E-03-1.11734E-04 4.53816E-03
 -1      6195-8.57825E-03-1.08599E-04 4.19588E-03
 -1      6196-1.30749E-03-2.54803E-04 2.43271E-03
 -1      6197-1.12114E-03-2.68362E-04 2.13152E-03
 -1      6198-1.59461E-03-3.38357E-04 2.41234E-03
 -1      6199-1.54103E-03-3.75572E-04 1.81844E-03
 -1      6200-1.28570E-03-2.86421E-04 1.84342E-03
 -1      6201-9.98708E-03-3.90170E-08-1.31567E-05
 -1      6202-1.77268E-03 1.67962E-05 1.70363E-03
 -1      6203-1.19050E-03-5.70293E-06 1.52175E-03
 -1      6204-2.65126E-03-1.12007E-05 3.31256E-03
 -1      6205-6.68629E-03-2.13790E-04 5.02395E-03
 -1      6206-3.35673E-04 8.24272E-05 5.89508E-04
 -1      6207-1.82169E-04 4.95017E-05 6.07148E-04
 -1      6208-1.59736E-04-7.71038E-05 1.32194E-05
 -1      6209-7.76592E-05-4.63917E-05-2.08015E-05
 -1      6210-9.53110E-03-3.50868E-05 2.76931E-03
 -1      6211-8.75443E-03-5.09495E-05 3.00364E-03
 -1      6212-7.78789E-05 3.69776E-05 4.47568E-05
 -1      6213-1.69039E-04 5.38441E-05 4.08181E-04
 -1      6214-7.60524E-03-2.58930E-04 2.98003E-03
 -1      6215-7.75059E-03-3.03038E-04 2.39269E-03
 -1      6216-9.47273E-03 4.94925E-05 3.80217E-03
 -1      6217-9.47024E-03 6.86883E-05 3.78040E-03
 -1      6218-8.87160E-03 6.04905E-05 3.89512E-03
 -1      6219-9.98746E-03 1.73057E-06-1.37144E-05
 -1      6220-9.95632E-03 5.48388E-06 4.44766E-05
 -1      6221-8.28304E-03 1.10409E-04 2.27034E-03
 -1      6222-9.81766E-03 9.98879E-05 1.85853E-04
 -1      6223-9.60148E-03 1.75573E-04 2.67259E-04
 -1      6224-2.19835E-03 1.15787E-04 3.45602E-03
 -1      6225-9.91245E-03 9.86840E-06 2.41665E-04
 -1      6226-9.71852E-03 8.74184E-06 2.27863E-04
 -1      6227-9.76980E-03 8.69490E-06 3.86487E-04
 -1      6228-9.88712E-03-2.10045E-06 3.74383E-04
 -1      6229-9.64394E-03-1.09653E-05 3.50701E-04
 -1      6230-9.80505E-03-2.48673E-06 2.07482E-04
 -1      6231-9.50706E-03 1.35483E-04 2.41493E-03
 -1      6232-9.59819E-03 1.29234E-04 2.52254E-03
 -1      6233-9.45642E-03 1.39247E-04 3.17214E-03
 -1      6234-8.33554E-03-8.99777E-05 5.19144E-03
 -1      6235-9.35013E-03-5.02364E-05 5.30572E-03
 -1      6236-7.78797E-03-2.31327E-04 3.50125E-03
 -1      6237-7.30200E-03-3.26907E-04 3.13463E-03
 -1      6238-7.88077E-03-2.71969E-04 2.85290E-03
 -1      6239-8.33701E-03 1.99682E-04 4.31163E-03
 -1      6240-8.85834E-03-2.17071E-04 2.32808E-03
 -1      6241-8.90383E-03-2.62440E-04 2.02355E-03
 -1      6242-8.54877E-03-3.01115E-04 2.42537E-03
 -1      6243-8.74757E-03-2.27354E-04 2.90063E-03
 -1      6244-8.79509E-03-2.71872E-04 2.56487E-03
 -1      6245-9.10468E-03-1.92976E-04 2.47613E-03
 -1      6246-1.40953E-04 4.28974E-05 7.04801E-05
 -1      6247-1.70300E-04 4.55934E-05 5.45743E-05
 -1      6248-9.90570E-03-1.00149E-05 1.25087E-05
 -1      6249-1.11965E-03 2.71492E-04 2.01301E-03
 -1      6250-1.10928E-04 6.22843E-05 4.09133E-05
 -1      6251-8.43361E-05 4.58578E-05 1.49273E-05
 -1      6252-1.32224E-04 5.98011E-05 1.51690E-05
 -1      6253-9.88604E-03-1.45657E-05 2.62294E-05
 -1      6254-9.32899E-03-1.07592E-06 5.28165E-04
 -1      6255-9.07933E-03 7.38363E-06 5.78897E-04
 -1      6256-9.26618E-03-2.68790E-05 5.14785E-04
 -1      6257-7.56522E-04 1.62542E-04 2.65820E-03
 -1      6258-4.72127E-04 1.31595E-04 2.24691E-03
 -1      6259-3.00436E-03-4.51037E-04 3.93432E-03
 -1      6260-2.56077E-03-4.38169E-04 3.82196E-03
 -1      6261-2.18401E-03 5.15624E-04 1.87357E-03
 -1      6262-1.98117E-03 5.07619E-04 1.52911E-03
 -1      6263-2.13880E-03 4.18566E-04 2.00364E-03
 -1      6264-8.99650E-03-2.59005E-04 1.65555E-03
 -1      6265-9.11245E-03-2.64754E-04 1.15564E-03
 -1      6266-9.14550E-03-2.14875E-04 1.18956E-03
 -1      6267-9.26937E-03-1.91060E-04 1.41443E-03
 -1      6268-8.87509E-03 3.52678E-04 8.87390E-04
 -1      6269-9.27479E-03 2.45479E-04 7.91326E-04
 -1      6270-6.34395E-03 4.16409E-04 7.86163E-03
 -1      6271-9.98625E-03 3.39005E-06-1.41308E-05
 -1      6272-9.44165E-03 1.19528E-04 1.13140E-03
 -1      6273-9.43702E-03 1.53750E-04 1.08763E-03
 -1      6274-9.49101E-03 1.41296E-04 8.51422E-04
 -1      6275-8.15409E-03 2.01448E-04 2.45457E-03
 -1      6276-2.70516E-03 3.16070E-04 3.30730E-03
 -1      6277-1.84386E-03 2.48101E-04 2.97701E-03
 -1      6278-1.84556E-03 4.30083E-04 1.47088E-03
 -1      6279-1.64480E-03 3.86247E-04 1.21447E-03
 -1      6280-8.84669E-03 5.76916E-05 8.57283E-04
 -1      6281-9.06225E-03 6.58894E-05 5.98788E-04
 -1      6282-9.46156E-03 1.74589E-04 2.38221E-04
 -1      6283-9.51022E-03 1.87242E-04 2.01723E-04
 -1      6284-1.70095E-04 4.85787E-06 6.06582E-05
 -1      6285-3.65515E-04 9.21061E-06 1.86423E-04
 -1      6286-1.46360E-04 8.55970E-06 8.08343E-05
 -1      6287-1.27377E-04-1.81216E-06 4.75760E-05
 -1      6288-3.23289E-04-4.60975E-06 1.70727E-04
 -1      6289-7.98664E-03 5.68816E-05 6.76444E-03
 -1      6290-8.68088E-03 2.72871E-05 6.49714E-03
 -1      6291-9.21492E-03 2.02745E-04 4.11617E-04
 -1      6292-7.82611E-03-3.09699E-04 2.68475E-03
 -1      6293-8.14186E-03-3.13230E-04 2.85221E-03
 -1      6294-7.46925E-03-3.85571E-04 2.80966E-03
 -1      6295-7.62862E-03-3.43458E-04 3.31700E-03
 -1      6296-8.00685E-03-2.72825E-04 3.18649E-03
 -1      6297-9.87748E-04-2.75279E-04 9.84675E-04
 -1      6298-2.13260E-03 2.82480E-04 4.58942E-03
 -1      6299-2.80085E-03 1.65913E-04 3.72579E-03
 -1      6300-2.69484E-03 2.50919E-04 3.34636E-03
 -1      6301-9.38000E-03-8.06517E-05 3.54982E-04
 -1      6302-9.32489E-03-5.82844E-05 3.83206E-04
 -1      6303-9.15270E-03-8.87198E-05 5.16495E-04
 -1      6304-9.49357E-03-5.73667E-05 3.38921E-04
 -1      6305-5.76921E-04 1.44679E-04 2.90100E-03
 -1      6306-8.49194E-03-9.22611E-05 2.94856E-03
 -1      6307-7.83796E-03-7.48679E-05 3.46170E-03
 -1      6308-7.70930E-03-1.25948E-04 3.43454E-03
 -1      6309-1.01202E-04-4.68029E-05 9.21116E-05
 -1      6310-2.92646E-04-7.66220E-05 2.18221E-04
 -1      6311-8.41443E-03-4.05575E-04 1.14338E-03
 -1      6312-8.42137E-03-3.47281E-04 1.38429E-03
 -1      6313-8.39092E-03-3.49094E-04 1.22426E-03
 -1      6314-8.82469E-03-2.36378E-04 1.25036E-03
 -1      6315-8.79623E-03-2.82267E-04 1.02352E-03
 -1      6316-9.66449E-03 1.05729E-04 1.98889E-04
 -1      6317-9.86325E-03 6.01402E-05 1.84222E-04
 -1      6318-1.31908E-04 7.63447E-05 7.29269E-06
 -1      6319-3.02677E-04 1.27370E-04 9.57588E-05
 -1      6320-1.70941E-03 2.12673E-04 3.43691E-03
 -1      6321-1.66795E-03 2.43479E-04 3.80910E-03
 -1      6322-1.88167E-03 2.13638E-04 4.18725E-03
 -1      6323-5.56187E-04-1.03703E-04 4.13884E-03
 -1      6324-8.41872E-03-6.62711E-05 4.69829E-03
 -1      6325-9.37389E-03-3.33834E-05 4.80492E-03
 -1      6326-8.67452E-03-4.87922E-05 5.33360E-03
 -1      6327-2.13340E-03-3.11505E-04 2.06011E-03
 -1      6328-7.20109E-03 3.09344E-04 7.34119E-03
 -1      6329-7.38329E-03 3.69919E-04 7.18170E-03
 -1      6330-6.78447E-03 3.81414E-04 8.09259E-03
 -1      6331-6.79458E-03 3.71534E-04 7.16367E-03
 -1      6332-6.65067E-03 3.05497E-04 7.32149E-03
 -1      6333-4.48468E-03 5.80146E-04 9.47993E-03
 -1      6334-4.46514E-03 6.33468E-04 9.59441E-03
 -1      6335-7.77497E-03 1.82149E-04 4.99935E-03
 -1      6336-7.63994E-03 1.92737E-04 5.94383E-03
 -1      6337-7.70340E-03 1.35373E-04 5.29916E-03
 -1      6338-9.67878E-03-3.59076E-05 4.63622E-04
 -1      6339-3.60238E-04 6.62477E-05 4.78343E-04
 -1      6340-6.32349E-04-1.52426E-04 2.98221E-03
 -1      6341-4.54517E-04-1.29421E-04 2.36351E-03
 -1      6342-7.22029E-03-1.65406E-04 4.86352E-03
 -1      6343-5.16790E-04 9.46846E-05 2.97632E-04
 -1      6344-5.21139E-04 7.11298E-05 2.74686E-04
 -1      6345-3.02360E-04 4.73226E-05 1.35319E-04
 -1      6346-2.51788E-03 3.27220E-04 2.87084E-03
 -1      6347-2.00305E-03 2.87469E-04 2.61661E-03
 -1      6348-7.00638E-04 1.24878E-04 1.48810E-03
 -1      6349-7.93276E-03 4.34258E-05 4.03920E-03
 -1      6350-7.13097E-03 8.21554E-05 3.97662E-03
 -1      6351-7.22942E-03 8.03129E-05 4.51301E-03
 -1      6352-7.59604E-03 2.69577E-05 4.85347E-03
 -1      6353-6.72081E-03 6.17509E-05 4.78625E-03
 -1      6354-7.45832E-03 2.57117E-05 4.28923E-03
 -1      6355-9.74002E-03 3.99183E-05 1.21376E-03
 -1      6356-1.02706E-04-4.66443E-05 9.81902E-06
 -1      6357-7.88333E-03-4.58244E-05 2.21705E-03
 -1      6358-8.63450E-03-4.01187E-04 1.04150E-03
 -1      6359-8.37409E-03-4.11608E-04 1.54775E-03
 -1      6360-3.57288E-04 9.31749E-05 1.63245E-03
 -1      6361-3.70220E-04 1.04087E-04 1.65317E-03
 -1      6362-3.21632E-04 1.07809E-04 1.27969E-03
 -1      6363-3.34954E-04 1.17155E-04 1.28687E-03
 -1      6364-6.80374E-04 1.58592E-04 1.47234E-03
 -1      6365-5.42074E-03 5.53907E-04 9.13435E-03
 -1      6366-6.03627E-03 6.81098E-04 9.20719E-03
 -1      6367-5.82393E-03-3.50779E-04 7.88550E-03
 -1      6368-5.96740E-03-3.67107E-04 7.27972E-03
 -1      6369-5.83129E-03-4.45857E-04 7.66143E-03
 -1      6370-6.53007E-03-3.81883E-04 7.34141E-03
 -1      6371-4.12274E-04 1.24490E-04 1.68831E-03
 -1      6372-7.31115E-04 1.91451E-04 1.49934E-03
 -1      6373-9.40039E-03-1.57755E-04 5.56727E-03
 -1      6374-8.98976E-03-1.74436E-04 5.25611E-03
 -1      6375-8.45742E-03-2.28576E-04 4.64987E-03
 -1      6376-9.40073E-03-1.45867E-04 4.81231E-03
 -1      6377-8.81457E-03-2.14021E-04 4.91889E-03
 -1      6378-3.00351E-03-3.33839E-04 7.55398E-03
 -1      6379-3.28782E-03-4.47037E-04 8.13772E-03
 -1      6380-9.35417E-03-7.62465E-05 5.04903E-04
 -1      6381-8.95743E-03-1.14146E-04 6.96076E-04
 -1      6382-9.27721E-03-5.54754E-05 5.22410E-04
 -1      6383-8.15972E-03-6.62914E-05 1.87276E-03
 -1      6384-8.75859E-04-2.93178E-05 9.85223E-04
 -1      6385-4.32735E-03 3.64788E-05 8.48042E-03
 -1      6386-4.37059E-03 1.03093E-04 8.55704E-03
 -1      6387-7.55426E-03-6.81846E-05 7.26753E-03
 -1      6388-9.92344E-03-6.49851E-05-2.94226E-05
 -1      6389-9.93913E-03-5.18262E-05-3.68853E-05
 -1      6390-9.79222E-03-1.39037E-04-1.28242E-05
 -1      6391-9.89364E-03-7.03458E-05-1.32990E-05
 -1      6392-9.75356E-03-1.63997E-04 1.32115E-05
 -1      6393-9.25063E-03 1.24023E-04 1.41414E-03
 -1      6394-7.28221E-03 1.99685E-04 7.30343E-03
 -1      6395-7.43016E-03 1.13295E-04 7.21127E-03
 -1      6396-6.88659E-03 1.93002E-04 7.96676E-03
 -1      6397-8.58095E-05 1.69605E-05 6.81244E-06
 -1      6398-5.87504E-05 1.03586E-05-3.85454E-06
 -1      6399-8.02937E-05 2.44319E-05-3.59802E-07
 -1      6400-5.45472E-05 1.61165E-05-8.55613E-06
 -1      6401-1.42745E-04 3.27903E-05 5.55236E-05
 -1      6402-8.28364E-03-3.19538E-04 1.67765E-03
 -1      6403-7.94880E-03-3.85004E-04 1.97208E-03
 -1      6404-8.10071E-03-4.17737E-04 1.64942E-03
 -1      6405-7.76929E-03 1.17441E-04 5.86545E-03
 -1      6406-5.54001E-05 1.28055E-05 2.19662E-05
 -1      6407-1.39566E-05 4.70231E-06-1.55776E-05
 -1      6408-5.00813E-05 1.97986E-05 1.27814E-05
 -1      6409-5.71282E-04 1.20960E-04 3.53296E-03
 -1      6410-6.04107E-04 1.38410E-04 3.30742E-03
 -1      6411-1.02965E-03 1.77810E-04 5.34876E-03
 -1      6412-1.02455E-03 1.54796E-04 5.36923E-03
 -1      6413-6.65789E-04 1.37463E-04 5.62633E-03
 -1      6414-6.65569E-04 1.16827E-04 5.63785E-03
 -1      6415-9.32229E-03-1.96607E-04 1.46332E-03
 -1      6416-9.39665E-03-2.00965E-04 9.90175E-04
 -1      6417-1.69614E-03 2.50737E-04 5.53401E-03
 -1      6418-1.27292E-03 2.41885E-04 6.45559E-03
 -1      6419-1.30643E-03 1.92481E-04 6.42006E-03
 -1      6420-1.33843E-03 1.99318E-04 5.80472E-03
 -1      6421-1.94234E-03-1.51627E-04 2.68583E-03
 -1      6422-9.72067E-03-4.32614E-05 1.30992E-03
 -1      6423-9.68279E-03-6.54130E-05 1.38720E-03
 -1      6424-9.74445E-03-6.62775E-05 1.06684E-03
 -1      6425-5.88325E-03 9.47969E-05 7.71740E-03
 -1      6426-9.70388E-03-3.80804E-05 1.92514E-04
 -1      6427-5.21437E-05-1.19094E-05 2.08716E-05
 -1      6428-5.56156E-05-9.47565E-06-4.89706E-06
 -1      6429-1.42938E-05-4.83283E-06-1.60743E-05
 -1      6430-5.82236E-05-2.15661E-05 2.79421E-05
 -1      6431-6.66016E-05-1.84544E-05-2.33071E-06
 -1      6432-1.56577E-04-3.21180E-05 7.31996E-05
 -1      6433-9.41772E-03-1.35993E-04 1.58304E-03
 -1      6434-9.38427E-03 1.47254E-04 4.74527E-03
 -1      6435-9.05880E-03 1.65861E-04 4.44835E-03
 -1      6436-8.46951E-03 1.96849E-04 4.77015E-03
 -1      6437-8.78316E-03 1.91296E-04 5.07239E-03
 -1      6438-8.65273E-03 3.52994E-05 1.37813E-03
 -1      6439-1.35795E-04 3.31656E-05 3.11980E-05
 -1      6440-2.31993E-04 3.87218E-05 1.04665E-04
 -1      6441-2.20639E-04 5.92342E-05 8.74582E-05
 -1      6442-3.21392E-04-5.93937E-05 1.53223E-03
 -1      6443-6.05373E-04-1.03505E-04 1.26685E-03
 -1      6444-2.90047E-04-7.94342E-05 1.18362E-03
 -1      6445-3.39076E-04-7.56056E-05 1.63144E-03
 -1      6446-6.37357E-04-1.28033E-04 1.34940E-03
 -1      6447-7.05841E-04-9.75521E-05 1.72232E-03
 -1      6448-1.11647E-03 4.57995E-05 4.43182E-03
 -1      6449-9.93007E-05-5.52382E-05 3.24106E-05
 -1      6450-7.61268E-04 1.78856E-04 6.30338E-03
 -1      6451-7.92759E-04 1.43275E-04 6.28244E-03
 -1      6452-1.35889E-03-8.24170E-05 1.08119E-03
 -1      6453-1.12452E-03-3.83009E-05 7.93800E-04
 -1      6454-5.20467E-04 9.74275E-05 2.66681E-04
 -1      6455-7.67259E-04 1.26517E-04 4.30720E-04
 -1      6456-9.84525E-03-8.81109E-06 8.37426E-05
 -1      6457-9.07855E-03 1.81242E-04 7.50529E-04
 -1      6458-9.85725E-03-4.17317E-05 7.69999E-05
 -1      6459-9.63313E-03-9.22738E-05 1.75485E-04
 -1      6460-2.83884E-04-4.96125E-05 1.26938E-03
 -1      6461-8.05453E-04-9.84438E-05 1.35291E-03
 -1      6462-5.78151E-04-6.26688E-05 1.15495E-03
 -1      6463-8.24571E-03 3.67811E-04 2.56876E-03
 -1      6464-6.25559E-04 2.69928E-04 2.41701E-04
 -1      6465-5.65551E-04 2.32207E-04 2.12178E-04
 -1      6466-9.65462E-03-1.30890E-04 5.92309E-04
 -1      6467-9.45452E-03-1.98230E-04 5.62447E-04
 -1      6468-9.75867E-03-1.15305E-04 5.60092E-04
 -1      6469-9.77950E-03-1.05795E-04 3.85462E-04
 -1      6470-9.60677E-03-1.68781E-04 3.51048E-04
 -1      6471-9.54049E-03-1.64267E-04 3.90975E-04
 -1      6472-4.78823E-03-5.20690E-04 9.25489E-03
 -1      6473-4.72488E-03-5.32108E-04 8.83988E-03
 -1      6474-4.43497E-03-5.01289E-04 8.45305E-03
 -1      6475-4.20434E-03-5.55811E-04 8.55151E-03
 -1      6476-4.54545E-03-4.97266E-04 8.92552E-03
 -1      6477-9.76935E-03 1.02404E-04 5.71848E-04
 -1      6478-9.49190E-03 1.77930E-04 5.60540E-04
 -1      6479-9.75035E-03 1.01593E-04 7.52672E-04
 -1      6480-1.13131E-04 4.01659E-05 1.77133E-04
 -1      6481-7.92481E-05 2.16392E-05 6.94188E-05
 -1      6482-7.26880E-05 3.09572E-05 5.49472E-05
 -1      6483-8.88252E-03-6.67231E-05 4.33452E-03
 -1      6484-8.21294E-03-3.81397E-04 2.51966E-03
 -1      6485-8.39368E-03-2.96111E-04 3.00731E-03
 -1      6486-7.43751E-03-2.37920E-04 3.41185E-03
 -1      6487-8.60674E-03 2.81669E-04 2.23229E-03
 -1      6488-9.83821E-03 4.66452E-05 5.37127E-04
 -1      6489-9.61562E-03 7.51102E-05 5.95781E-04
 -1      6490-9.86412E-03 4.77064E-05 3.65685E-04
 -1      6491-7.87997E-03 8.53572E-05 4.27078E-03
 -1      6492-7.05219E-03 1.35864E-04 4.20072E-03
 -1      6493-9.78940E-03 1.03188E-05 1.04219E-04
 -1      6494-9.92279E-03 6.59673E-05-2.98640E-05
 -1      6495-9.91091E-03 7.31445E-05-1.57609E-05
 -1      6496-9.75131E-03 1.64949E-04 1.32127E-05
 -1      6497-9.87185E-03 8.48972E-05 6.26314E-06
 -1      6498-9.89306E-03 7.12073E-05-1.35183E-05
 -1      6499-9.05435E-04 2.05265E-04 5.01149E-04
 -1      6500-8.75416E-03-2.62053E-04 1.96573E-03
 -1      6501-2.14075E-03 3.22635E-04 6.16336E-03
 -1      6502-9.65963E-03-1.21063E-04 1.04982E-03
 -1      6503-9.43248E-03-1.54189E-04 9.30455E-04
 -1      6504-9.08027E-03-2.60768E-04 9.47286E-04
 -1      6505-9.76632E-03-6.49927E-05 1.63839E-04
 -1      6506-9.78734E-03 1.16063E-04 1.76409E-05
 -1      6507-9.25785E-03-1.99577E-04 1.81381E-03
 -1      6508-1.57711E-03 1.67635E-04 1.71312E-03
 -1      6509-1.01907E-03 2.14923E-04 2.53703E-03
 -1      6510-1.79137E-05-8.49352E-06-2.00478E-05
 -1      6511-6.43492E-05-2.80232E-05 2.26212E-05
 -1      6512-9.78839E-03-1.16203E-04 1.74091E-05
 -1      6513-7.72614E-05-6.56010E-05-2.95547E-05
 -1      6514-6.17587E-05-5.31586E-05-3.71951E-05
 -1      6515-1.08480E-04-7.19170E-05-1.30640E-05
 -1      6516-2.10430E-04-1.40032E-04-1.25589E-05
 -1      6517-2.49801E-04-1.65661E-04 1.35916E-05
 -1      6518-8.45940E-03 2.39355E-04 4.30469E-03
 -1      6519-8.75244E-03 2.23986E-04 4.58277E-03
 -1      6520-1.78892E-03-2.99385E-04 1.56330E-03
 -1      6521-1.72123E-03-3.41043E-04 2.84655E-03
 -1      6522-2.04633E-03-3.73318E-04 3.51194E-03
 -1      6523-2.28192E-04 1.22324E-04 2.39922E-05
 -1      6524-2.99068E-04-9.45492E-05 1.13131E-03
 -1      6525-8.28004E-04-1.76774E-04 1.30036E-03
 -1      6526-4.40358E-04-5.45552E-05 3.16444E-03
 -1      6527-5.07720E-04-7.57039E-05 3.30138E-03
 -1      6528-9.36081E-04-9.42610E-05 3.08299E-03
 -1      6529-3.98385E-04-6.46589E-05 2.56000E-03
 -1      6530-8.59011E-04-6.57873E-05 2.94786E-03
 -1      6531-5.86090E-04-1.00710E-04 4.64059E-03
 -1      6532-1.15780E-03-1.33159E-04 4.32142E-03
 -1      6533-1.27745E-03-1.47186E-04 5.28823E-03
 -1      6534-1.47837E-04 1.46867E-06 8.27951E-05
 -1      6535-3.23079E-04-1.95469E-05 1.72049E-04
 -1      6536-9.51374E-03-1.62653E-06 2.60851E-04
 -1      6537-9.31681E-03-3.43480E-05 3.93030E-04
 -1      6538-9.84475E-03 3.34400E-05 5.49890E-04
 -1      6539-9.66507E-03 3.89670E-05 4.87511E-04
 -1      6540-8.39227E-03-2.91668E-04 2.35529E-03
 -1      6541-8.45745E-03-3.55952E-04 2.04670E-03
 -1      6542-8.76541E-03-1.82563E-04 2.73004E-03
 -1      6543-8.35790E-03-2.50079E-04 2.42895E-03
 -1      6544-1.40074E-03-3.69789E-04 1.47174E-03
 -1      6545-1.40707E-03-2.97973E-04 1.64459E-03
 -1      6546-4.97601E-04 1.18920E-04 3.29748E-04
 -1      6547-3.15743E-04-1.89456E-04 2.38603E-05
 -1      6548-2.12967E-04-1.16354E-04 1.76163E-05
 -1      6549-4.64119E-04-2.26634E-04 1.53272E-04
 -1      6550-5.92719E-04-3.14153E-04 1.55199E-04
 -1      6551-7.35669E-04-2.79767E-04 3.03261E-04
 -1      6552-7.98980E-03 9.65951E-05 6.76428E-03
 -1      6553-7.84623E-03 1.74176E-04 6.85280E-03
 -1      6554-6.04181E-04 1.37799E-04 4.35464E-03
 -1      6555-1.61210E-03 2.38540E-04 4.81156E-03
 -1      6556-1.18592E-03 1.95632E-04 4.01798E-03
 -1      6557-9.72780E-03 9.00134E-05 9.66539E-04
 -1      6558-9.72133E-03 1.09043E-04 9.17002E-04
 -1      6559-9.52601E-03-1.04366E-04 2.53033E-03
 -1      6560-9.26426E-03-1.50564E-04 2.52683E-03
 -1      6561-9.56955E-03-1.18181E-04 2.13925E-03
 -1      6562-1.36515E-03 7.84088E-05 1.92200E-03
 -1      6563-2.85189E-03 1.29550E-04 5.64657E-03
 -1      6564-9.71182E-03 6.26899E-05 3.10756E-04
 -1      6565-6.03774E-03-6.79367E-04 9.20236E-03
 -1      6566-5.28185E-03-5.69944E-04 9.58432E-03
 -1      6567-5.82390E-03-7.38745E-04 9.45308E-03
 -1      6568-9.90972E-03-7.54622E-05-1.62120E-05
 -1      6569-9.87190E-03-8.42002E-05 5.34851E-06
 -1      6570-6.70858E-03 2.19322E-04 5.03678E-03
 -1      6571-1.43910E-04-9.35156E-06 7.66882E-05
 -1      6572-1.25835E-04-9.78076E-06 4.78284E-05
 -1      6573-9.62824E-03-1.17346E-04 1.52094E-03
 -1      6574-9.93621E-03 3.84756E-06 1.28956E-04
 -1      6575-9.91274E-03-6.58702E-06 2.34208E-04
 -1      6576-8.25443E-03 4.08260E-04 1.69032E-03
 -1      6577-8.42352E-03 4.00647E-04 1.36280E-03
 -1      6578-8.61477E-03 3.45755E-04 1.47985E-03
 -1      6579-1.59004E-03-8.52145E-05 3.93151E-03
 -1      6580-1.74184E-03-1.44728E-04 3.92853E-03
 -1      6581-2.10214E-03 3.55809E-04 2.01070E-03
 -1      6582-1.72421E-03 2.73326E-04 2.05235E-03
 -1      6583-8.43947E-04-1.28322E-04 1.44386E-03
 -1      6584-8.12122E-03 1.98067E-04 5.08480E-03
 -1      6585-8.43326E-03-2.92039E-04 1.43316E-03
 -1      6586-8.08336E-03-2.97110E-04 1.77401E-03
 -1      6587-8.40208E-03-2.89100E-04 1.26803E-03
 -1      6588-8.51705E-03-2.46410E-04 1.57018E-03
 -1      6589-7.21034E-03-4.87792E-05 3.82270E-03
 -1      6590-8.11435E-03-2.91750E-05 3.50730E-03
 -1      6591-7.11847E-03-3.03181E-04 3.58072E-03
 -1      6592-2.81377E-03 2.12437E-04 6.23965E-03
 -1      6593-3.43538E-03 2.36201E-04 6.03444E-03
 -1      6594-8.52733E-04 1.66335E-04 1.30406E-03
 -1      6595-6.40030E-04 1.52222E-04 4.90001E-03
 -1      6596-9.17134E-03-3.74758E-04 2.69597E-04
 -1      6597-9.84006E-03 1.69346E-05 5.24509E-04
 -1      6598-9.55252E-03 1.69424E-05 4.96541E-04
 -1      6599-9.73784E-03 1.87628E-05 3.27590E-04
 -1      6600-4.47760E-03-5.77368E-04 9.47846E-03
 -1      6601-4.47210E-03-6.31213E-04 9.59920E-03
 -1      6602-1.64263E-03-1.04474E-04 3.77425E-03
 -1      6603-8.17615E-03 9.29151E-06 3.24686E-03
 -1      6604-7.30345E-03 1.34115E-06 3.55482E-03
 -1      6605-7.73995E-03 1.12849E-06 3.80155E-03
 -1      6606-6.34757E-04 1.63425E-04 5.64148E-03
 -1      6607-8.73625E-03 3.62779E-04 1.16134E-03
 -1      6608-8.56979E-03 4.20192E-04 1.06044E-03
 -1      6609-8.54970E-03 3.41696E-04 1.26618E-03
 -1      6610-1.26844E-03 2.27225E-04 5.06669E-03
 -1      6611-5.41925E-03-5.54050E-04 9.14438E-03
 -1      6612-6.42316E-03-6.33972E-04 8.69016E-03
 -1      6613-6.29997E-03-5.52892E-04 8.04245E-03
 -1      6614-8.40114E-04 2.08313E-04 1.27490E-03
 -1      6615-3.15538E-04-4.24816E-05 1.55021E-03
 -1      6616-2.49531E-04-2.68058E-05 1.35580E-03
 -1      6617-5.33831E-04 7.27073E-05 2.32405E-03
 -1      6618-9.52038E-03-1.40104E-04 4.61598E-04
 -1      6619-9.70710E-03 9.66013E-05 1.22161E-03
 -1      6620-8.83625E-03 2.73920E-04 2.18336E-03
 -1      6621-8.37990E-03 3.64899E-04 2.15730E-03
 -1      6622-9.01584E-03-1.03117E-04 2.87399E-03
 -1      6623-4.20581E-04 6.14250E-05 2.65108E-04
 -1      6624-8.42346E-04-2.66487E-04 9.16462E-04
 -1      6625-1.08175E-03-3.43060E-04 8.67614E-04
 -1      6626-4.89184E-04 6.74644E-05 2.55850E-04
 -1      6627-9.32725E-03-2.43097E-04 4.86315E-04
 -1      6628-9.49764E-03-2.13286E-04 2.88068E-04
 -1      6629-9.21426E-03 2.96592E-05 5.64161E-04
 -1      6630-9.54108E-03-1.21985E-04 2.69422E-03
 -1      6631-1.15380E-04-6.74383E-05 3.96281E-06
 -1      6632-2.71188E-04-1.13062E-04 8.05891E-05
 -1      6633-8.77656E-04 2.57233E-04 1.24105E-03
 -1      6634-9.80905E-04 2.65588E-04 1.07486E-03
 -1      6635-5.37614E-04-9.11503E-05 2.68926E-03
 -1      6636-9.18447E-04-1.15866E-04 2.49791E-03
 -1      6637-2.84351E-03-2.72386E-04 6.30964E-03
 -1      6638-3.86556E-03-2.99918E-04 6.70493E-03
 -1      6639-8.16982E-05 3.15807E-05-4.70991E-06
 -1      6640-5.74142E-04-2.52837E-05 6.01435E-04
 -1      6641-7.91926E-03-2.74414E-04 2.09128E-03
 -1      6642-8.05356E-03-2.30597E-04 1.81629E-03
 -1      6643-8.13858E-03 9.29479E-05 4.97059E-03
 -1      6644-7.67336E-03 7.89419E-05 4.91452E-03
 -1      6645-7.88271E-03 6.44625E-05 5.52319E-03
 -1      6646-8.12894E-03 4.26753E-04 2.00677E-03
 -1      6647-8.51595E-03 3.60540E-04 1.77956E-03
 -1      6648-8.37656E-03 7.67946E-05 2.00256E-03
 -1      6649-9.45602E-03 1.41658E-04 2.63540E-04
 -1      6650-9.87109E-03 3.54915E-05 3.78543E-04
 -1      6651-1.15602E-03-2.91362E-04 1.28926E-03
 -1      6652-4.36141E-04-1.71668E-05 3.19810E-03
 -1      6653-9.51021E-04-3.79371E-05 3.04524E-03
 -1      6654-8.20811E-03-4.93538E-04 1.24876E-03
 -1      6655-3.18234E-04-9.16578E-06 9.08453E-04
 -1      6656-2.33915E-04-2.66665E-05 8.68339E-04
 -1      6657-9.88620E-03-6.61657E-05 1.47234E-06
 -1      6658-9.93516E-03-3.20949E-05-1.25091E-05
 -1      6659-9.79344E-03-6.76026E-05 5.28630E-04
 -1      6660-9.57087E-03-1.10242E-04 5.81266E-04
 -1      6661-9.77180E-03-7.08564E-05 8.25867E-04
 -1      6662-9.55195E-03-8.46438E-05 7.50368E-04
 -1      6663-7.27904E-03-1.95682E-05 5.50037E-03
 -1      6664-6.37561E-03 5.60691E-06 5.81378E-03
 -1      6665-7.19046E-03 4.46087E-05 5.74956E-03
 -1      6666-7.07909E-05 4.12096E-05-2.32873E-05
 -1      6667-6.49430E-05 3.24378E-05 2.49631E-06
 -1      6668-9.84762E-04-4.08936E-04 3.66964E-04
 -1      6669-9.20548E-04-3.13604E-04 4.28437E-04
 -1      6670-9.55661E-04-1.70298E-04 1.77032E-03
 -1      6671-3.46323E-04-9.16361E-05 1.57719E-03
 -1      6672-8.95833E-03-3.26357E-04 5.32195E-04
 -1      6673-7.78894E-03 5.33201E-04 1.89723E-03
 -1      6674-7.99145E-03 5.25683E-04 1.54817E-03
 -1      6675-7.95904E-03 4.29336E-04 1.78464E-03
 -1      6676-7.91724E-03-3.25274E-04 2.04601E-03
 -1      6677-6.78773E-03 1.26472E-04 4.83952E-03
 -1      6678-7.15922E-03 6.52546E-05 5.19334E-03
 -1      6679-8.99017E-03 4.26471E-04 3.66485E-04
 -1      6680-8.96080E-03 3.71022E-04 4.78425E-04
 -1      6681-8.48400E-03 1.63076E-04 5.65623E-03
 -1      6682-8.40050E-03 2.13625E-04 5.37581E-03
 -1      6683-7.92024E-03 2.24411E-04 6.25637E-03
 -1      6684-8.05991E-03-3.67820E-04 2.45840E-03
 -1      6685-9.49425E-03-5.63178E-05 2.67184E-04
 -1      6686-9.61247E-03-5.58893E-05 2.10774E-04
 -1      6687-1.63139E-03 2.33657E-04 1.37212E-03
 -1      6688-1.46064E-03-3.30616E-05 3.22035E-03
 -1      6689-1.78094E-03 2.38817E-06 3.51582E-03
 -1      6690-1.24470E-03-1.25250E-05 3.33076E-03
 -1      6691-8.29197E-03-2.96932E-04 2.07724E-03
 -1      6692-8.02391E-03-3.18677E-04 2.54145E-03
 -1      6693-1.80342E-03 5.14995E-04 1.23248E-03
 -1      6694-1.67106E-03 4.36028E-04 1.18876E-03
 -1      6695-8.91576E-03 1.48278E-04 8.24098E-04
 -1      6696-8.87600E-03 2.03650E-04 7.49741E-04
 -1      6697-8.90641E-03 2.85118E-04 1.16084E-03
 -1      6698-9.01092E-03 2.73668E-04 1.37602E-03
 -1      6699-8.79756E-03 2.70021E-04 1.46729E-03
 -1      6700-7.26077E-03-3.05955E-04 4.86040E-03
 -1      6701-5.66610E-03 3.78583E-04 8.36368E-03
 -1      6702-2.30447E-03-3.76501E-04 2.61498E-03
 -1      6703-2.16162E-03-4.13360E-04 2.02970E-03
 -1      6704-9.86396E-03 6.09356E-05 1.42946E-05
 -1      6705-9.50233E-03-3.96869E-05 3.82567E-03
 -1      6706-9.40419E-03-4.26243E-05 4.39126E-03
 -1      6707-9.50753E-03-6.59016E-05 3.90557E-03
 -1      6708-9.01696E-03-6.38720E-05 3.77158E-03
 -1      6709-7.46429E-03 1.28330E-04 4.58083E-03
 -1      6710-9.40890E-03 2.35277E-04 3.71024E-04
 -1      6711-1.58689E-03-2.78139E-04 3.05840E-03
 -1      6712-1.43391E-03-2.24609E-04 2.67550E-03
 -1      6713-9.21778E-03 1.03225E-04 9.98238E-04
 -1      6714-9.04320E-03 8.06509E-05 1.18761E-03
 -1      6715-7.76317E-04-3.63217E-04 2.39539E-04
 -1      6716-1.57962E-03-1.44318E-04 4.86360E-03
 -1      6717-9.46260E-03-1.94873E-04 7.29950E-04
 -1      6718-9.68794E-03-1.24524E-04 7.72112E-04
 -1      6719-9.35317E-03-1.94399E-04 7.65385E-04
 -1      6720-1.24850E-03-7.51418E-05 3.31370E-03
 -1      6721-1.33635E-03-1.09703E-04 3.45956E-03
 -1      6722-1.12876E-03-9.53238E-05 2.70243E-03
 -1      6723-9.82388E-04-2.83909E-04 5.14599E-04
 -1      6724-8.29593E-03-2.14082E-04 3.04082E-03
 -1      6725-1.93840E-03 3.78866E-04 1.69315E-03
 -1      6726-9.37504E-03-1.01891E-04 6.21456E-04
 -1      6727-9.29852E-03-1.45626E-04 7.40863E-04
 -1      6728-6.16720E-03-1.71042E-04 6.88808E-03
 -1      6729-9.23485E-03 1.66728E-04 1.81120E-03
 -1      6730-1.14369E-03 3.62026E-04 6.12660E-04
 -1      6731-1.47238E-03 4.07420E-04 9.44376E-04
 -1      6732-8.83163E-03 1.07850E-04 1.50343E-03
 -1      6733-8.24481E-03 2.89871E-04 3.91344E-03
 -1      6734-4.26377E-04 5.55325E-05 2.52506E-03
 -1      6735-1.82582E-03-1.76764E-04 4.36202E-03
 -1      6736-1.99106E-03-2.14580E-04 4.72707E-03
 -1      6737-3.13757E-03 1.13370E-04 4.65313E-03
 -1      6738-3.57576E-03 1.08885E-04 5.48451E-03
 -1      6739-7.11794E-04 1.50550E-04 4.25900E-04
 -1      6740-7.81650E-04-1.52546E-04 4.58146E-03
 -1      6741-5.90042E-04-1.18385E-04 4.62135E-03
 -1      6742-5.40565E-04-6.89727E-05 3.74612E-03
 -1      6743-4.71058E-04-4.69950E-05 3.59548E-03
 -1      6744-1.47919E-03-2.98252E-04 3.19401E-03
 -1      6745-1.89797E-03-3.07422E-04 3.73987E-03
 -1      6746-5.42668E-04 6.50740E-05 4.07478E-03
 -1      6747-1.11256E-03 7.58146E-05 4.25180E-03
 -1      6748-4.45224E-04 2.05668E-04 1.74653E-04
 -1      6749-2.52335E-04 1.21722E-04 8.43186E-05
 -1      6750-1.96418E-03 1.60833E-04 5.72292E-03
 -1      6751-6.63862E-03 7.73674E-05 5.91559E-03
 -1      6752-6.54689E-03 3.42924E-05 5.28852E-03
 -1      6753-9.77059E-03-1.13275E-04 7.13211E-05
 -1      6754-5.68940E-04-1.82335E-04 3.58254E-04
 -1      6755-9.58091E-03 7.30172E-05 1.94453E-03
 -1      6756-1.20937E-03-1.14108E-04 8.70416E-04
 -1      6757-7.47353E-03 2.78890E-05 3.15113E-03
 -1      6758-7.72181E-03 3.35226E-05 2.62935E-03
 -1      6759-7.70933E-03-2.03323E-05 2.55607E-03
 -1      6760-7.99228E-03 2.16708E-06 2.88775E-03
 -1      6761-4.01324E-04-8.15363E-05 2.46990E-04
 -1      6762-4.64490E-04-7.28518E-05 4.01015E-04
 -1      6763-5.54952E-04-8.86839E-05 3.60344E-04
 -1      6764-4.32479E-04 2.40339E-04 8.20987E-05
 -1      6765-6.54361E-04 2.96943E-04 2.07645E-04
 -1      6766-8.71142E-03 2.83912E-04 1.76779E-03
 -1      6767-5.28102E-03 5.63782E-04 9.57855E-03
 -1      6768-5.82108E-03 7.40045E-04 9.45553E-03
 -1      6769-8.44186E-03 1.33996E-04 1.83039E-03
 -1      6770-8.25823E-03 1.57567E-04 1.56431E-03
 -1      6771-9.58300E-03 1.30160E-04 2.97172E-03
 -1      6772-8.98125E-03 2.18183E-04 3.61545E-03
 -1      6773-9.98589E-03-3.17731E-06-1.42115E-05
 -1      6774-9.98528E-03-4.65608E-06-1.54205E-05
 -1      6775-9.93352E-03-1.01396E-05 2.54893E-07
 -1      6776-9.93660E-03-1.26313E-05 3.29705E-05
 -1      6777-9.53111E-03 7.70421E-05 1.59160E-03
 -1      6778-9.04542E-03-1.56882E-04 4.72154E-03
 -1      6779-9.46729E-03-1.23973E-04 5.37616E-03
 -1      6780-9.49311E-03-1.08568E-04 4.83246E-03
 -1      6781-9.21365E-03-1.47303E-04 2.93325E-03
 -1      6782-9.49316E-03-1.02091E-04 2.93209E-03
 -1      6783-7.80437E-03-4.06255E-04 2.22918E-03
 -1      6784-7.77016E-03-3.46158E-04 2.30784E-03
 -1      6785-7.48912E-03-4.30836E-04 2.70988E-03
 -1      6786-9.35114E-03 1.60595E-04 5.37983E-03
 -1      6787-9.42532E-03 1.27626E-04 5.04421E-03
 -1      6788-9.79082E-03 1.39606E-04-1.26124E-05
 -1      6789-9.74075E-03 6.33304E-05 1.06090E-03
 -1      6790-8.54761E-03 3.15572E-05 1.25688E-03
 -1      6791-8.89019E-03 1.25325E-05 1.07391E-03
 -1      6792-9.68839E-04 1.51406E-04 1.23037E-03
 -1      6793-8.96300E-05-7.43482E-05-1.49236E-05
 -1      6794-1.30643E-04-8.50612E-05 7.41120E-06
 -1      6795-9.51276E-03-1.21209E-04 3.11788E-03
 -1      6796-9.60499E-03-8.48264E-05 1.95935E-03
 -1      6797-9.53058E-03-8.98504E-05 2.58650E-03
 -1      6798-9.68261E-03-1.23468E-04 1.35060E-03
 -1      6799-9.65588E-03-1.24848E-04 1.69271E-03
 -1      6800-9.58882E-03-1.25658E-04 1.82847E-03
 -1      6801-1.62062E-03-1.22452E-04 2.21597E-03
 -1      6802-2.07534E-03-1.73383E-04 2.36400E-03
 -1      6803-1.74424E-03-1.87751E-04 2.46745E-03
 -1      6804-7.13315E-03 2.82147E-05 3.98291E-03
 -1      6805-6.72200E-03 5.49821E-06 4.78947E-03
 -1      6806-5.84955E-03 4.48224E-04 7.61013E-03
 -1      6807-6.88018E-03 4.15012E-04 6.95002E-03
 -1      6808-6.28832E-03 4.14641E-04 6.90673E-03
 -1      6809-5.78964E-03 3.95360E-04 7.80643E-03
 -1      6810-9.82364E-03-6.73132E-05 3.54429E-04
 -1      6811-9.82656E-03-5.26175E-05 4.95070E-04
 -1      6812-9.47525E-03-3.13045E-05 4.21481E-03
 -1      6813-2.11100E-03-9.87693E-05 2.24053E-03
 -1      6814-1.96191E-03-1.14398E-04 1.89247E-03
 -1      6815-6.97736E-05 4.77630E-05-3.22521E-05
 -1      6816-9.11510E-05 6.06019E-05-2.20114E-05
 -1      6817-5.40360E-04 9.16267E-05 2.29897E-03
 -1      6818-3.84215E-04 8.82990E-05 1.93502E-03
 -1      6819-1.08302E-03-1.42562E-04 1.91669E-03
 -1      6820-1.05846E-03-1.81450E-04 1.49341E-03
 -1      6821-8.75749E-03 9.68962E-05 2.14903E-03
 -1      6822-8.71044E-03 5.09425E-05 2.33363E-03
 -1      6823-8.82115E-03 7.03607E-05 1.88545E-03
 -1      6824-2.97923E-03-2.39245E-04 4.16042E-03
 -1      6825-3.19590E-03-2.88521E-04 4.51812E-03
 -1      6826-3.95236E-03 6.82515E-04 9.18573E-03
 -1      6827-4.69188E-03 5.58301E-04 9.49111E-03
 -1      6828-8.93112E-03 2.70737E-04 1.79989E-03
 -1      6829-9.12040E-03 2.08028E-04 1.79239E-03
 -1      6830-1.26303E-04 4.51154E-05 3.87353E-05
 -1      6831-3.02740E-04 8.23635E-05 1.21286E-04
 -1      6832-3.19806E-04 9.35391E-05 1.51781E-04
 -1      6833-1.20335E-03-8.31558E-05 1.99203E-03
 -1      6834-1.29602E-03-8.98794E-05 2.38170E-03
 -1      6835-9.60087E-04-6.28108E-05 2.02623E-03
 -1      6836-7.27107E-04-7.74180E-05 1.97554E-03
 -1      6837-9.90412E-03-5.28464E-05 2.93878E-05
 -1      6838-9.82134E-03-7.55343E-05 1.07207E-04
 -1      6839-9.86029E-03-7.27721E-05 1.56509E-04
 -1      6840-1.38676E-03-5.10506E-05 2.47376E-03
 -1      6841-8.54140E-04-5.60022E-05 2.46420E-03
 -1      6842-9.00916E-04-1.87053E-04 1.06870E-03
 -1      6843-7.56143E-03-3.82894E-04 6.92762E-03
 -1      6844-7.74768E-03-3.75126E-04 6.29832E-03
 -1      6845-8.24296E-03-3.65524E-04 6.84835E-03
 -1      6846-8.45977E-03-2.92300E-04 6.55826E-03
 -1      6847-8.58195E-03-2.76830E-04 5.93377E-03
 -1      6848-7.96813E-03-3.07695E-04 6.01535E-03
 -1      6849-8.72576E-03 1.36336E-04 2.08538E-03
 -1      6850-8.79360E-03 1.09081E-04 1.83110E-03
 -1      6851-3.83750E-04-1.00766E-04 1.86137E-03
 -1      6852-1.03299E-04-6.11278E-05-1.32269E-05
 -1      6853-2.01847E-04-1.03588E-04 1.12860E-04
 -1      6854-8.35537E-03 1.37554E-05 2.70955E-03
 -1      6855-8.71182E-03 8.92696E-07 2.25453E-03
 -1      6856-2.05908E-04-6.65522E-05 3.41942E-04
 -1      6857-7.42434E-03 6.56562E-05 7.22257E-03
 -1      6858-6.86363E-03 2.73858E-05 8.04811E-03
 -1      6859-6.84096E-03-2.92267E-04 4.50309E-03
 -1      6860-6.73676E-03-3.79679E-04 4.72038E-03
 -1      6861-7.28172E-03-4.21071E-04 3.18622E-03
 -1      6862-7.11082E-03-3.61682E-04 3.53604E-03
 -1      6863-9.92267E-03 2.37348E-05-4.56506E-07
 -1      6864-8.08826E-03-1.42882E-04 3.92982E-03
 -1      6865-8.55147E-03-1.19788E-04 3.17769E-03
 -1      6866-7.74990E-03-1.63896E-04 3.67621E-03
 -1      6867-1.65342E-03 1.80081E-04 2.88926E-03
 -1      6868-7.82723E-04-6.12659E-05 9.33686E-04
 -1      6869-1.34585E-04 8.10027E-06 3.47209E-05
 -1      6870-2.29862E-04 1.34121E-05 1.10530E-04
 -1      6871-8.48640E-05 1.07794E-05 7.76571E-06
 -1      6872-1.05337E-04 1.29254E-05 2.43820E-05
 -1      6873-2.17055E-04 2.42930E-05 8.68006E-05
 -1      6874-1.25148E-03-2.40695E-04 1.45039E-03
 -1      6875-3.73677E-03 1.56678E-04 6.75856E-03
 -1      6876-2.82180E-03 1.44010E-04 6.36661E-03
 -1      6877-3.43257E-03 1.81924E-04 6.06097E-03
 -1      6878-3.73141E-03 2.37956E-04 6.62872E-03
 -1      6879-3.12631E-03 1.96676E-04 6.94215E-03
 -1      6880-8.30177E-04 2.09586E-04 2.18820E-03
 -1      6881-9.81149E-04 2.25844E-04 2.83993E-03
 -1      6882-1.29123E-04 1.88029E-05 4.70558E-05
 -1      6883-3.26184E-04 3.91094E-05 1.68344E-04
 -1      6884-1.34325E-04 3.84690E-07 3.55939E-05
 -1      6885-8.48958E-05 5.29874E-06 9.00360E-06
 -1      6886-1.43908E-03 8.35678E-05 1.23337E-03
 -1      6887-1.56416E-03-1.90616E-04 2.78445E-03
 -1      6888-1.63805E-03-1.60166E-04 3.39900E-03
 -1      6889-9.79825E-03-7.35256E-05 6.09896E-04
 -1      6890-8.39613E-03 2.93505E-04 4.69615E-03
 -1      6891-7.90610E-03 3.70892E-04 4.02038E-03
 -1      6892-9.91145E-03-4.31981E-05 3.60534E-05
 -1      6893-9.87880E-03-5.97524E-05-1.39554E-06
 -1      6894-1.60364E-03-7.39220E-06 1.43478E-03
 -1      6895-1.52673E-03-6.33655E-05 1.31859E-03
 -1      6896-1.78459E-03-8.58956E-05 1.61296E-03
 -1      6897-1.41306E-03-3.87098E-05 1.52770E-03
 -1      6898-9.86796E-03 3.39642E-05 1.29956E-04
 -1      6899-9.90793E-03 3.56185E-05 6.99093E-05
 -1      6900-3.59739E-04-3.77115E-05 2.24125E-03
 -1      6901-9.92930E-03-4.77948E-05-3.22696E-05
 -1      6902-9.86038E-03-9.63605E-05-4.27362E-05
 -1      6903-1.05278E-04 6.28044E-06 2.57190E-05
 -1      6904-3.42381E-04 9.04103E-05 1.29920E-03
 -1      6905-1.29083E-03-1.35297E-04 2.84431E-03
 -1      6906-9.19300E-03-2.02123E-04 2.20017E-03
 -1      6907-9.12471E-03-2.08428E-04 2.76600E-03
 -1      6908-5.96867E-03-2.34391E-04 7.20938E-03
 -1      6909-6.86854E-03-2.05127E-04 7.03398E-03
 -1      6910-1.52321E-03-2.66180E-05 2.81042E-03
 -1      6911-9.89633E-03 4.73802E-05 6.25751E-05
 -1      6912-5.40425E-04 4.49753E-05 4.09181E-03
 -1      6913-4.91100E-04 2.17793E-05 2.63637E-04
 -1      6914-9.91887E-03 5.26549E-05 6.30264E-03
 -1      6915-9.17459E-03 3.76343E-05 6.33960E-03
 -1      6916-2.08081E-03-2.24836E-04 2.33718E-03
 -1      6917-2.44887E-03-2.63078E-04 2.81588E-03
 -1      6918-5.08268E-04-1.15376E-04 2.24767E-03
 -1      6919-8.96783E-04-1.37845E-04 2.20580E-03
 -1      6920-7.93409E-04-1.59260E-04 1.99789E-03
 -1      6921-1.30186E-03-1.95442E-04 1.87276E-03
 -1      6922-8.66211E-03 1.96706E-04 1.02521E-03
 -1      6923-6.03292E-04-1.60970E-04 3.98750E-04
 -1      6924-8.92959E-03-2.75239E-04 7.68028E-04
 -1      6925-9.09671E-03-2.16395E-04 8.26926E-04
 -1      6926-1.22039E-03-6.23294E-05 2.80253E-03
 -1      6927-6.71035E-03-4.24192E-04 4.73137E-03
 -1      6928-1.47125E-03-2.68115E-04 2.19041E-03
 -1      6929-7.78743E-03-5.24372E-04 1.91381E-03
 -1      6930-7.99067E-03-5.16672E-04 1.56443E-03
 -1      6931-7.89310E-03-4.35986E-04 2.01146E-03
 -1      6932-8.21248E-03-4.17703E-04 1.90007E-03
 -1      6933-2.41461E-03 5.27982E-04 2.29584E-03
 -1      6934-8.68571E-03 3.64324E-04 7.93180E-04
 -1      6935-1.13936E-03 1.16827E-04 2.10767E-03
 -1      6936-3.90134E-03 1.90846E-04 7.33387E-03
 -1      6937-3.89629E-03 2.74108E-04 7.20006E-03
 -1      6938-9.30234E-03-2.48059E-04 6.34548E-04
 -1      6939-9.31678E-03 2.09435E-05 5.70078E-03
 -1      6940-8.64647E-03 9.53081E-05 3.56494E-03
 -1      6941-8.72230E-03 1.13218E-04 4.10398E-03
 -1      6942-8.24932E-03 1.06824E-04 4.14943E-03
 -1      6943-7.99452E-03 3.79997E-04 1.78315E-03
 -1      6944-9.06762E-03-3.21335E-04 6.35328E-04
 -1      6945-9.11149E-03-2.52303E-04 7.61890E-04
 -1      6946-1.28200E-03-2.47057E-04 4.56663E-03
 -1      6947-7.93220E-04-1.71150E-04 4.58997E-03
 -1      6948-4.85726E-04-1.44880E-04 4.45985E-03
 -1      6949-1.16707E-03-2.37758E-04 3.90298E-03
 -1      6950-7.16897E-04-1.61101E-04 3.93150E-03
 -1      6951-2.88242E-03 2.10246E-04 7.52355E-03
 -1      6952-2.89386E-03 1.36616E-04 7.65311E-03
 -1      6953-3.28140E-03 2.00289E-04 8.21784E-03
 -1      6954-3.48257E-03 1.81614E-04 7.66422E-03
 -1      6955-8.97394E-03 2.14100E-04 1.66711E-03
 -1      6956-9.28740E-03 1.68361E-04 1.39401E-03
 -1      6957-8.30849E-03 8.09353E-05 3.69428E-03
 -1      6958-2.34836E-03 1.21049E-04 7.15633E-03
 -1      6959-2.05367E-03 1.35310E-04 6.46100E-03
 -1      6960-2.34149E-03 1.87019E-04 7.02880E-03
 -1      6961-2.27286E-03 3.31311E-04 2.36450E-03
 -1      6962-2.52420E-03 2.77091E-04 2.93466E-03
 -1      6963-3.20650E-03-3.08603E-04 5.47559E-03
 -1      6964-2.60566E-03-3.20344E-04 5.52903E-03
 -1      6965-3.44215E-03-3.92691E-04 5.33971E-03
 -1      6966-3.37569E-03-3.18503E-04 4.99566E-03
 -1      6967-2.80344E-03-3.33495E-04 5.03857E-03
 -1      6968-1.85379E-03-2.94262E-04 2.44503E-03
 -1      6969-2.30809E-03-3.47699E-04 2.35255E-03
 -1      6970-1.75439E-03-3.25736E-04 1.87739E-03
 -1      6971-1.05265E-04 1.95645E-05 2.45735E-05
 -1      6972-1.40636E-03-3.40985E-04 9.56364E-04
 -1      6973-1.25419E-03-2.94838E-04 1.08469E-03
 -1      6974-1.39774E-03 1.31193E-04 6.52206E-03
 -1      6975-2.21978E-03 2.10653E-04 6.26234E-03
 -1      6976-9.48958E-03-4.05406E-05 7.61510E-04
 -1      6977-9.83903E-03-2.50906E-05 5.17872E-04
 -1      6978-9.85420E-03-6.34797E-05 2.03317E-04
 -1      6979-9.91417E-03-3.77779E-05 6.65705E-05
 -1      6980-9.87864E-03-4.01657E-05 2.33610E-05
 -1      6981-9.77269E-03-7.77007E-05 1.24419E-04
 -1      6982-1.38425E-04-9.56195E-05-4.22428E-05
 -1      6983-7.06957E-05-4.78083E-05-3.17784E-05
 -1      6984-3.56011E-03 3.31094E-05 6.49481E-03
 -1      6985-3.89454E-03 7.25603E-05 7.35717E-03
 -1      6986-3.73375E-03 9.89830E-05 6.77020E-03
 -1      6987-2.95691E-03 6.10226E-05 6.79490E-03
 -1      6988-8.51105E-03 4.70745E-05 2.92061E-03
 -1      6989-8.19210E-03 5.01372E-04 1.26091E-03
 -1      6990-8.15835E-03 4.07247E-04 1.47706E-03
 -1      6991-9.82629E-03 8.13783E-06 9.24218E-05
 -1      6992-9.65338E-03 1.26705E-05 1.74468E-04
 -1      6993-2.08080E-04 6.96074E-05 5.99973E-05
 -1      6994-9.70770E-03-2.44538E-05 8.51348E-04
 -1      6995-9.80362E-03-3.50848E-05 7.03829E-04
 -1      6996-3.46929E-03 6.67892E-05 7.68449E-03
 -1      6997-2.18494E-03 2.66279E-06 2.46054E-03
 -1      6998-2.28174E-03-7.38528E-05 2.58486E-03
 -1      6999-1.97887E-03-4.18301E-04 1.69592E-03
 -1      7000-1.46022E-03-3.10910E-04 1.39362E-03
 -1      7001-1.77933E-03-3.40213E-04 1.50620E-03
 -1      7002-2.12296E-03-3.54151E-04 1.99823E-03
 -1      7003-9.67270E-03-8.27189E-05 1.36527E-03
 -1      7004-9.73296E-03-8.22524E-05 1.04368E-03
 -1      7005-8.50817E-03 2.83714E-04 3.92426E-03
 -1      7006-1.70905E-03 4.09020E-05 3.98169E-03
 -1      7007-9.21703E-03 4.48951E-05 1.06822E-03
 -1      7008-9.77043E-03-5.69387E-05 8.78494E-05
 -1      7009-9.77411E-03-7.22495E-05 9.08700E-05
 -1      7010-9.29758E-04 1.75312E-04 1.63120E-03
 -1      7011-9.43809E-03-8.18929E-06 6.17551E-04
 -1      7012-1.78366E-04-2.67847E-05 1.25133E-04
 -1      7013-5.84302E-05-1.96879E-05 7.24546E-05
 -1      7014-1.89937E-04-4.65549E-05 1.38258E-04
 -1      7015-8.54010E-03 7.47118E-05 1.25998E-03
 -1      7016-8.26237E-03 1.06913E-04 1.57900E-03
 -1      7017-9.66866E-03-1.19277E-04 2.83995E-04
 -1      7018-1.26185E-03 2.19457E-04 1.94358E-03
 -1      7019-1.25092E-04-2.09135E-05 2.93922E-05
 -1      7020-1.25625E-04-2.88831E-05 2.68840E-05
 -1      7021-8.14962E-05-1.01320E-05 6.74158E-06
 -1      7022-8.29397E-05-1.55083E-05 5.70949E-06
 -1      7023-2.21065E-04-3.22074E-05 9.46173E-05
 -1      7024-5.78474E-05 4.31531E-06 1.12129E-04
 -1      7025-1.15388E-04 8.41697E-06 4.38448E-05
 -1      7026-1.69629E-04 9.46962E-07 1.36156E-04
 -1      7027-9.88337E-04 3.57224E-04 5.12421E-04
 -1      7028-9.45634E-04 3.17774E-04 6.60340E-04
 -1      7029-1.26879E-03 3.99756E-04 8.36331E-04
 -1      7030-7.83714E-03 4.04263E-04 2.10199E-03
 -1      7031-1.32285E-03 8.72665E-05 2.83689E-03
 -1      7032-1.89084E-03 1.29760E-05 2.61449E-03
 -1      7033-9.55084E-03 6.77726E-05 4.93125E-04
 -1      7034-9.43833E-03 6.19921E-05 4.23534E-03
 -1      7035-5.41024E-04 2.56940E-05 6.37031E-03
 -1      7036-1.38080E-03 2.49727E-06 6.32448E-03
 -1      7037-1.53718E-03 5.13672E-05 6.61835E-03
 -1      7038-6.01230E-03-8.48181E-05 7.48684E-03
 -1      7039-5.82816E-03-3.14787E-05 7.85303E-03
 -1      7040-8.88377E-03-1.49631E-04 1.54733E-03
 -1      7041-8.94768E-03-1.03255E-04 1.47023E-03
 -1      7042-8.93474E-03-3.34685E-04 8.70798E-04
 -1      7043-9.20721E-03-2.57698E-04 8.76944E-04
 -1      7044-2.80513E-03 2.61031E-04 7.40259E-03
 -1      7045-3.21211E-03 2.55523E-04 8.10159E-03
 -1      7046-9.57291E-03 1.23766E-04 1.50911E-03
 -1      7047-9.91911E-03 4.54521E-06 5.97406E-06
 -1      7048-1.88434E-03 1.44211E-04 3.40229E-03
 -1      7049-2.11567E-03 1.87095E-04 3.09375E-03
 -1      7050-1.60250E-03 4.17727E-05 2.60214E-03
 -1      7051-1.59453E-03 2.35635E-04 2.37032E-03
 -1      7052-1.19673E-03 1.75580E-04 1.92850E-03
 -1      7053-9.43300E-03-1.31758E-04 4.29900E-03
 -1      7054-9.87149E-03 2.38153E-05 1.36275E-04
 -1      7055-9.93484E-03 1.15375E-05 1.26880E-04
 -1      7056-9.87621E-03 2.34770E-05 3.87416E-04
 -1      7057-9.79329E-03 2.53323E-05 2.18505E-04
 -1      7058-3.27033E-04 2.33776E-05 1.70340E-04
 -1      7059-1.29429E-04 1.15014E-05 4.75670E-05
 -1      7060-8.80590E-03-2.53143E-04 7.91411E-04
 -1      7061-8.77581E-03-3.38906E-04 7.14474E-04
 -1      7062-8.57694E-03-2.97031E-04 1.01649E-03
 -1      7063-1.52268E-05 5.64968E-06-1.70795E-05
 -1      7064-5.32645E-05 2.42943E-05 4.42626E-06
 -1      7065-1.13546E-03-4.96185E-05 1.39797E-03
 -1      7066-4.68586E-03-5.57428E-04 9.49133E-03
 -1      7067-4.10220E-03-5.93481E-04 8.88938E-03
 -1      7068-9.85470E-03 3.13490E-05 7.84863E-05
 -1      7069-2.19327E-03 2.64560E-04 2.34292E-03
 -1      7070-1.92566E-03 2.30180E-04 2.59261E-03
 -1      7071-5.79475E-05 4.22415E-07-2.09994E-06
 -1      7072-1.83484E-04 1.22491E-06 7.97769E-05
 -1      7073-8.30274E-03 8.97212E-06 3.75694E-03
 -1      7074-7.87168E-03 3.63202E-06 4.33463E-03
 -1      7075-9.40120E-03-1.17542E-04 3.46994E-03
 -1      7076-8.60409E-03-2.04758E-04 3.24852E-03
 -1      7077-8.89920E-03-1.49582E-04 3.23480E-03
 -1      7078-8.89677E-03-1.88438E-04 3.43531E-03
 -1      7079-5.18270E-04 2.39574E-04 1.79782E-04
 -1      7080-7.82225E-04 3.00389E-04 3.21166E-04
 -1      7081-7.18378E-04 2.43915E-04 3.21153E-04
 -1      7082-5.10691E-04 1.85745E-04 2.10065E-04
 -1      7083-7.66941E-03-1.11404E-04 7.18883E-03
 -1      7084-7.67732E-03-9.09906E-05 6.53297E-03
 -1      7085-6.99756E-04 2.54741E-04 5.22812E-04
 -1      7086-7.54202E-04 2.93239E-04 3.84786E-04
 -1      7087-9.77853E-03 1.44160E-05 9.84031E-04
 -1      7088-9.92322E-03-1.50536E-05 2.65518E-06
 -1      7089-9.79041E-03-3.80830E-05 7.93634E-05
 -1      7090-1.21234E-03-2.71019E-04 2.54522E-03
 -1      7091-8.70547E-03-2.74555E-04 3.01537E-03
 -1      7092-8.07475E-03-3.83960E-04 2.96315E-03
 -1      7093-9.04459E-03-6.20383E-05 1.48896E-03
 -1      7094-2.12096E-04-1.09882E-05 1.67404E-04
 -1      7095-9.45542E-05-1.18020E-05 1.45378E-04
 -1      7096-1.57322E-03 1.35368E-04 2.76707E-03
 -1      7097-1.56062E-03 9.50035E-05 3.29297E-03
 -1      7098-6.92925E-03 1.33524E-04 7.89607E-03
 -1      7099-8.35305E-03 4.39021E-05 3.48042E-03
 -1      7100-8.98762E-03-4.28150E-04 3.66169E-04
 -1      7101-8.96277E-03-3.72479E-04 4.74080E-04
 -1      7102-4.44735E-05 6.02068E-06 5.27033E-05
 -1      7103-9.81119E-03-1.02674E-04 1.88662E-04
 -1      7104-9.78146E-03-1.11815E-04 3.51384E-04
 -1      7105-9.67273E-03-1.54555E-04 1.94773E-04
 -1      7106-9.80922E-03-9.91057E-05 2.17453E-04
 -1      7107-2.47738E-03-3.80916E-05 2.92399E-03
 -1      7108-8.94357E-03-3.20114E-04 6.98184E-04
 -1      7109-9.77734E-03 6.62469E-05 1.26857E-04
 -1      7110-3.11731E-04-6.55903E-05 3.00413E-04
 -1      7111-1.23843E-04-4.09895E-05 3.56154E-04
 -1      7112-3.19101E-03-2.64882E-05 8.15023E-03
 -1      7113-9.34397E-03-2.78521E-05 5.41125E-04
 -1      7114-9.22602E-03-4.51284E-05 8.07638E-04
 -1      7115-9.47117E-03-4.21253E-05 5.03577E-04
 -1      7116-1.62982E-05-6.40239E-06-1.73728E-05
 -1      7117-3.37094E-03-3.40774E-04 5.99625E-03
 -1      7118-3.61512E-03-4.24360E-04 5.85466E-03
 -1      7119-2.15883E-04-2.26806E-06 1.10858E-03
 -1      7120-5.85865E-04-1.68046E-05 1.03389E-03
 -1      7121-9.65714E-03-2.62423E-05 2.04813E-04
 -1      7122-7.59719E-03-1.13261E-04 2.83966E-03
 -1      7123-7.70845E-03-7.32292E-05 2.54954E-03
 -1      7124-1.26156E-04-7.54604E-05-2.36477E-05
 -1      7125-1.73783E-04-1.07537E-04-2.62959E-05
 -1      7126-3.20591E-04-1.63204E-04 9.16819E-05
 -1      7127-8.69073E-03-2.93208E-04 6.55016E-03
 -1      7128-8.87595E-03-2.41849E-04 6.27841E-03
 -1      7129-8.07175E-03 2.63839E-04 6.10046E-03
 -1      7130-6.84492E-05 1.06570E-05 6.26752E-03
 -1      7131-8.91762E-04-1.20843E-05 6.17481E-03
 -1      7132-9.04675E-03 2.05141E-04 5.66609E-04
 -1      7133-2.58847E-03 1.88503E-04 3.21341E-03
 -1      7134-9.02470E-03 6.75571E-05 1.53373E-03
 -1      7135-5.00079E-04-8.61361E-06 3.81421E-03
 -1      7136-4.69219E-04-2.76748E-05 3.61014E-03
 -1      7137-2.28250E-03 2.09355E-04 5.48343E-03
 -1      7138-8.93577E-03 1.17365E-04 6.06311E-03
 -1      7139-8.80169E-03 1.42859E-04 6.57465E-03
 -1      7140-9.30764E-03 1.28853E-04 6.42334E-03
 -1      7141-1.04187E-03-1.10039E-04 1.81020E-03
 -1      7142-1.12401E-03-1.16299E-04 2.18383E-03
 -1      7143-8.55101E-03 4.12404E-04 8.98858E-04
 -1      7144-8.78211E-03 3.81919E-04 6.58058E-04
 -1      7145-9.36310E-03 1.62121E-04 4.99025E-03
 -1      7146-9.38363E-03 1.50632E-04 4.19766E-03
 -1      7147-4.37246E-04-3.59929E-05 3.17974E-03
 -1      7148-3.93420E-04-4.74371E-05 2.58063E-03
 -1      7149-3.31737E-03 4.49134E-04 5.09811E-03
 -1      7150-3.39582E-03 4.40792E-06 5.94006E-03
 -1      7151-3.74757E-03 2.33114E-05 6.03465E-03
 -1      7152-2.97573E-03 4.46942E-05 6.05141E-03
 -1      7153-7.57837E-03-2.83365E-04 4.26423E-03
 -1      7154-7.89338E-03-2.80927E-04 4.48052E-03
 -1      7155-7.49771E-03-3.55629E-04 4.46372E-03
 -1      7156-9.46859E-03-1.05526E-04 5.40057E-03
 -1      7157-3.74770E-03 8.17930E-05 6.02670E-03
 -1      7158-9.94857E-03-1.76177E-05 1.60389E-05
 -1      7159-9.94733E-03-1.29689E-05-8.21877E-06
 -1      7160-6.18720E-04 3.18115E-04 1.70530E-04
 -1      7161-6.00934E-03-1.45931E-04 7.47832E-03
 -1      7162-5.82160E-03-2.10473E-04 7.79554E-03
 -1      7163-8.40391E-03-8.92195E-07 3.59799E-03
 -1      7164-2.17225E-04-1.81653E-05 1.10451E-03
 -1      7165-9.55529E-03 1.34433E-04 3.46022E-03
 -1      7166-9.41987E-03 1.43903E-04 3.66943E-03
 -1      7167-1.45783E-03 5.56241E-05 4.25850E-03
 -1      7168-6.62026E-03 9.98198E-05 5.34983E-03
 -1      7169-8.95643E-03-7.75205E-05 7.07995E-04
 -1      7170-9.15076E-03-5.69468E-05 5.25231E-04
 -1      7171-9.92247E-03-2.04924E-05 7.37321E-07
 -1      7172-9.88508E-03-2.23641E-05 2.65205E-05
 -1      7173-8.53079E-03-1.35408E-04 3.58087E-03
 -1      7174-8.99923E-03-8.70608E-05 3.42390E-03
 -1      7175-9.11005E-03 2.67607E-04 1.07259E-03
 -1      7176-1.76148E-03-2.03687E-04 5.20435E-03
 -1      7177-7.40039E-05-1.28821E-05 7.55816E-05
 -1      7178-7.45909E-05-2.09290E-05 1.50812E-04
 -1      7179-9.92177E-03-4.69216E-05-2.17424E-05
 -1      7180-9.65068E-04 3.04893E-04 4.87051E-04
 -1      7181-9.11608E-04 2.52547E-04 4.73395E-04
 -1      7182-9.57349E-03 8.44417E-05 1.30206E-03
 -1      7183-9.73139E-03 7.85055E-05 1.03476E-03
 -1      7184-9.31913E-03 1.09331E-04 1.13983E-03
 -1      7185-3.39047E-04 7.22379E-05 2.12912E-04
 -1      7186-1.04190E-03-2.32169E-04 2.93351E-03
 -1      7187-8.21125E-04-2.05756E-04 2.31278E-03
 -1      7188-8.95279E-03 3.40655E-05 1.28523E-03
 -1      7189-7.72937E-03-1.66977E-04 4.59853E-03
 -1      7190-7.79144E-03-1.42012E-04 5.33213E-03
 -1      7191-7.60684E-03-1.08632E-04 4.81851E-03
 -1      7192-3.25141E-03 5.36069E-04 4.20523E-03
 -1      7193-2.57401E-03 4.17554E-04 4.29234E-03
 -1      7194-3.34138E-04 9.79630E-05 1.49857E-04
 -1      7195-4.92161E-04 1.18137E-04 2.55266E-04
 -1      7196-5.51575E-05 3.24251E-05-2.81888E-05
 -1      7197-7.80267E-03 4.52971E-04 2.10395E-03
 -1      7198-9.44428E-03 1.12040E-04 4.75211E-03
 -1      7199-1.49422E-04 9.48945E-05 1.07972E-05
 -1      7200-5.01310E-04-9.90696E-05 2.29600E-03
 -1      7201-3.75462E-04-8.61252E-05 1.90636E-03
 -1      7202-9.60807E-04 2.70713E-05 1.37077E-03
 -1      7203-1.03593E-04 3.29811E-05 1.92104E-05
 -1      7204-7.43460E-04-2.42267E-05 5.52745E-03
 -1      7205-9.86107E-03 9.59187E-05-4.22397E-05
 -1      7206-9.71576E-03 4.52388E-05 2.35158E-04
 -1      7207-1.56853E-04-9.00956E-05 6.55766E-05
 -1      7208-3.99574E-04-1.81454E-04 2.23722E-04
 -1      7209-5.87448E-05 2.64755E-05-1.72756E-05
 -1      7210-6.75694E-03-5.37163E-04 4.22638E-03
 -1      7211-6.97340E-03-5.37066E-04 3.67590E-03
 -1      7212-7.61125E-03-4.13401E-04 3.72228E-03
 -1      7213-7.15166E-03-4.33764E-04 3.84314E-03
 -1      7214-7.44086E-03-4.17111E-04 4.27553E-03
 -1      7215-6.64231E-04 9.48864E-05 5.65527E-03
 -1      7216-6.35756E-04 7.93991E-05 6.38674E-03
 -1      7217-1.64124E-03 9.22091E-05 6.66655E-03
 -1      7218-8.75826E-04 6.67268E-05 5.78322E-03
 -1      7219-1.59141E-03 1.14833E-04 5.91758E-03
 -1      7220-9.82316E-03-1.78556E-06 9.63382E-05
 -1      7221-5.18753E-03 5.25344E-04 9.35811E-03
 -1      7222-1.73329E-04 1.07461E-04-2.70407E-05
 -1      7223-4.38569E-05 5.94462E-07 5.37991E-05
 -1      7224-5.15234E-04-2.00334E-04 2.08490E-04
 -1      7225-5.57871E-04-1.84687E-04 2.46416E-04
 -1      7226-4.89337E-04-1.47736E-04 2.23459E-04
 -1      7227-9.38232E-05 7.80471E-08 1.90140E-04
 -1      7228-9.91809E-03 7.14562E-05 6.28278E-03
 -1      7229-1.60799E-05 7.51562E-06-1.96789E-05
 -1      7230-5.56031E-05 2.04329E-05-1.30474E-05
 -1      7231-8.68607E-03-3.62532E-05 2.17808E-03
 -1      7232-9.04319E-03-4.30223E-05 1.24920E-03
 -1      7233-9.25283E-03-6.29518E-05 9.88798E-04
 -1      7234-9.07526E-03-2.41144E-05 1.03289E-03
 -1      7235-8.95095E-03-7.53845E-05 1.11421E-03
 -1      7236-1.18062E-03-3.25975E-04 7.58671E-04
 -1      7237-9.93222E-03 3.96793E-05-2.62573E-05
 -1      7238-9.93297E-03 3.19987E-05-4.95132E-06
 -1      7239-9.49007E-03-8.99061E-05 4.95646E-03
 -1      7240-9.48403E-03-7.80199E-05 4.23045E-03
 -1      7241-2.78949E-04-4.91488E-05 1.58869E-04
 -1      7242-4.16959E-03 7.41263E-04 9.44125E-03
 -1      7243-4.58409E-03 6.27633E-04 9.65553E-03
 -1      7244-9.08841E-03 1.17683E-04 5.46466E-03
 -1      7245-9.12728E-03 1.01211E-04 5.05782E-03
 -1      7246-1.69077E-03 8.03837E-05 3.81365E-03
 -1      7247-4.02777E-04 1.27982E-04 2.53378E-03
 -1      7248-3.89642E-03 1.31845E-04 7.34713E-03
 -1      7249-1.96611E-03-2.58391E-04 5.18017E-03
 -1      7250-2.20871E-03-3.26336E-04 5.02817E-03
 -1      7251-2.18646E-03-2.72810E-04 4.70269E-03
 -1      7252-6.18312E-04 7.14865E-05 5.20373E-03
 -1      7253-3.05570E-03 4.23093E-04 4.46526E-03
 -1      7254-2.67738E-03-3.81363E-04 4.70516E-03
 -1      7255-2.07407E-03-3.10231E-04 4.38150E-03
 -1      7256-7.06998E-05-5.63652E-06 7.36618E-05
 -1      7257-9.94429E-03 3.27940E-05-2.83262E-05
 -1      7258-7.92199E-04-2.43068E-04 3.81303E-04
 -1      7259-3.52379E-04-5.25173E-05 1.83631E-03
 -1      7260-3.63925E-04-5.51445E-05 2.21898E-03
 -1      7261-7.80226E-03-8.62382E-05 5.45379E-03
 -1      7262-4.48500E-04-1.35769E-04 3.42729E-03
 -1      7263-4.30214E-04-1.33342E-04 2.94249E-03
 -1      7264-1.10720E-03-2.34442E-04 3.41373E-03
 -1      7265-6.76737E-04-1.59628E-04 3.43202E-03
 -1      7266-9.49370E-03-4.51487E-05 3.14636E-03
 -1      7267-9.53041E-03-2.82106E-05 3.47750E-03
 -1      7268-7.30213E-03 5.48908E-05 3.55233E-03
 -1      7269-5.00136E-03 5.14742E-04 9.95631E-03
 -1      7270-4.91978E-03 5.86582E-04 9.88596E-03
 -1      7271-9.81048E-05-3.05071E-05 2.46096E-04
 -1      7272-7.93529E-03 3.10676E-04 6.69871E-03
 -1      7273-7.76016E-03 2.65801E-04 6.84834E-03
 -1      7274-9.28504E-03 1.53296E-04 3.78695E-04
 -1      7275-3.48065E-03 5.29417E-04 4.84471E-03
 -1      7276-2.80656E-03 4.44613E-04 4.91717E-03
 -1      7277-4.94022E-04-4.05394E-05 9.87172E-04
 -1      7278-2.20858E-04-3.38578E-05 1.09529E-03
 -1      7279-9.98296E-03 6.32110E-06-1.74596E-05
 -1      7280-9.93814E-03 2.62654E-05 4.89780E-06
 -1      7281-8.04026E-03-6.07451E-05 5.86313E-03
 -1      7282-9.78205E-03-8.22781E-05 5.01444E-04
 -1      7283-9.66852E-03-1.12801E-04 6.41963E-04
 -1      7284-9.42835E-03-1.49453E-04 7.34723E-04
 -1      7285-9.76022E-03-8.53801E-05 7.93778E-04
 -1      7286-9.82567E-03-1.07701E-04-2.62784E-05
 -1      7287-1.84604E-03 5.15939E-05 1.82076E-03
 -1      7288-2.73095E-03-3.15937E-04 6.19619E-03
 -1      7289-3.76442E-03-4.08953E-04 6.54884E-03
 -1      7290-2.98246E-03-3.90719E-04 6.05359E-03
 -1      7291-8.59187E-03-5.45021E-05 6.57769E-03
 -1      7292-9.32204E-03-4.06867E-05 5.73865E-03
 -1      7293-9.36365E-03-2.63143E-05 6.44220E-03
 -1      7294-9.31497E-03-4.50733E-06 5.72002E-03
 -1      7295-8.60372E-03-2.58049E-05 5.84166E-03
 -1      7296-1.46794E-04-3.19743E-05 7.91626E-05
 -1      7297-1.43273E-04-4.28587E-05 7.28667E-05
 -1      7298-1.58128E-04-3.95601E-05 5.21479E-05
 -1      7299-3.49382E-04-7.52765E-05 1.68829E-04
 -1      7300-1.57094E-04-2.93842E-05 5.41167E-05
 -1      7301-8.94693E-03-5.20736E-05 9.31142E-04
 -1      7302-4.92152E-03-5.85527E-04 9.88769E-03
 -1      7303-4.79024E-03-6.31490E-04 9.81762E-03
 -1      7304-1.45770E-04-2.27742E-05 8.02037E-05
 -1      7305-3.49028E-04-5.59414E-05 1.72995E-04
 -1      7306-8.70897E-03 4.99112E-05 1.03090E-03
 -1      7307-7.04701E-03 1.89888E-04 4.18128E-03
 -1      7308-6.87458E-03 2.45130E-04 4.53277E-03
 -1      7309-7.10208E-03-1.27571E-04 7.66816E-03
 -1      7310-6.86541E-03-1.86388E-04 7.98729E-03
 -1      7311-9.68518E-03 8.00961E-05 1.59582E-03
 -1      7312-7.88621E-03 1.09993E-04 2.27934E-03
 -1      7313-7.96648E-03 1.78505E-04 2.09449E-03
 -1      7314-4.19062E-03 6.78502E-05 7.94169E-03
 -1      7315-4.85914E-04 1.16588E-04 2.38726E-04
 -1      7316-7.30395E-04 1.58367E-04 3.84811E-04
 -1      7317-4.74711E-04 1.42476E-04 2.14538E-04
 -1      7318-8.07509E-03-2.06565E-04 4.19931E-03
 -1      7319-7.73258E-03-2.02306E-04 3.95742E-03
 -1      7320-8.40521E-03-1.78609E-04 3.56146E-03
 -1      7321-8.88528E-03-1.33346E-04 3.82614E-03
 -1      7322-8.21067E-03-1.59471E-04 4.21801E-03
 -1      7323-9.17949E-03-3.13766E-04 4.27130E-04
 -1      7324-4.78710E-03 6.33453E-04 9.81421E-03
 -1      7325-8.22193E-03-2.51641E-04 1.52776E-03
 -1      7326-8.62540E-03-2.09074E-04 1.33422E-03
 -1      7327-1.12789E-03 3.46577E-04 9.21756E-04
 -1      7328-7.87076E-04 2.50942E-04 9.51729E-04
 -1      7329-1.38865E-03 8.82326E-05 2.60763E-03
 -1      7330-1.53602E-03 1.41064E-04 2.36395E-03
 -1      7331-1.95769E-03 1.39832E-04 2.55088E-03
 -1      7332-1.35860E-03 9.23616E-05 2.21677E-03
 -1      7333-3.87434E-03-3.55908E-04 6.66399E-03
 -1      7334-8.62893E-03-6.33024E-05 2.45665E-03
 -1      7335-7.00146E-04-8.23697E-05 7.22287E-04
 -1      7336-9.93000E-05-2.86196E-05 7.59317E-06
 -1      7337-1.00535E-04-3.07244E-05 1.61971E-05
 -1      7338-9.42234E-03 1.12456E-04 5.16422E-03
 -1      7339-9.44611E-03 9.79126E-05 4.76741E-03
 -1      7340-8.54750E-03 1.46466E-04 5.04283E-03
 -1      7341-9.71091E-03 8.55998E-05 1.30008E-03
 -1      7342-8.17953E-05-4.32735E-06 6.84898E-06
 -1      7343-2.24242E-04-1.04637E-05 1.07535E-04
 -1      7344-1.02562E-04-5.15888E-06 2.43069E-05
 -1      7345-2.10338E-04-1.92627E-05 8.29034E-05
 -1      7346-5.18752E-03-5.29984E-04 9.36160E-03
 -1      7347-2.43847E-03-3.18169E-04 2.74019E-03
 -1      7348-1.98120E-03-2.46536E-04 2.55821E-03
 -1      7349-9.40104E-03-2.00041E-05 4.45339E-03
 -1      7350-9.50019E-03-1.92619E-05 3.88522E-03
 -1      7351-1.39966E-03 4.67538E-04 7.42559E-04
 -1      7352-8.32966E-04-1.83307E-04 5.08799E-03
 -1      7353-1.24338E-03-2.42934E-04 5.00220E-03
 -1      7354-4.23162E-04-1.51264E-04 5.41609E-03
 -1      7355-8.40761E-04-1.95520E-04 5.73229E-03
 -1      7356-1.28524E-03-2.58120E-04 5.64094E-03
 -1      7357-1.67023E-03-2.68533E-04 5.31737E-03
 -1      7358-8.40432E-03-2.03286E-04 4.42485E-03
 -1      7359-9.35177E-03-1.23183E-04 4.08076E-03
 -1      7360-8.83089E-03-1.46151E-04 4.51668E-03
 -1      7361-1.16996E-04-4.83745E-05 1.68077E-04
 -1      7362-2.42766E-03-3.46356E-04 6.34989E-03
 -1      7363-2.06753E-03-2.75485E-04 5.81608E-03
 -1      7364-1.78287E-03-2.21633E-04 5.76575E-03
 -1      7365-1.44559E-03-2.31985E-04 5.92654E-03
 -1      7366-2.12842E-03-2.85971E-04 6.29025E-03
 -1      7367-9.76036E-03 1.14323E-04 5.69890E-04
 -1      7368-9.79044E-03 1.07470E-04 3.70329E-04
 -1      7369-9.52616E-03 1.89382E-04 4.39556E-04
 -1      7370-9.71426E-03 1.20820E-04 4.79640E-04
 -1      7371-4.56860E-03 5.46821E-04 8.11998E-03
 -1      7372-1.42072E-03 1.69740E-04 2.29531E-03
 -1      7373-1.83200E-03 8.85837E-05 2.55274E-03
 -1      7374-7.73862E-03 2.25084E-04 6.89332E-03
 -1      7375-8.34383E-03 1.62044E-04 6.26235E-03
 -1      7376-8.70292E-03 1.82106E-04 6.61130E-03
 -1      7377-3.55437E-04 1.36228E-04 6.36883E-04
 -1      7378-5.63216E-04 2.05928E-04 6.03915E-04
 -1      7379-2.42152E-04 1.15705E-04 5.57715E-04
 -1      7380-2.51538E-04 1.14563E-04 4.07891E-04
 -1      7381-4.27887E-04 1.79156E-04 3.75646E-04
 -1      7382-7.44307E-03-1.85212E-04 3.44167E-03
 -1      7383-7.42442E-03-1.41384E-04 3.21391E-03
 -1      7384-6.78621E-03-2.50923E-04 8.05965E-03
 -1      7385-9.64257E-03 2.72953E-05 2.53349E-04
 -1      7386-9.52903E-03 5.54160E-05 3.86158E-04
 -1      7387-9.62996E-03 2.84835E-05 3.66360E-04
 -1      7388-4.86556E-04 1.47392E-04 2.24281E-04
 -1      7389-5.24430E-04 1.95176E-04 2.18834E-04
 -1      7390-7.32272E-04 1.98829E-04 3.64109E-04
 -1      7391-5.86257E-03 5.30596E-04 6.74214E-03
 -1      7392-6.54129E-03 4.92645E-04 6.84456E-03
 -1      7393-6.27881E-03 5.17198E-04 7.47014E-03
 -1      7394-6.00517E-03 4.67198E-04 6.95555E-03
 -1      7395-6.55375E-03-5.32428E-04 4.79494E-03
 -1      7396-6.96401E-03-4.30842E-04 4.37566E-03
 -1      7397-5.98415E-03-3.09660E-04 7.29839E-03
 -1      7398-6.47927E-03-2.65521E-04 7.44964E-03
 -1      7399-5.81549E-03-2.69996E-04 7.77540E-03
 -1      7400-1.26495E-03-8.97662E-05 1.86966E-03
 -1      7401-9.41254E-03 7.47203E-05 4.57477E-03
 -1      7402-8.28282E-04 3.74427E-04 2.70263E-04
 -1      7403-8.26305E-04 3.32575E-04 3.43962E-04
 -1      7404-9.97589E-03 1.29025E-05-2.85399E-05
 -1      7405-9.94223E-03 2.56943E-05-1.63137E-05
 -1      7406-9.70131E-03-1.10470E-04 8.31813E-04
 -1      7407-2.24809E-03 4.18263E-04 6.83065E-03
 -1      7408-1.74477E-03 3.57257E-04 6.69659E-03
 -1      7409-1.58746E-03 3.02526E-04 6.62998E-03
 -1      7410-1.44416E-03 2.81681E-04 5.87132E-03
 -1      7411-1.89583E-03 3.37237E-04 5.98973E-03
 -1      7412-9.24634E-03 2.14126E-04 1.51814E-03
 -1      7413-9.20416E-03 2.09246E-04 1.96512E-03
 -1      7414-7.67271E-03-4.48692E-04 7.16905E-03
 -1      7415-7.23610E-03-4.28400E-04 6.61588E-03
 -1      7416-5.00406E-03 7.64903E-04 9.84053E-03
 -1      7417-4.70301E-03 6.35604E-04 9.70666E-03
 -1      7418-1.87081E-03-1.87708E-04 5.73750E-03
 -1      7419-1.75622E-04-3.68101E-05 5.05913E-04
 -1      7420-1.33233E-05 3.16080E-06-1.45427E-05
 -1      7421-1.29793E-05 1.79927E-06-1.42517E-05
 -1      7422-5.45232E-05 7.91153E-06 2.61871E-05
 -1      7423-5.83798E-05 6.08515E-06-2.44998E-06
 -1      7424-8.28195E-03-2.42842E-04 3.84255E-03
 -1      7425-4.17805E-03-7.38165E-04 9.45293E-03
 -1      7426-3.96345E-03-6.78136E-04 9.20418E-03
 -1      7427-7.90709E-03 1.38412E-04 4.62581E-03
 -1      7428-8.13170E-03 1.46007E-04 4.50428E-03
 -1      7429-4.99949E-03-5.14578E-04 9.96140E-03
 -1      7430-2.31883E-03-2.91375E-04 2.42928E-03
 -1      7431-6.73473E-03-5.01192E-05 5.66211E-03
 -1      7432-8.59874E-03-3.52056E-04 9.47713E-04
 -1      7433-9.86315E-03-3.65027E-05 3.14780E-05
 -1      7434-9.67924E-03-5.94372E-05 1.43473E-04
 -1      7435-7.06325E-04-1.85191E-04 3.54094E-04
 -1      7436-4.69037E-04-1.41043E-04 2.30725E-04
 -1      7437-4.23901E-04-1.15676E-04 1.93476E-04
 -1      7438-9.98198E-03 8.44503E-06-2.03765E-05
 -1      7439-9.94466E-03 1.98435E-05-1.28473E-05
 -1      7440-2.41948E-03 2.13778E-04 2.81629E-03
 -1      7441-1.83607E-03 1.77145E-04 2.48233E-03
 -1      7442-8.40553E-03 1.45404E-04 4.57114E-03
 -1      7443-9.42934E-04-7.51958E-05 1.34712E-03
 -1      7444-7.05416E-04-7.10715E-05 1.17602E-03
 -1      7445-8.33554E-04-4.66675E-05 1.16618E-03
 -1      7446-4.99089E-03-7.63357E-04 9.84192E-03
 -1      7447-4.71336E-03-7.58591E-04 9.79198E-03
 -1      7448-4.70933E-03-6.32026E-04 9.70785E-03
 -1      7449-8.09127E-03 1.37571E-04 1.84820E-03
 -1      7450-4.58558E-03-6.25939E-04 9.66281E-03
 -1      7451-2.18534E-03 5.41364E-05 2.45613E-03
 -1      7452-9.71047E-03-1.12573E-04 4.33709E-04
 -1      7453-9.81404E-03-8.00147E-05 3.19389E-04
 -1      7454-9.87709E-03 4.58486E-05 1.93564E-04
 -1      7455-9.61766E-03-1.30649E-04 1.30585E-03
 -1      7456-9.36111E-03-6.53852E-05 6.60065E-04
 -1      7457-6.60646E-03-4.55456E-04 4.98949E-03
 -1      7458-7.11242E-03-4.46291E-04 4.88761E-03
 -1      7459-9.10282E-03-4.07999E-05 7.09373E-04
 -1      7460-9.20248E-03-1.61668E-05 7.90791E-04
 -1      7461-8.74331E-03 2.09043E-04 5.69547E-03
 -1      7462-9.43366E-03 1.41009E-04 5.67399E-03
 -1      7463-8.84736E-03 1.59637E-04 5.34229E-03
 -1      7464-9.37977E-03-1.09409E-04 3.79719E-03
 -1      7465-9.47333E-03-9.34510E-05 3.23335E-03
 -1      7466-9.50829E-03-8.31782E-05 3.82576E-03
 -1      7467-9.01975E-03-1.14147E-04 3.25988E-03
 -1      7468-1.49399E-03-1.30815E-04 2.51300E-03
 -1      7469-4.21325E-03 2.55233E-04 7.90094E-03
 -1      7470-8.68864E-03 2.94117E-04 6.55050E-03
 -1      7471-8.24113E-03 3.64852E-04 6.84925E-03
 -1      7472-7.66136E-03 3.75691E-04 6.85531E-03
 -1      7473-7.84074E-03 3.65873E-04 6.22364E-03
 -1      7474-8.11463E-03 3.28735E-04 6.54724E-03
 -1      7475-5.79298E-05 4.00684E-06-2.11326E-06
 -1      7476-8.24503E-04-1.69904E-04 5.07967E-03
 -1      7477-8.30972E-04-1.82247E-04 5.72000E-03
 -1      7478-9.93795E-03-2.12778E-05-5.26050E-06
 -1      7479-9.15222E-03 2.13870E-04 1.11374E-03
 -1      7480-1.13778E-03-1.89479E-04 2.14791E-03
 -1      7481-8.80935E-03-1.89862E-04 4.00532E-03
 -1      7482-8.10318E-03-2.31645E-04 3.72136E-03
 -1      7483-7.63198E-03-3.14516E-04 3.77758E-03
 -1      7484-7.40513E-03-2.60731E-04 4.13649E-03
 -1      7485-6.81577E-05 5.18310E-05 6.24738E-03
 -1      7486-1.03294E-03 5.89618E-05 6.44890E-03
 -1      7487-3.43730E-03-4.53969E-04 5.22765E-03
 -1      7488-3.23002E-03-4.41541E-04 4.56688E-03
 -1      7489-3.36923E-03-3.80180E-04 4.89622E-03
 -1      7490-3.47022E-04 1.25926E-04 1.69947E-03
 -1      7491-3.74516E-04 1.27601E-04 2.07905E-03
 -1      7492-4.35078E-04 1.32441E-04 1.82710E-03
 -1      7493-7.63406E-04 2.06841E-04 1.80211E-03
 -1      7494-1.13081E-03-9.41456E-05 1.65017E-03
 -1      7495-6.87573E-03 4.34888E-04 7.90264E-03
 -1      7496-8.73814E-03 4.06107E-04 8.04394E-04
 -1      7497-8.93284E-03 3.78951E-04 5.66321E-04
 -1      7498-3.23875E-03-3.42938E-04 6.87020E-03
 -1      7499-2.87211E-03-3.87803E-04 7.44543E-03
 -1      7500-3.49550E-03-4.39563E-04 7.46100E-03
 -1      7501-1.23558E-04-4.20350E-05 3.63668E-05
 -1      7502-3.10558E-04-8.84255E-05 1.44619E-04
 -1      7503-2.81357E-04-6.91085E-05 1.11598E-04
 -1      7504-4.01757E-04-1.28485E-04 2.52372E-03
 -1      7505-1.61588E-03-3.14597E-04 1.27771E-03
 -1      7506-1.56566E-03-3.74504E-04 1.13977E-03
 -1      7507-8.53285E-03 2.83372E-04 5.79143E-03
 -1      7508-8.81916E-03 2.46733E-04 6.12886E-03
 -1      7509-2.86207E-04 1.47311E-04 8.39701E-05
 -1      7510-9.15056E-03-2.10485E-04 9.71918E-04
 -1      7511-9.14967E-03-1.73245E-04 9.76647E-04
 -1      7512-8.58130E-03-1.55912E-04 3.01677E-03
 -1      7513-1.51108E-03-2.52866E-04 1.94241E-03
 -1      7514-5.68475E-03-5.43775E-04 7.40648E-03
 -1      7515-5.86012E-03-5.25009E-04 6.75916E-03
 -1      7516-6.25958E-03-5.22004E-04 7.50352E-03
 -1      7517-5.98488E-03-4.67403E-04 7.00513E-03
 -1      7518-5.81330E-03-4.92832E-04 7.63877E-03
 -1      7519-9.34172E-03 1.92687E-04 1.06485E-03
 -1      7520-7.32367E-03-2.22162E-04 7.57214E-03
 -1      7521-8.06394E-04 2.67236E-04 7.42547E-04
 -1      7522-1.11510E-04-6.11736E-06 4.18661E-05
 -1      7523-1.03196E-04 6.08471E-05-1.22468E-05
 -1      7524-1.71133E-04 9.12367E-05 1.09310E-04
 -1      7525-9.97891E-03 1.00837E-05-2.37390E-05
 -1      7526-7.79505E-03 1.56609E-05 5.45579E-03
 -1      7527-9.33921E-03 1.64639E-05 6.56505E-04
 -1      7528-1.76263E-03 1.83057E-04 2.10692E-03
 -1      7529-2.31279E-03 2.20310E-04 2.42173E-03
 -1      7530-3.75004E-03 1.40293E-04 6.01386E-03
 -1      7531-3.58062E-03 1.66214E-04 5.46931E-03
 -1      7532-2.12861E-04-1.09386E-04 3.53599E-04
 -1      7533-4.24385E-03 5.50930E-04 6.76082E-03
 -1      7534-3.87360E-03 5.42802E-04 6.07182E-03
 -1      7535-3.16350E-03 4.52694E-04 6.27126E-03
 -1      7536-3.69717E-03 4.58287E-04 6.35996E-03
 -1      7537-1.26676E-03 2.83422E-04 6.38499E-03
 -1      7538-1.12868E-03 2.47027E-04 6.33592E-03
 -1      7539-9.32535E-03 3.73670E-05 7.97467E-04
 -1      7540-9.18825E-03 7.13800E-06 9.47010E-04
 -1      7541-9.04110E-03 1.86997E-05 8.30875E-04
 -1      7542-5.68395E-03 5.45511E-04 7.40260E-03
 -1      7543-5.83167E-03 4.92502E-04 7.60035E-03
 -1      7544-9.64862E-03-1.31316E-04 1.01965E-03
 -1      7545-8.91582E-03 2.57991E-05 7.33294E-04
 -1      7546-9.73663E-03 1.13226E-04 7.02173E-04
 -1      7547-8.64652E-05 7.07884E-05 6.22421E-03
 -1      7548-7.96607E-04 1.17809E-04 6.29927E-03
 -1      7549-9.58406E-03-2.94082E-05 3.30851E-04
 -1      7550-1.37015E-03 1.55402E-04 1.85695E-03
 -1      7551-1.06912E-03 1.63321E-04 1.54565E-03
 -1      7552-1.26813E-04 7.55027E-05-2.18382E-05
 -1      7553-9.85548E-03-3.33346E-05 7.86598E-05
 -1      7554-9.85788E-03-2.35521E-05 7.60154E-05
 -1      7555-9.83142E-03-3.80449E-05 6.03292E-05
 -1      7556-9.63112E-03-7.19776E-05 1.83263E-04
 -1      7557-8.51453E-03 2.38469E-04 2.53610E-03
 -1      7558-1.21512E-03 4.59006E-04 5.35109E-04
 -1      7559-9.64209E-04 3.48067E-04 4.36628E-04
 -1      7560-1.28141E-05-3.27215E-06-1.46998E-05
 -1      7561-5.08304E-05-6.84285E-06 2.27250E-05
 -1      7562-9.32835E-03-6.52496E-05 5.73149E-03
 -1      7563-9.46835E-03-8.57000E-05 5.44546E-03
 -1      7564-7.69797E-03-4.43988E-04 2.39817E-03
 -1      7565-8.04811E-03-4.22614E-04 2.28589E-03
 -1      7566-7.37527E-03-5.37199E-04 2.71554E-03
 -1      7567-7.37876E-03-4.69321E-04 2.89978E-03
 -1      7568-7.76529E-03-4.48870E-04 2.78269E-03
 -1      7569-7.07860E-03-1.06360E-04 3.80302E-03
 -1      7570-9.91821E-03-1.03945E-05 6.30605E-03
 -1      7571-9.17508E-03 8.42309E-06 6.34230E-03
 -1      7572-2.12452E-04 1.08866E-04 3.59205E-04
 -1      7573-3.57080E-04 1.64893E-04 2.14827E-04
 -1      7574-6.16605E-03 2.94311E-04 7.08953E-03
 -1      7575-5.94670E-03 3.59458E-04 7.24133E-03
 -1      7576-5.80656E-03 3.42007E-04 7.82322E-03
 -1      7577-1.57403E-04 9.01011E-05 6.80801E-05
 -1      7578-9.43068E-03 1.25405E-04 5.79855E-03
 -1      7579-9.90181E-03 2.47126E-05 2.42644E-04
 -1      7580-4.07010E-04-1.39634E-04 4.89713E-03
 -1      7581-6.21374E-04-1.34344E-04 5.12324E-03
 -1      7582-7.58170E-03-5.30196E-04 2.29714E-03
 -1      7583-1.19215E-05-1.62142E-06-1.39371E-05
 -1      7584-5.56135E-05-5.45062E-06-4.12397E-06
 -1      7585-2.40165E-04-5.61586E-05 1.04538E-04
 -1      7586-1.01702E-03 4.27477E-04 3.71477E-04
 -1      7587-9.51860E-03 1.82943E-04 6.51463E-04
 -1      7588-9.85781E-03-2.17461E-05 5.02985E-05
 -1      7589-9.89631E-03 3.52310E-05 2.33750E-04
 -1      7590-1.02766E-04-1.13124E-05 2.39365E-05
 -1      7591-2.82575E-03-3.84096E-05 3.72459E-03
 -1      7592-6.36484E-03-4.33767E-04 6.34322E-03
 -1      7593-6.64699E-03-4.73512E-04 6.81137E-03
 -1      7594-6.76545E-03-4.23983E-04 7.05726E-03
 -1      7595-9.90833E-03-6.02522E-06 1.12341E-04
 -1      7596-6.05529E-04 8.84897E-05 5.61344E-04
 -1      7597-9.51170E-03-9.39660E-05 4.51910E-03
 -1      7598-9.82145E-03-8.96840E-05 2.58014E-04
 -1      7599-9.29296E-03 8.66980E-05 3.97172E-03
 -1      7600-9.34466E-03-2.31845E-05 5.21963E-03
 -1      7601-1.39268E-03-2.15100E-04 5.28503E-03
 -1      7602-1.18470E-03-1.69055E-04 5.31571E-03
 -1      7603-5.55943E-04-1.42437E-04 5.69562E-03
 -1      7604-8.09996E-03-1.76829E-04 4.93931E-03
 -1      7605-8.91230E-03-2.26991E-04 5.08825E-03
 -1      7606-8.36437E-03-2.97077E-04 5.51460E-03
 -1      7607-8.95854E-03-2.16610E-04 4.36173E-03
 -1      7608-8.45296E-03-2.82171E-04 4.75945E-03
 -1      7609-4.23622E-03 1.31739E-04 8.02604E-03
 -1      7610-3.52071E-03 1.24972E-04 7.77484E-03
 -1      7611-1.80045E-03 2.14535E-04 1.65329E-03
 -1      7612-2.13137E-03 1.89253E-04 2.10594E-03
 -1      7613-2.30576E-03-3.29107E-04 6.94675E-03
 -1      7614-1.93819E-03-2.53791E-04 6.38510E-03
 -1      7615-2.45712E-03-2.89411E-04 7.04392E-03
 -1      7616-9.54782E-03 1.38642E-04 1.58106E-03
 -1      7617-9.54253E-03 1.33436E-04 2.03351E-03
 -1      7618-1.73414E-03-3.08489E-04 4.33452E-03
 -1      7619-1.58305E-03-3.02335E-04 3.68725E-03
 -1      7620-9.66430E-03-4.56898E-05 1.70969E-04
 -1      7621-2.59469E-03 4.86206E-04 7.32740E-03
 -1      7622-2.50787E-03 3.93869E-04 7.01677E-03
 -1      7623-6.12286E-03-5.20632E-04 6.15350E-03
 -1      7624-6.90449E-03-4.46399E-04 6.20529E-03
 -1      7625-2.18371E-03-1.84436E-04 6.87129E-03
 -1      7626-1.95599E-03-2.16667E-04 6.43225E-03
 -1      7627-2.47826E-03-2.47757E-04 7.08761E-03
 -1      7628-1.39131E-03-1.57434E-04 6.52462E-03
 -1      7629-9.75666E-03-3.34618E-05 1.06551E-03
 -1      7630-2.91189E-04-2.90003E-05 1.99439E-04
 -1      7631-4.74208E-04-2.85848E-05 2.67179E-03
 -1      7632-9.21248E-03 1.39888E-04 9.57576E-04
 -1      7633-2.30547E-03 1.10359E-04 2.46470E-03
 -1      7634-7.19368E-03 2.55018E-04 7.38244E-03
 -1      7635-6.76983E-03 3.19935E-04 8.12532E-03
 -1      7636-8.57741E-03 9.34072E-06 1.12722E-03
 -1      7637-7.98077E-03-3.52613E-04 3.95861E-03
 -1      7638-8.31965E-03-2.68258E-04 4.04185E-03
 -1      7639-8.51873E-03-2.77999E-04 4.11841E-03
 -1      7640-7.68749E-03-3.82809E-04 4.54468E-03
 -1      7641-8.04932E-03-2.97005E-04 4.62359E-03
 -1      7642-9.11801E-03-1.87358E-05 5.44452E-04
 -1      7643-7.57514E-03-3.83461E-04 5.87533E-03
 -1      7644-6.91265E-04 1.35691E-04 6.17268E-03
 -1      7645-3.87971E-03-5.39356E-04 6.09645E-03
 -1      7646-4.24977E-03-5.48177E-04 6.78671E-03
 -1      7647-3.23631E-03-4.58004E-04 6.37601E-03
 -1      7648-3.60106E-03-4.88559E-04 7.07288E-03
 -1      7649-3.76992E-03-4.56616E-04 6.48414E-03
 -1      7650-4.70693E-03 7.62383E-04 9.79048E-03
 -1      7651-9.00569E-03-1.72939E-04 1.28460E-03
 -1      7652-8.33379E-03 4.30500E-04 1.17760E-03
 -1      7653-7.04195E-03-2.23395E-05 4.27067E-03
 -1      7654-7.38370E-03-1.92900E-05 4.58996E-03
 -1      7655-8.89523E-03-4.91855E-05 1.83403E-03
 -1      7656-5.09671E-04 9.46163E-05 3.83495E-04
 -1      7657-9.73895E-03-1.37118E-04 6.87540E-05
 -1      7658-2.51829E-04-1.17748E-04 2.48257E-04
 -1      7659-1.39814E-04-7.62651E-05 3.13504E-05
 -1      7660-1.24948E-04-5.37709E-05 3.43817E-05
 -1      7661-6.54712E-03-2.31580E-05 5.28885E-03
 -1      7662-6.55126E-03-8.01627E-05 5.26666E-03
 -1      7663-8.06854E-03 1.03280E-04 4.78660E-03
 -1      7664-2.73474E-03 4.21976E-04 6.38406E-03
 -1      7665-4.99541E-04 4.58882E-07 4.22381E-04
 -1      7666-7.55085E-03 6.01996E-05 2.99467E-03
 -1      7667-9.69562E-03-1.05610E-05 2.14973E-04
 -1      7668-9.62552E-03-1.27708E-04 2.09729E-03
 -1      7669-9.59770E-03-1.29865E-04 2.51482E-03
 -1      7670-9.54968E-03-1.29182E-04 2.24129E-03
 -1      7671-9.43670E-03 4.40697E-05 5.19091E-04
 -1      7672-7.91281E-03-5.73430E-05 4.94563E-03
 -1      7673-7.38657E-03-6.81604E-05 4.56896E-03
 -1      7674-8.17171E-03-3.45576E-05 4.44057E-03
 -1      7675-7.91095E-03-1.61362E-05 4.96733E-03
 -1      7676-7.08683E-03-4.58474E-05 5.10948E-03
 -1      7677-2.18617E-03-3.77137E-04 4.02608E-03
 -1      7678-2.66568E-05 1.42549E-05-2.95708E-05
 -1      7679-1.08017E-04-4.19178E-05 2.49677E-04
 -1      7680-9.09269E-03 3.86139E-05 5.75458E-04
 -1      7681-8.94659E-03-2.22191E-06 7.03544E-04
 -1      7682-7.01832E-03-3.36693E-04 7.55171E-03
 -1      7683-7.27998E-03-3.73862E-04 7.25783E-03
 -1      7684-2.13965E-03-1.43431E-04 2.19491E-03
 -1      7685-3.22684E-04 9.12109E-07 2.24312E-04
 -1      7686-8.86889E-03 2.33481E-04 4.95388E-03
 -1      7687-8.93520E-03 2.21412E-04 4.16103E-03
 -1      7688-2.28374E-05 1.13753E-05-2.41472E-05
 -1      7689-9.52041E-03 1.44669E-04 2.14856E-03
 -1      7690-2.18788E-03 1.11454E-04 5.86983E-03
 -1      7691-2.46505E-03 9.41036E-05 6.54280E-03
 -1      7692-1.50237E-03-2.11052E-04 2.38853E-03
 -1      7693-8.62527E-03-2.75973E-04 3.52500E-03
 -1      7694-8.44247E-03-2.68529E-04 3.46365E-03
 -1      7695-8.95026E-03-2.02090E-04 3.62082E-03
 -1      7696-9.94482E-03-2.20828E-05 1.08740E-05
 -1      7697-9.94528E-03-2.54558E-05-6.12861E-06
 -1      7698-9.65191E-03 1.25376E-04 1.74355E-03
 -1      7699-2.05820E-03 2.13942E-05 6.82844E-03
 -1      7700-2.29868E-03 4.21368E-05 6.27638E-03
 -1      7701-1.85747E-04 1.00710E-04 1.94782E-04
 -1      7702-2.11924E-04 1.04445E-04 2.40591E-04
 -1      7703-9.67786E-03 1.23733E-04 1.40994E-03
 -1      7704-9.70436E-03 1.21948E-04 1.09730E-03
 -1      7705-9.31674E-03 2.10177E-04 1.19710E-03
 -1      7706-9.58764E-03 1.36114E-04 1.26897E-03
 -1      7707-9.89316E-03-6.27114E-05-4.50225E-06
 -1      7708-9.84702E-03-8.39983E-05 1.06898E-04
 -1      7709-8.10110E-03-3.50996E-04 3.42130E-03
 -1      7710-8.47625E-03 1.88962E-04 2.79513E-03
 -1      7711-9.02600E-03 6.68375E-05 1.37313E-03
 -1      7712-3.57414E-04-9.27081E-05 1.86717E-04
 -1      7713-1.81202E-03-3.92861E-04 1.45131E-03
 -1      7714-1.85181E-04-1.00602E-04 1.95241E-04
 -1      7715-3.14986E-03 1.05208E-04 6.31885E-03
 -1      7716-8.57107E-03 1.63639E-04 2.46448E-03
 -1      7717-2.03269E-03 3.53546E-04 3.95982E-03
 -1      7718-3.20242E-04 1.24425E-04 1.35608E-03
 -1      7719-6.49096E-04 1.97271E-04 1.37831E-03
 -1      7720-3.56384E-04 1.24541E-04 1.40560E-03
 -1      7721-5.87348E-04 1.93451E-04 1.07152E-03
 -1      7722-9.47311E-03-1.24273E-04 3.66668E-03
 -1      7723-9.52545E-03 1.45623E-04 4.55366E-03
 -1      7724-9.39615E-03 1.56847E-04 3.86963E-03
 -1      7725-7.36464E-03-1.88601E-04 4.32516E-03
 -1      7726-6.72110E-03-1.64362E-04 4.70059E-03
 -1      7727-7.23894E-03-1.21362E-04 4.54087E-03
 -1      7728-9.91141E-03-3.04727E-05 6.29240E-03
 -1      7729-9.19104E-03-5.80842E-05 6.35731E-03
 -1      7730-2.33231E-03-3.90569E-04 4.65219E-03
 -1      7731-9.43581E-03 8.13429E-05 4.21364E-03
 -1      7732-6.62140E-03 6.38402E-04 8.37940E-03
 -1      7733-6.75163E-03 5.17446E-04 8.03655E-03
 -1      7734-3.25694E-04-1.52815E-04 1.23423E-04
 -1      7735-3.05215E-04-1.09497E-04 1.31361E-04
 -1      7736-8.68807E-03-2.10123E-04 1.51808E-03
 -1      7737-8.14007E-03-3.46987E-05 5.33810E-03
 -1      7738-7.07498E-03-1.62339E-04 3.78535E-03
 -1      7739-8.79013E-03-6.36523E-05 8.96194E-04
 -1      7740-8.58061E-03-3.42964E-05 1.12146E-03
 -1      7741-5.38499E-04 2.24313E-04 3.11709E-04
 -1      7742-9.44444E-03-1.02485E-04 5.94676E-03
 -1      7743-8.59621E-04-1.52269E-05 1.24948E-03
 -1      7744-6.85423E-03-2.39856E-04 4.51837E-03
 -1      7745-6.89524E-03-1.91661E-04 4.21806E-03
 -1      7746-1.72538E-03 2.73615E-04 4.14714E-03
 -1      7747-7.80719E-03 3.81363E-06 5.22127E-03
 -1      7748-2.94821E-04 1.22742E-04 1.05584E-03
 -1      7749-3.24984E-04 1.22683E-04 1.10578E-03
 -1      7750-8.86811E-03 1.13744E-04 4.55471E-03
 -1      7751-9.52262E-03-1.32508E-04 2.81125E-03
 -1      7752-7.06315E-03-4.00458E-04 4.13794E-03
 -1      7753-1.01398E-03-2.36729E-04 1.12598E-03
 -1      7754-1.21897E-03-2.84108E-04 1.30281E-03
 -1      7755-7.06997E-03-2.18783E-04 3.76069E-03
 -1      7756-6.94422E-03-2.75612E-04 4.03654E-03
 -1      7757-7.43271E-03-2.19234E-04 3.85400E-03
 -1      7758-7.67202E-03 4.49855E-04 7.16988E-03
 -1      7759-7.32891E-03 4.20494E-04 6.54131E-03
 -1      7760-1.42147E-03-3.62366E-04 1.23935E-03
 -1      7761-9.50109E-03-8.29991E-05 2.96152E-03
 -1      7762-9.53181E-03-7.22998E-05 3.52749E-03
 -1      7763-1.21561E-03-3.52916E-04 1.13991E-03
 -1      7764-1.29966E-03 1.59486E-04 6.44330E-03
 -1      7765-8.72872E-03 2.09880E-04 6.57223E-03
 -1      7766-1.51115E-03 2.96731E-04 3.58278E-03
 -1      7767-3.53679E-04 1.60529E-04 1.36678E-04
 -1      7768-3.15844E-04 1.15647E-04 1.39599E-04
 -1      7769-3.23044E-04-3.49172E-05 1.68212E-04
 -1      7770-2.23046E-03 3.79166E-04 4.55732E-03
 -1      7771-2.41488E-03 1.59668E-04 2.84155E-03
 -1      7772-2.30860E-03 1.64846E-04 2.44700E-03
 -1      7773-9.61059E-03 1.24448E-04 1.20329E-03
 -1      7774-6.84509E-04 1.12039E-04 6.20571E-03
 -1      7775-3.16826E-04 1.29251E-04 9.19519E-04
 -1      7776-5.25620E-04 1.88091E-04 8.00681E-04
 -1      7777-7.78000E-03-3.59087E-04 3.41311E-03
 -1      7778-7.50320E-03-1.60228E-04 7.08259E-03
 -1      7779-1.25415E-03-2.12163E-04 6.52512E-03
 -1      7780-1.27858E-03-1.59422E-04 2.30744E-03
 -1      7781-4.41784E-03-5.34572E-04 7.46294E-03
 -1      7782-3.94180E-03-4.54828E-04 7.14265E-03
 -1      7783-2.68304E-04-1.20216E-04 7.88242E-04
 -1      7784-9.93285E-03-3.88517E-05-2.65217E-05
 -1      7785-9.94123E-03-2.95386E-05-1.69189E-05
 -1      7786-3.92499E-03-3.93213E-04 7.17767E-03
 -1      7787-2.92166E-04 1.18767E-04 8.42755E-04
 -1      7788-8.16252E-03-2.85254E-04 3.28806E-03
 -1      7789-9.97231E-03-1.00300E-05-1.52981E-05
 -1      7790-2.73587E-03-4.41175E-04 4.36402E-03
 -1      7791-2.91530E-03-4.55041E-04 5.01787E-03
 -1      7792-8.12665E-03 1.90269E-04 4.68795E-03
 -1      7793-6.19944E-03-4.12486E-04 6.99713E-03
 -1      7794-1.28841E-03-1.91222E-04 1.99059E-03
 -1      7795-7.58334E-03 5.39206E-04 2.28002E-03
 -1      7796-1.54444E-03 2.88389E-04 4.16475E-03
 -1      7797-1.90015E-03 2.98730E-04 4.75310E-03
 -1      7798-4.20589E-03 1.93882E-04 7.92005E-03
 -1      7799-8.77092E-03 1.70311E-05 8.88890E-04
 -1      7800-7.22295E-03 1.07893E-04 3.76579E-03
 -1      7801-2.23518E-03 2.27091E-04 6.92552E-03
 -1      7802-3.49931E-03 4.67161E-04 5.65365E-03
 -1      7803-2.97886E-03 4.52227E-04 5.56304E-03
 -1      7804-2.01941E-03 2.33557E-04 2.03371E-03
 -1      7805-7.92572E-03-3.08143E-04 5.36333E-03
 -1      7806-1.56751E-03-2.69756E-04 6.57390E-03
 -1      7807-2.33535E-03 2.50167E-05 5.67807E-03
 -1      7808-6.56958E-04-1.10331E-04 5.65930E-03
 -1      7809-6.18044E-04-1.16385E-04 5.12925E-03
 -1      7810-6.62314E-03-6.38222E-04 8.37888E-03
 -1      7811-6.72876E-03-5.22905E-04 8.07298E-03
 -1      7812-4.91703E-04 1.47413E-04 4.51333E-03
 -1      7813-4.12532E-04 1.42306E-04 4.95319E-03
 -1      7814-1.05092E-03 2.20703E-04 4.82632E-03
 -1      7815-6.21901E-04 1.53706E-04 4.48047E-03
 -1      7816-1.09625E-03 2.25469E-04 4.39656E-03
 -1      7817-1.81770E-03-3.14047E-04 4.91656E-03
 -1      7818-1.90705E-03-3.29525E-04 5.54968E-03
 -1      7819-9.53482E-03-5.38959E-05 3.55720E-03
 -1      7820-1.39470E-04-6.51803E-05 6.63329E-05
 -1      7821-1.49220E-04-5.42284E-05 6.50603E-05
 -1      7822-3.72205E-05 1.75002E-06-9.74526E-06
 -1      7823-6.92854E-03 7.90312E-05 7.90421E-03
 -1      7824-9.42843E-03-1.52121E-04 4.06504E-03
 -1      7825-9.00097E-03-2.12655E-04 3.80376E-03
 -1      7826-9.98168E-03-8.37644E-06-2.02333E-05
 -1      7827-9.94587E-03-1.72604E-05-1.03642E-05
 -1      7828-2.45250E-03-3.96984E-04 5.25716E-03
 -1      7829-6.21273E-04 1.62636E-04 5.19497E-03
 -1      7830-1.08171E-03 2.33453E-04 5.56801E-03
 -1      7831-1.26749E-04-1.73559E-05 4.83832E-05
 -1      7832-6.78241E-03 1.81930E-04 4.82263E-03
 -1      7833-1.28169E-03-1.85238E-04 6.56514E-03
 -1      7834-3.69406E-04-7.23876E-05 2.18178E-03
 -1      7835-1.57754E-04 8.51481E-05 3.51687E-05
 -1      7836-1.26500E-04 5.71085E-05 3.54745E-05
 -1      7837-7.56351E-03-3.88156E-04 5.21669E-03
 -1      7838-6.92674E-03-4.53898E-04 5.52761E-03
 -1      7839-1.16339E-03-2.50461E-04 6.01802E-03
 -1      7840-1.65901E-03-3.07513E-04 5.95065E-03
 -1      7841-8.79597E-03-3.87544E-04 7.87139E-04
 -1      7842-8.93569E-03-3.79376E-04 5.60453E-04
 -1      7843-7.16194E-03 4.58202E-04 7.57642E-03
 -1      7844-9.49153E-03-7.90242E-05 2.64049E-04
 -1      7845-5.73210E-03 5.32948E-04 7.94148E-03
 -1      7846-9.07428E-03-2.09851E-04 3.23216E-03
 -1      7847-4.62718E-04-1.39301E-04 3.92104E-03
 -1      7848-6.39250E-03-4.47091E-04 5.66816E-03
 -1      7849-3.74536E-05-1.25114E-06-9.47143E-06
 -1      7850-2.56576E-03 4.08159E-04 5.66944E-03
 -1      7851-2.00860E-03 3.11002E-04 5.48288E-03
 -1      7852-1.04290E-03 2.28026E-04 3.31378E-03
 -1      7853-6.03134E-04 1.59484E-04 3.05994E-03
 -1      7854-3.07461E-05-1.10351E-06 9.95302E-06
 -1      7855-8.72026E-05-3.45339E-05 9.02662E-05
 -1      7856-8.24100E-05-3.05212E-05 1.54847E-04
 -1      7857-4.71793E-04-1.09429E-04 2.30706E-04
 -1      7858-5.82706E-03 2.79537E-04 7.74005E-03
 -1      7859-7.54810E-04-1.01939E-04 2.09075E-03
 -1      7860-9.66059E-03-1.36827E-04 8.42375E-04
 -1      7861-7.00484E-03-2.81119E-04 7.59443E-03
 -1      7862-4.89570E-03 5.43112E-04 9.85245E-03
 -1      7863-7.60666E-03-4.49114E-04 3.24854E-03
 -1      7864-7.17404E-03-4.70252E-04 3.37344E-03
 -1      7865-9.81715E-03-9.98813E-05 1.14866E-04
 -1      7866-1.61644E-03 2.93426E-04 4.73629E-03
 -1      7867-2.34483E-03 3.85414E-04 5.15540E-03
 -1      7868-3.62004E-03-4.73524E-04 5.78282E-03
 -1      7869-3.09169E-03-4.62196E-04 5.67152E-03
 -1      7870-1.59561E-03-4.29842E-04 1.35306E-03
 -1      7871-1.38303E-03-4.10511E-04 1.03879E-03
 -1      7872-4.47315E-03-7.57020E-04 9.68463E-03
 -1      7873-9.54690E-03-1.57664E-04 5.55739E-03
 -1      7874-9.61812E-03-1.54650E-04 5.91738E-03
 -1      7875-9.10806E-03-2.37892E-04 6.61681E-03
 -1      7876-9.54722E-03-1.67069E-04 6.18664E-03
 -1      7877-9.03799E-03-2.37424E-04 6.24204E-03
 -1      7878-9.54595E-03 1.58711E-04 5.57369E-03
 -1      7879-9.61707E-03 1.55483E-04 5.93381E-03
 -1      7880-9.54252E-03 1.68708E-04 6.20884E-03
 -1      7881-9.10765E-03 2.38569E-04 6.61747E-03
 -1      7882-9.03663E-03 2.37698E-04 6.24229E-03
 -1      7883-2.80717E-03-4.27801E-04 6.48745E-03
 -1      7884-2.58804E-03-4.00352E-04 7.11300E-03
 -1      7885-2.24411E-03-4.15697E-04 6.83303E-03
 -1      7886-2.11383E-03-3.61428E-04 6.07565E-03
 -1      7887-1.82148E-03-3.28182E-04 6.71610E-03
 -1      7888-2.73369E-04-1.39304E-04 5.79384E-03
 -1      7889-3.14060E-05 1.85684E-06 1.13992E-05
 -1      7890-6.97042E-03 5.01397E-04 4.10799E-03
 -1      7891-9.21788E-03 1.93615E-04 6.05353E-03
 -1      7892-8.64744E-03 2.44045E-04 6.27207E-03
 -1      7893-9.31153E-03 1.71752E-04 6.35145E-03
 -1      7894-9.30240E-03-5.54134E-05 6.25559E-03
 -1      7895-7.33622E-03 2.26846E-04 7.54614E-03
 -1      7896-3.40540E-03 5.04669E-04 5.28772E-03
 -1      7897-7.25413E-03-3.87571E-04 3.63564E-03
 -1      7898-1.20898E-03 2.23572E-04 3.77676E-03
 -1      7899-6.86761E-05-3.04922E-05 6.26229E-03
 -1      7900-5.45667E-04-2.51665E-05 6.37208E-03
 -1      7901-9.70477E-03-1.23753E-04 1.05146E-03
 -1      7902-8.48921E-03-4.57216E-04 9.55970E-04
 -1      7903-5.05495E-03-5.18467E-04 9.89847E-03
 -1      7904-4.52449E-04 1.35164E-04 3.50257E-03
 -1      7905-4.66534E-04 1.39217E-04 4.00002E-03
 -1      7906-5.88867E-04 1.45310E-04 3.97384E-03
 -1      7907-1.04460E-03 2.20230E-04 3.87786E-03
 -1      7908-2.81082E-03 8.31046E-05 7.56849E-03
 -1      7909-2.62191E-03 2.64553E-05 7.28078E-03
 -1      7910-3.18573E-03 2.88746E-05 8.15274E-03
 -1      7911-5.73080E-04 1.33718E-04 3.86113E-03
 -1      7912-4.46555E-03 7.59433E-04 9.67815E-03
 -1      7913-7.04094E-03-7.63403E-05 4.26353E-03
 -1      7914-6.72640E-03-5.14170E-05 4.77195E-03
 -1      7915-6.72452E-03-1.07654E-04 4.76102E-03
 -1      7916-8.61454E-04-2.04932E-04 6.22701E-03
 -1      7917-5.64214E-04-1.60787E-04 6.20259E-03
 -1      7918-1.70156E-03 3.05552E-04 5.46982E-03
 -1      7919-7.69647E-04-2.17758E-04 6.48401E-03
 -1      7920-1.29694E-03-2.85183E-04 6.40444E-03
 -1      7921-1.38651E-03-2.76665E-04 6.42761E-03
 -1      7922-4.42804E-04-1.38279E-04 2.09734E-03
 -1      7923-9.84363E-03-1.77343E-05 8.52240E-05
 -1      7924-1.25742E-03-1.59660E-04 5.85559E-03
 -1      7925-9.44846E-03 1.24273E-04 5.36225E-03
 -1      7926-7.13995E-03-4.63930E-04 7.61172E-03
 -1      7927-4.56902E-04-1.67973E-04 6.19306E-03
 -1      7928-6.90506E-03-3.74936E-04 4.02642E-03
 -1      7929-6.79796E-03 2.55301E-04 8.03937E-03
 -1      7930-9.45389E-03 2.59589E-05 6.38698E-03
 -1      7931-9.91666E-03 3.14695E-05 6.27984E-03
 -1      7932-9.15036E-05-1.06567E-05 6.25688E-03
 -1      7933-9.93820E-03 5.32626E-05-3.73375E-05
 -1      7934-4.25771E-04 1.52548E-04 5.40803E-03
 -1      7935-6.42169E-04 1.73765E-04 5.65623E-03
 -1      7936-6.19972E-05 5.25874E-05-3.69440E-05
 -1      7937-7.69766E-05 6.41942E-05-2.85532E-05
 -1      7938-3.11001E-03-5.01440E-04 4.14390E-03
 -1      7939-6.82886E-03-4.98114E-04 7.30269E-03
 -1      7940-9.01026E-05 7.38938E-05-1.67101E-05
 -1      7941-9.45804E-03 1.89209E-04 9.00513E-04
 -1      7942-9.94979E-03-4.26422E-05-4.27711E-05
 -1      7943-9.94558E-03-3.65312E-05-3.96265E-05
 -1      7944-9.80882E-04-2.19961E-04 6.33560E-03
 -1      7945-6.76033E-04-1.72173E-04 6.29953E-03
 -1      7946-9.52538E-03-1.45326E-04 4.56501E-03
 -1      7947-9.41703E-03-1.47495E-04 4.41050E-03
 -1      7948-2.23934E-03 7.35920E-05 7.10059E-03
 -1      7949-9.96596E-03-2.71740E-05-4.22027E-05
 -1      7950-9.89837E-03-7.04406E-05-5.30833E-05
 -1      7951-9.87113E-03-7.63203E-05-1.33452E-05
 -1      7952-6.49801E-03-5.06202E-04 5.24242E-03
 -1      7953-9.90851E-03 1.11993E-05 6.27961E-03
 -1      7954-6.83536E-04-1.05564E-04 6.22079E-03
 -1      7955-5.69289E-04-1.23805E-04 6.26936E-03
 -1      7956-5.54317E-04-1.25805E-04 5.69934E-03
 -1      7957-7.86364E-04-1.11007E-04 6.32825E-03
 -1      7958-6.72774E-04-1.30745E-04 6.37258E-03
 -1      7959-6.21598E-04 1.50371E-04 3.40729E-03
 -1      7960-4.88602E-03 4.73312E-04 9.77156E-03
 -1      7961-8.62342E-03-4.72032E-04 7.06843E-04
 -1      7962-8.61980E-03-4.01304E-04 8.56449E-04
 -1      7963-8.96263E-05 3.03974E-05 6.24970E-03
 -1      7964-9.30975E-03 1.51736E-04 6.37910E-03
 -1      7965-9.49066E-03-6.47033E-05 3.12094E-03
 -1      7966-9.45059E-03-1.39470E-04 3.85791E-03
 -1      7967-9.48987E-03-1.35126E-04 3.28804E-03
 -1      7968-9.95618E-03 3.72892E-05-3.87295E-05
 -1      7969-9.89831E-03 7.06171E-05-5.30340E-05
 -1      7970-9.92911E-03 4.79850E-05-3.21347E-05
 -1      7971-6.89990E-03-1.35159E-04 4.23881E-03
 -1      7972-1.86943E-03-4.48531E-04 1.47204E-03
 -1      7973-1.62315E-03-4.29271E-04 1.15314E-03
 -1      7974-8.92527E-03-1.61976E-05 9.15257E-04
 -1      7975-2.32258E-03-3.42581E-04 5.66571E-03
 -1      7976-3.13521E-03-4.62888E-04 6.96379E-03
 -1      7977-2.59120E-03-4.84060E-04 7.32976E-03
 -1      7978-3.00111E-03-4.77642E-04 7.82887E-03
 -1      7979-3.52277E-03-5.23550E-04 7.69015E-03
 -1      7980-1.07870E-04 9.01024E-05-3.77838E-06
 -1      7981-2.72251E-04 1.74488E-04 2.01502E-05
 -1      7982-1.75606E-04 1.09671E-04 3.39590E-05
 -1      7983-5.71458E-03-5.35557E-04 7.97366E-03
 -1      7984-1.12174E-04 9.03232E-05 1.64114E-05
 -1      7985-3.02653E-04 1.92557E-04 5.01470E-05
 -1      7986-9.96649E-03 2.57502E-05-4.20360E-05
 -1      7987-9.94586E-03 3.65053E-05-3.89769E-05
 -1      7988-4.79440E-03-5.59006E-04 9.74081E-03
 -1      7989-4.37458E-05 3.70740E-05-3.84805E-05
 -1      7990-1.36702E-04 9.53440E-05-4.25976E-05
 -1      7991-1.00684E-04 7.00582E-05-5.31845E-05
 -1      7992-9.50722E-03-1.53692E-04 4.99351E-03
 -1      7993-8.91725E-03-2.33034E-04 5.65053E-03
 -1      7994-9.39492E-03-1.67329E-04 5.59210E-03
 -1      7995-9.41298E-03-1.57150E-04 5.13885E-03
 -1      7996-1.73605E-03-3.52847E-04 6.70094E-03
 -1      7997-4.79924E-03 5.61094E-04 9.74138E-03
 -1      7998-8.85613E-03-4.24006E-04 5.15474E-04
 -1      7999-9.89207E-03 9.04609E-05-3.02209E-06
 -1      8000-9.84853E-03 9.75049E-05 2.73714E-05
 -1      8001-4.28360E-03-4.80157E-04 7.83864E-03
 -1      8002-3.48769E-03-5.24052E-04 4.87443E-03
 -1      8003-4.89442E-03-5.41851E-04 9.85663E-03
 -1      8004-3.96186E-03-5.28296E-04 7.79265E-03
 -1      8005-1.58270E-03 4.69423E-04 1.00978E-03
 -1      8006-3.35064E-05 2.56956E-05-4.19280E-05
 -1      8007-5.34330E-05 3.60826E-05-3.89362E-05
 -1      8008-9.88803E-03 9.05311E-05 1.66732E-05
 -1      8009-9.72397E-03 1.80999E-04 4.22207E-05
 -1      8010-9.97341E-03-1.29369E-05-2.25699E-05
 -1      8011-9.70067E-03 1.18787E-04 9.70853E-04
 -1      8012-9.88997E-03-8.87270E-05 1.66082E-05
 -1      8013-9.90097E-03-8.24562E-05-2.15844E-06
 -1      8014-9.72411E-03-1.80766E-04 4.15300E-05
 -1      8015-9.85057E-03-9.68885E-05 2.67989E-05
 -1      8016-3.68405E-04-6.93228E-05 1.94892E-03
 -1      8017-8.94576E-03-4.03419E-05 7.01793E-04
 -1      8018-8.77414E-03-2.33948E-05 8.84722E-04
 -1      8019-5.64045E-04-1.43544E-04 6.24414E-03
 -1      8020-6.69467E-04-1.52861E-04 6.33877E-03
 -1      8021-4.38596E-03-5.29833E-04 8.17804E-03
 -1      8022-1.56156E-04-1.50345E-05 8.19067E-05
 -1      8023-7.27575E-03-5.17212E-04 3.06619E-03
 -1      8024-9.81419E-05-8.11648E-05-7.86152E-07
 -1      8025-2.79748E-04-1.82714E-04 4.23385E-05
 -1      8026-7.41448E-04 2.15725E-04 6.46402E-03
 -1      8027-9.53554E-04 2.25039E-04 5.94512E-03
 -1      8028-2.52328E-03 8.10299E-05 5.81802E-03
 -1      8029-8.86738E-03 2.39406E-04 5.50894E-03
 -1      8030-8.27724E-03 3.70113E-04 1.33550E-03
 -1      8031-1.10355E-04-8.88284E-05 1.74150E-05
 -1      8032-1.52782E-04-9.86801E-05 2.87406E-05
 -1      8033-9.55548E-03-1.34181E-04 3.45900E-03
 -1      8034-8.85202E-03 4.23875E-04 5.20615E-04
 -1      8035-1.60527E-04 1.73650E-05 8.30662E-05
 -1      8036-2.67836E-03-4.19887E-04 5.77762E-03
 -1      8037-8.79651E-03-3.87938E-04 6.33074E-04
 -1      8038-6.85137E-03 4.93010E-04 7.26775E-03
 -1      8039-8.61304E-03 4.65567E-04 7.29732E-04
 -1      8040-9.33874E-03 1.73300E-04 5.46511E-03
 -1      8041-9.90749E-03-5.21580E-05 6.26798E-03
 -1      8042-9.95552E-03-1.74452E-05-1.57052E-05
 -1      8043-5.18419E-04-1.26046E-04 2.54655E-04
 -1      8044-8.41199E-03-2.36351E-04 1.29689E-03
 -1      8045-9.97653E-03-1.30668E-05-2.85512E-05
 -1      8046-9.95321E-03-2.29482E-05-2.00720E-05
 -1      8047-3.01750E-03-5.64459E-04 7.80874E-03
 -1      8048-3.40750E-03-5.34165E-04 8.27363E-03
 -1      8049-9.50591E-03 1.54716E-04 5.00955E-03
 -1      8050-9.93951E-03-3.67454E-05-7.01144E-05
 -1      8051-9.89923E-03-6.25927E-05-6.26855E-05
 -1      8052-9.92726E-03-4.48240E-05-4.29170E-05
 -1      8053-6.05532E-05 3.70101E-05-6.99782E-05
 -1      8054-1.01003E-04 6.27930E-05-6.24725E-05
 -1      8055-7.21159E-05 4.43227E-05-4.29958E-05
 -1      8056-3.33870E-03 1.43619E-04 8.32682E-03
 -1      8057-9.97482E-03-1.35671E-05-3.22248E-05
 -1      8058-9.97413E-03-1.48216E-05-3.89056E-05
 -1      8059-9.94386E-03-3.27202E-05-2.82611E-05
 -1      8060-2.53209E-05 1.32771E-05-3.20381E-05
 -1      8061-2.58325E-05 1.46706E-05-3.88997E-05
 -1      8062-2.76387E-04 1.40950E-04 5.78588E-03
 -1      8063-4.30908E-04 1.65776E-04 6.17184E-03
 -1      8064-1.23577E-04-6.93477E-05 5.62515E-05
 -1      8065-1.31630E-04-9.04148E-05 5.47390E-05
 -1      8066-3.14912E-04-1.72725E-04 1.02520E-04
 -1      8067-9.71172E-03 1.93480E-04 8.41310E-05
 -1      8068-9.55610E-03 2.63923E-04 1.03643E-04
 -1      8069-9.68931E-03 1.71098E-04 1.00961E-04
 -1      8070-9.89878E-03 6.28224E-05-6.18235E-05
 -1      8071-9.93926E-03 3.71211E-05-7.00355E-05
 -1      8072-9.92686E-03 4.49768E-05-4.22248E-05
 -1      8073-4.45623E-04 2.64348E-04 1.04796E-04
 -1      8074-2.90274E-04 1.93740E-04 8.45000E-05
 -1      8075-3.41706E-04 1.83091E-04 1.12322E-04
 -1      8076-1.01064E-04-6.28168E-05-6.15280E-05
 -1      8077-6.06113E-05-3.70957E-05-6.98135E-05
 -1      8078-1.01239E-04-7.03382E-05-5.29835E-05
 -1      8079-7.29230E-05-4.48405E-05-4.21341E-05
 -1      8080-2.61515E-05-1.48217E-05-3.93091E-05
 -1      8081-2.55627E-05-1.34883E-05-3.22352E-05
 -1      8082-5.38993E-05-3.63638E-05-3.87640E-05
 -1      8083-9.55432E-03-2.64514E-04 1.04223E-04
 -1      8084-9.71061E-03-1.94678E-04 8.48982E-05
 -1      8085-9.68928E-03-1.70757E-04 1.01130E-04
 -1      8086-9.97382E-03 1.48148E-05-3.94571E-05
 -1      8087-9.97448E-03 1.35593E-05-3.23877E-05
 -1      8088-9.50175E-03-1.42319E-04 2.98529E-03
 -1      8089-9.86939E-03-9.02614E-05 5.30986E-05
 -1      8090-9.87877E-03-6.96089E-05 5.19934E-05
 -1      8091-3.51969E-03-5.12842E-04 5.39318E-03
 -1      8092-1.30605E-04 9.01194E-05 5.31316E-05
 -1      8093-1.21193E-04 6.93072E-05 5.21333E-05
 -1      8094-9.88037E-03 6.89597E-05 5.12913E-05
 -1      8095-9.87129E-03 8.94424E-05 5.22765E-05
 -1      8096-3.57939E-03-6.38480E-04 8.71607E-03
 -1      8097-3.37945E-03-6.42526E-04 8.40633E-03
 -1      8098-3.82053E-03-5.61191E-04 8.27333E-03
 -1      8099-6.93036E-03-3.29620E-04 4.01521E-03
 -1      8100-3.25994E-03 8.66148E-05 8.24434E-03
 -1      8101-2.89782E-04-1.94523E-04 8.57142E-05
 -1      8102-4.46009E-04-2.64533E-04 1.04994E-04
 -1      8103-1.37566E-04 6.49047E-05 6.30653E-05
 -1      8104-1.53497E-04 5.77273E-05 7.13742E-05
 -1      8105-8.42700E-03 4.76683E-04 9.75907E-04
 -1      8106-1.81245E-03-5.07830E-04 1.25871E-03
 -1      8107-1.52766E-03-4.67593E-04 9.53590E-04
 -1      8108-1.96811E-03-5.00507E-04 1.56203E-03
 -1      8109-3.35022E-05-2.57223E-05-4.19268E-05
 -1      8110-9.70981E-03 1.25718E-04 7.59666E-04
 -1      8111-4.38136E-05-3.72468E-05-3.85995E-05
 -1      8112-9.32203E-03 1.80383E-04 5.94077E-03
 -1      8113-9.62300E-03 1.65061E-04 6.44010E-03
 -1      8114-9.55205E-03 1.77792E-04 6.69761E-03
 -1      8115-1.52670E-05 1.78696E-07-1.33930E-05
 -1      8116-7.24190E-03 5.36055E-04 7.64342E-03
 -1      8117-9.62633E-03-1.63840E-04 6.44080E-03
 -1      8118-7.24328E-03-5.34692E-04 7.64374E-03
 -1      8119-9.43120E-03 1.41970E-04 6.29474E-03
 -1      8120-9.27723E-03-1.88645E-04 6.19042E-03
 -1      8121-9.96902E-03 1.27080E-04 6.58763E-03
 -1      8122-7.54515E-04 1.96197E-04 6.26645E-03
 -1      8123-6.53744E-04 1.82593E-04 6.15658E-03
 -1      8124-4.22222E-04 1.75368E-04 6.69654E-03
 -1      8125-2.71336E-04 1.50857E-04 6.30746E-03
 -1      8126-3.71604E-04-1.63360E-04 6.41530E-03
 -1      8127-6.91923E-05 1.33001E-04 6.59201E-03
 -1      8128-8.85415E-03-1.78271E-04 5.48665E-03
 -1      8129-6.72086E-03-3.32111E-04 8.04499E-03
 -1      8130-8.39873E-03-2.13937E-04 1.29180E-03
 -1      8131-9.27121E-03 1.22642E-04 4.03491E-04
 -1      8132-2.90497E-04-6.60511E-05 1.24262E-03
 -1      8133-9.41494E-03 1.21920E-04 6.31880E-03
 -1      8134-9.43165E-03 1.05448E-04 5.81582E-03
 -1      8135-7.31719E-03-3.38029E-04 4.34020E-03
 -1      8136-1.77242E-04 1.21703E-04-2.69590E-05
 -1      8137-3.40078E-03 1.35886E-04 4.96712E-03
 -1      8138-9.42081E-03 1.60554E-04 6.24563E-03
 -1      8139-9.38362E-03-1.61472E-04 6.13455E-03
 -1      8140-9.45131E-03-1.22902E-04 5.92563E-03
 -1      8141-6.43744E-04 1.67180E-04 6.20829E-03
 -1      8142-9.39061E-03-1.74830E-04 6.09383E-03
 -1      8143-6.74696E-05-1.22761E-04 6.14395E-03
 -1      8144-9.92364E-03-1.31281E-04 6.62819E-03
 -1      8145-9.51650E-03-1.79330E-04 6.53957E-03
 -1      8146-7.16230E-05-1.30903E-04 6.59980E-03
 -1      8147-9.30601E-03-8.15554E-05 6.24025E-03
 -1      8148-9.92377E-03-1.23535E-04 6.14434E-03
 -1      8149-8.65645E-05-1.22230E-04 6.06102E-03
 -3
    1PSTEP                         2           1           1          
  100CL  101 1.000000000        8149                     0    1           1
 -4  STRESS      6    1
 -5  SXX         1    4    1    1
 -5  SYY         1    4    2    2
 -5  SZZ         1    4    3    3
 -5  SXY         1    4    1    2
 -5  SYZ         1    4    2    3
 -5  SZX         1    4    3    1
 -1         1 2.28342E-01-2.87995E-01 6.96345E-01 1.01817E-01 2.33069E-01 9.00988E-01
 -1         2 1.08924E+00-5.90248E-01 5.69392E-03 6.31649E-02 1.73713E-01 2.10609E-01
 -1         3 7.89114E-01-6.78301E-01-3.17960E-02-1.52161E-01-1.51308E-01 2.92187E-01
 -1         4 7.74183E-01-2.12103E-01 9.18521E-01-2.79044E-02-4.11047E-01 5.83623E-01
 -1         5-6.69747E+01-6.93637E-01-1.38582E+00-6.29933E-01-7.23872E-02-2.75331E+00
 -1         6-6.66343E+01-3.51048E-01-1.03562E+00 1.30112E+00 7.99613E-01-2.72317E+00
 -1         7-1.20440E+01-3.68720E+00-4.01686E+00 1.46429E+00 2.17564E-01-4.93301E+00
 -1         8-4.87059E+01-1.51208E+01-1.54815E+01 1.09700E+01-1.54126E+00 5.91524E+00
 -1         9-4.87475E+01-1.51439E+01-1.54892E+01-1.09853E+01-1.54547E+00-5.95933E+00
 -1        10-1.19976E+01-3.67420E+00-4.00978E+00-1.45957E+00 2.06436E-01 4.92661E+00
 -1        11 1.09685E+00-5.49813E-01-1.78504E-01 1.07533E-01-2.12891E-01-4.75569E-01
 -1        12 7.76219E-01-3.96022E-01 8.05950E-01 4.52391E-02-3.82173E-01-3.72938E-01
 -1        13-6.66575E+01-6.05359E-01-1.29152E+00-7.39232E-01 1.30369E-01 2.80893E+00
 -1        14 8.57219E-01-6.89109E-01-3.46618E-01-8.07544E-02 2.30983E-01-3.09314E-01
 -1        15 1.07524E+00-1.69618E-01 8.56664E-01-2.69621E-01 4.75641E-01-5.19347E-01
 -1        16-6.64973E+01-6.72485E-01-1.26628E+00 6.70804E-01-1.07147E-01 2.79842E+00
 -1        17-1.19835E+01-3.68342E+00-4.04113E+00 1.51417E+00-2.29514E-01 4.94794E+00
 -1        18-4.87354E+01-1.51232E+01-1.54890E+01 1.09086E+01 1.50210E+00-5.95481E+00
 -1        19-4.87494E+01-1.51465E+01-1.54790E+01-1.09111E+01 1.49824E+00 5.97293E+00
 -1        20-1.19659E+01-3.66443E+00-3.99955E+00-1.45441E+00-2.05552E-01-4.91899E+00
 -1        21 1.82027E-01-7.97411E-01 1.10126E-01 1.62115E-01 1.57552E-01 2.11061E-01
 -1        22 4.16998E-03-5.51663E-01 4.17289E-01 1.47317E-01 1.79685E-01 4.12568E-01
 -1        23 5.71445E-01-6.89001E-01 2.14890E-01 1.17668E-01 1.21774E-01 4.84562E-03
 -1        24 2.12884E+00 5.37697E-01-4.23697E-01-3.03901E-01-4.94887E-01 5.46740E-01
 -1        25 1.27463E+00 2.04245E+00 1.00179E-01-4.00291E-01-2.54170E-01 5.68092E-01
 -1        26 1.88901E+00 3.01101E+00-1.68716E-01-2.10185E-01-2.04681E-01 4.64890E-01
 -1        27 2.29051E+00 3.38873E+00-1.19280E-01-4.16508E-01-7.02005E-02 3.29756E-02
 -1        28 2.05731E+00 3.49089E+00-4.51047E-02-9.54094E-03-2.23965E-02 1.42495E-02
 -1        29 2.06244E+00 3.52462E+00-2.27373E-01-3.74582E-02-1.07249E-01 1.39114E-01
 -1        30 2.13562E+00 3.16486E+00-2.42757E-01 4.48859E-01 1.73020E-01 2.50272E-01
 -1        31 2.23631E+00 2.15407E+00-4.51243E-01 3.80828E-01 3.20028E-01 4.52023E-01
 -1        32 1.51148E+00 4.18752E-01 3.68234E-02 4.92610E-01 3.93170E-01 7.40013E-01
 -1        33 1.34019E+00-1.18273E-01-1.77762E-01-4.64137E-02-3.36864E-02 1.55717E-01
 -1        34 1.77745E+00 1.21837E+00 2.67207E-02-5.09499E-01-4.33828E-01 6.18656E-01
 -1        35 1.44377E+00 2.61852E+00 7.63508E-02-1.55533E-01-9.84060E-02 5.36021E-01
 -1        36 2.14288E+00 3.21254E+00-3.44432E-01-1.02126E-01-7.79382E-02-1.00618E-01
 -1        37 1.94816E+00 3.35077E+00-1.85708E-01-1.61010E-01-6.77111E-02-5.44181E-02
 -1        38 1.94739E+00 3.42538E+00-7.65274E-02 6.58048E-02-4.77778E-02-8.87528E-02
 -1        39 1.91829E+00 3.24308E+00-2.66070E-01 1.49365E-01-5.02273E-02-1.66255E-02
 -1        40 1.83137E+00 2.45596E+00-6.40157E-01 5.03731E-01 3.58122E-01 3.82803E-01
 -1        41 1.66424E+00 1.36636E+00-3.06000E-01 2.99466E-01 3.21935E-01 5.37321E-01
 -1        42 8.80501E-01-3.15289E-01-4.88540E-02 2.65198E-01 8.42195E-02 3.42791E-01
 -1        43-5.17693E-02-9.96203E-01 4.94204E-03-2.09233E-01-1.90268E-01 5.23667E-02
 -1        44-5.41266E-01-1.16355E+00-2.41364E-01-3.75151E-01 2.17774E-02 1.77827E-01
 -1        45 2.61079E-01-5.65631E-01 4.05954E-01-1.28831E-01-2.40912E-01 1.61639E-01
 -1        46 1.07193E+00 1.47924E+00 9.32405E-01 1.61871E-01 1.01923E+00 9.69468E-01
 -1        47 3.00752E+00 3.19913E+00 1.57573E-01 1.53358E-01 5.31767E-01 1.00245E+00
 -1        48 1.93811E+00 3.46933E+00 4.67763E-01 2.55503E-01 4.42560E-01 1.02190E+00
 -1        49 2.03420E+00 3.78429E+00 2.52148E-01 1.10520E-01 1.07289E-01 8.62235E-01
 -1        50 1.82171E+00 3.73808E+00 1.68973E-01 8.90726E-02 6.70610E-02 7.83750E-01
 -1        51 2.45478E+00 3.77189E+00-7.72388E-02-6.58371E-02-1.73737E-01 7.05184E-01
 -1        52 2.93583E+00 3.76391E+00 2.86971E-01-1.95000E-01-3.73832E-01 1.07903E+00
 -1        53 2.06928E+00 2.91710E+00 7.74482E-01-1.17144E-01-7.05028E-01 1.42612E+00
 -1        54 2.11346E+00 1.43007E+00 6.89647E-01-3.71552E-01-9.18511E-01 1.01611E+00
 -1        55-2.98808E-01 2.39868E-01 9.65686E-01-1.83265E-02 2.19994E-01 3.45808E-01
 -1        56 2.69935E+00 2.60329E+00 6.84093E-01 1.89324E-01 6.95104E-01 1.11393E+00
 -1        57 3.05335E+00 3.49194E+00 6.87591E-01 3.35241E-01 5.42031E-01 1.22010E+00
 -1        58 1.15742E+00 3.71805E+00 8.70326E-01 1.03936E-01 6.16276E-02 1.19959E+00
 -1        59 1.13811E+00 3.79010E+00 8.07213E-01 8.62762E-02 4.38549E-02 1.06293E+00
 -1        60 1.15933E+00 3.57434E+00 6.33108E-01-1.14211E-01-1.63273E-01 1.03569E+00
 -1        61 3.11587E+00 4.05461E+00 5.73728E-01 9.79910E-02-1.60655E-01 1.11450E+00
 -1        62 2.55013E+00 3.45894E+00 8.41233E-01-2.86220E-02-4.64823E-01 1.38685E+00
 -1        63 2.38000E+00 2.57971E+00 8.62046E-01-3.91474E-01-8.74915E-01 1.29694E+00
 -1        64 5.83827E-01 4.98903E-01 1.10987E+00 3.07300E-02-2.13423E-01 9.43895E-01
 -1        65-3.89172E+00 8.07143E-01 1.05067E-01-3.61085E-01-1.38357E+00-4.25985E+00
 -1        66-3.69294E+01-1.18363E-01-3.40751E+00-3.37025E+00-1.52248E+00-1.17829E+01
 -1        67-1.66721E-01 2.79708E-01 1.15701E+00-1.57265E-01-3.79412E-01 1.75549E-01
 -1        68-1.67695E+01 1.50938E+00-1.29102E+00-2.22053E+00-2.26602E+00-8.10728E+00
 -1        69-5.87206E+01-1.40072E+00-3.28893E+00-2.11564E+00-7.81808E-01-8.50179E+00
 -1        70-6.80659E+01-5.81992E+00-3.56824E+00-2.86356E+00 7.51831E-01-3.76142E+00
 -1        71-6.74282E+01-9.49007E+00-3.03649E+00-1.69636E+00 1.92272E-01-3.78408E+00
 -1        72-6.71371E+01-1.18261E+01-3.52316E+00-1.27636E+00 6.20134E-01-3.98771E+00
 -1        73-7.35250E+01-1.41472E+01-2.27703E+00-4.15843E-01 5.99623E-02-4.86914E+00
 -1        74-7.00218E+01-1.41277E+01-4.18005E+00-1.17947E-01 3.82514E-02-5.04871E+00
 -1        75-7.17713E+01-1.38918E+01-2.88983E+00 5.47134E-01-1.91387E-01-3.97059E+00
 -1        76-7.02563E+01-1.29637E+01-4.04041E+00 9.33702E-01-2.94853E-01-4.75208E+00
 -1        77-6.59199E+01-9.58434E+00-3.66839E+00 2.31870E+00-5.96150E-01-3.96705E+00
 -1        78-6.58955E+01-4.78931E+00-2.75160E+00 2.27192E+00-4.82573E-01-3.13380E+00
 -1        79-6.79592E+01-3.23835E+00-1.70303E+00-2.33223E+00 6.34327E-01-4.34601E+00
 -1        80-6.84106E+01-8.20178E+00-2.73020E+00-2.18189E+00 3.41851E-01-3.34394E+00
 -1        81-6.68011E+01-9.89970E+00-3.66508E+00-1.56079E+00 4.20276E-01-3.28440E+00
 -1        82-7.09860E+01-1.31911E+01-2.40806E+00-9.86839E-01 6.32228E-02-4.57744E+00
 -1        83-7.12368E+01-1.40367E+01-2.61557E+00-2.00338E-01 3.92884E-01-4.51841E+00
 -1        84-7.17035E+01-1.43212E+01-3.77354E+00-5.51164E-02-3.53341E-01-4.42019E+00
 -1        85-7.09598E+01-1.33114E+01-3.15238E+00 9.08441E-01-2.95041E-02-4.08217E+00
 -1        86-6.92439E+01-1.17597E+01-3.53034E+00 2.01792E+00-4.96428E-01-4.68766E+00
 -1        87-6.58840E+01-6.53941E+00-2.71465E+00 2.83954E+00-5.66096E-01-2.97321E+00
 -1        88-6.67952E+01-2.66870E+00-1.11175E+00 2.17253E+00 1.62150E-02-3.67443E+00
 -1        89-3.55945E+01-5.45806E-01-3.63772E+00 2.95039E+00 1.38988E+00-1.15770E+01
 -1        90-4.25165E+00 7.74555E-01 1.75610E-01 3.77349E-01 1.42146E+00-4.36430E+00
 -1        91-5.81154E+01-1.47269E+00-3.28541E+00 1.88066E+00 1.29572E+00-8.79445E+00
 -1        92-1.67348E+01 7.98990E-01-1.82451E+00 2.18940E+00 2.62898E+00-8.04034E+00
 -1        93-2.03829E-01 2.99932E-01 1.31831E+00 2.69290E-01 4.31348E-01-5.16935E-02
 -1        94 1.30188E+00-1.57279E-02-1.82774E-02-1.10761E-02-2.62258E-04-1.43764E-01
 -1        95 2.06629E-01-3.28763E-02-2.63552E-02-1.63096E-02-1.51404E-02-8.33713E-03
 -1        96 1.97758E-01-2.81505E-02-4.02551E-02-1.94364E-02-3.98300E-02-1.62511E-03
 -1        97 4.13901E-01-2.26672E-02-1.37312E-02-5.58902E-02-1.32860E-02-3.85508E-02
 -1        98 6.65557E-01-2.15696E-02-2.35382E-02-9.88906E-02-2.22552E-02-9.98731E-02
 -1        99 8.08875E-01-5.73811E-03-2.50596E-02-1.94021E-01-4.17073E-02-1.84565E-01
 -1       100 8.82614E-01-3.57770E-02-2.82879E-02-2.33657E-01-4.52305E-02-2.08249E-01
 -1       101 7.43514E-01-2.38451E-02 7.60763E-03-2.96351E-01-6.33237E-02-1.99265E-01
 -1       102-2.65575E-01 2.73784E-01 2.60329E-01-6.42564E-01-1.32395E-02-2.51260E-01
 -1       103 1.75874E+00-6.12572E-02 2.14679E-01-1.16359E-01-4.36634E-02 1.32585E-01
 -1       104 5.90831E-01-6.31043E-02-8.64955E-02-2.14103E-02-2.26627E-02-7.91962E-02
 -1       105 1.31542E-01-5.54908E-02-4.32096E-02-1.70094E-02-3.88376E-02-7.11245E-03
 -1       106 2.94106E-01-3.32964E-02-2.12318E-02-4.18207E-02-3.22031E-02-1.72190E-02
 -1       107 5.27428E-01-2.54064E-02-2.66739E-02-7.55966E-02 2.48200E-03-6.53933E-02
 -1       108 7.63966E-01-1.72392E-02-2.28732E-02-1.49113E-01-3.23733E-02-1.57418E-01
 -1       109 8.72523E-01-3.24661E-02-3.32671E-02-2.09568E-01-2.36395E-02-1.95835E-01
 -1       110 8.79200E-01-1.09993E-02-1.35558E-02-2.67162E-01-5.80128E-02-2.08667E-01
 -1       111 3.54635E-01 8.51804E-02 6.27335E-02-3.56108E-01-3.82324E-02-2.79413E-01
 -1       112-5.88867E+00-2.79605E-01-3.58307E-01-1.05983E-01-1.15676E-01-1.81202E+00
 -1       113-1.65513E+01-6.77980E+00-7.24138E+00 4.71178E+00 1.50364E-01-5.54919E+00
 -1       114-2.88387E+01-1.23003E+01-1.21557E+01 8.37010E+00-3.98864E-02-4.26432E+00
 -1       115-4.05540E+01-1.68941E+01-1.71255E+01 1.17641E+01 4.31370E-01-1.95268E+00
 -1       116-1.26499E+01-5.42141E+00-5.42138E+00 3.31266E+00 1.62736E-05-5.30171E+00
 -1       117-2.38446E+01-1.02193E+01-1.02192E+01 6.89100E+00 3.45223E-05-5.09883E+00
 -1       118-3.37095E+01-1.44471E+01-1.44470E+01 9.79672E+00 1.90168E-05-2.96014E+00
 -1       119-4.96987E+01-2.12997E+01-2.12995E+01 1.36895E+01 5.02300E-06 1.00896E+00
 -1       120-2.88594E+01 9.90643E-01 9.48089E-01 2.49157E-01 8.28381E-02-1.63466E+00
 -1       121-3.08477E+01 8.56108E-02 7.05689E-02 2.07458E-01-1.01090E-03-4.75601E-01
 -1       122-3.19072E+01 5.05774E-02 1.71428E-02 1.68611E-01-1.47447E-02-2.10195E-01
 -1       123-3.25463E+01 1.71840E-02 3.44113E-02 1.03308E-01-3.90842E-02-1.48374E-01
 -1       124-3.29955E+01 1.83678E-02 6.07071E-03 5.08876E-02-1.33544E-02-6.70155E-02
 -1       125-3.33962E+01 3.05659E-02 1.20028E-02-1.80640E-03-2.09720E-02-1.47593E-02
 -1       126-3.38404E+01 2.66660E-02 2.54343E-03-4.02778E-02-1.80016E-02 2.38483E-02
 -1       127-3.41423E+01 1.11348E-02-2.53343E-02-1.68114E-01-3.39464E-03 1.24120E-01
 -1       128-3.28732E+01-2.02313E-01-2.64964E-02-4.06571E-01 5.95608E-02 8.67268E-01
 -1       129-2.80800E+01-7.13966E-02 1.26372E-01-1.10639E+00 8.70203E-02 1.47240E+00
 -1       130-1.32521E+01 3.05509E-02 1.72738E-01-1.65733E+00 1.82128E-01 3.41137E+00
 -1       131-5.81573E-01-1.60326E-01-2.23222E-01-1.36120E+00 1.99091E-01 1.51002E+00
 -1       132 1.60939E+00 2.71642E-01-1.66836E-01-4.92411E-01 1.17480E-01 3.27699E-01
 -1       133 1.75281E+00-6.33023E-02-2.32702E-02 2.39738E-01 3.19196E-02-2.26227E-01
 -1       134-8.97835E-01 1.02114E-01-1.34430E-01 1.42237E+00 1.82282E-01-1.35226E+00
 -1       135-1.33983E+01 6.74962E-02 1.44936E-01 1.65432E+00-1.14883E-01-3.86601E+00
 -1       136-2.77061E+01-1.11226E-01-1.19191E-01 1.16520E+00 1.85323E-02-1.63371E+00
 -1       137-3.31952E+01-2.30301E-02-2.44713E-02 4.98457E-01-6.68134E-02-4.50216E-01
 -1       138-3.39719E+01-7.55547E-02 2.46853E-02 1.87378E-01-1.70867E-02-2.36839E-01
 -1       139-3.38541E+01 3.46930E-02 2.84104E-03 4.59898E-02-1.42820E-02-2.82920E-02
 -1       140-3.34139E+01 1.77571E-02 1.34460E-02-2.19308E-03-1.56040E-02 1.09809E-02
 -1       141-3.29842E+01 2.09323E-02 1.17478E-02-4.31950E-02-1.69280E-02 6.10682E-02
 -1       142-3.25486E+01 3.55989E-02 1.66244E-02-1.00781E-01-3.84189E-02 1.41859E-01
 -1       143-3.19180E+01 4.21855E-02 3.45511E-02-1.73274E-01-6.26265E-02 2.75610E-01
 -1       144-3.08533E+01 9.21543E-02 5.82424E-02-2.00269E-01 6.29598E-03 4.65922E-01
 -1       145-2.88672E+01 9.74093E-01 9.59423E-01-1.99568E-01 9.40247E-02 1.66202E+00
 -1       146-3.69238E+01-9.89796E-01-1.50571E+00 3.72935E+00-8.46834E-02 6.21037E-01
 -1       147-3.03273E+01 9.73803E-02 7.09655E-02 6.26394E-01-1.62209E-01-6.45281E-01
 -1       148-3.14003E+01 6.39656E-02 3.91437E-02 2.10038E-01-3.74203E-02-2.92167E-01
 -1       149-3.22783E+01 4.05544E-02 2.03324E-02 1.41128E-01-5.96426E-02-1.66473E-01
 -1       150-3.27623E+01 1.84041E-02 3.15875E-02 7.02370E-02-3.01064E-02-1.09579E-01
 -1       151-3.32046E+01 3.04488E-02 1.28796E-02 1.97926E-02-1.95109E-02-4.01291E-02
 -1       152-3.36146E+01 2.01946E-02 1.52373E-02-2.43830E-02 9.88110E-03 4.67714E-03
 -1       153-3.40222E+01 1.19057E-02 4.41758E-03-8.61251E-02 2.70256E-03 9.26738E-02
 -1       154-3.36809E+01-4.13484E-02 3.41480E-02-3.27758E-01-3.66650E-02 4.87292E-01
 -1       155-3.09923E+01-3.97177E-02-2.85087E-01-8.28627E-01 2.24708E-01 1.37724E+00
 -1       156-2.08579E+01-1.47123E-01-2.42964E-01-1.18397E+00 6.95942E-02 2.30311E+00
 -1       157-6.99595E+00-2.50188E-01-1.43911E-02-1.66472E+00 4.13255E-01 2.42322E+00
 -1       158 5.87499E-01-3.38550E-02-1.34114E-02-8.51014E-01-1.23266E-01 7.69522E-01
 -1       159 1.91967E+00-1.83040E-01-1.86762E-01-1.86000E-01 1.19530E-03 9.38709E-02
 -1       160 7.94182E-01 1.84092E-01 1.13489E-01 7.37327E-01-9.07145E-02-9.86795E-01
 -1       161-6.58395E+00 2.65842E-01 6.15328E-01 1.66102E+00 2.56053E-01-2.04500E+00
 -1       162-2.03337E+01-1.00263E-01-3.02182E-01 1.57376E+00-3.96052E-01-2.83217E+00
 -1       163-3.12746E+01-3.02667E-01-3.49825E-01 8.17038E-01-2.84777E-02-1.12622E+00
 -1       164-3.39208E+01-9.38979E-02-7.22428E-02 2.95061E-01 8.38377E-02-3.71474E-01
 -1       165-3.39350E+01 6.18377E-03 3.70455E-02 1.19433E-01-3.64827E-04-1.35028E-01
 -1       166-3.36583E+01 2.13235E-02 1.58479E-02 3.29253E-02-3.62429E-02-7.07384E-03
 -1       167-3.31923E+01 1.80492E-02 2.08520E-02-1.96725E-02 3.86485E-03 3.75095E-02
 -1       168-3.27737E+01 3.19467E-02 2.79409E-02-6.75027E-02-3.61400E-02 9.68383E-02
 -1       169-3.22407E+01 6.15054E-02 4.64941E-02-1.39525E-01-5.67785E-02 1.90848E-01
 -1       170-3.14106E+01 7.45734E-02 4.62059E-02-2.10840E-01-7.13868E-02 3.24613E-01
 -1       171-3.03627E+01 8.76917E-02 6.81412E-02-5.88287E-01-1.53583E-01 6.31562E-01
 -1       172-3.68859E+01-9.55765E-01-1.46248E+00-3.70554E+00-6.95034E-02-6.11745E-01
 -1       173-4.07009E+01-1.69407E+01-1.71610E+01-1.17642E+01 4.42153E-01 1.90699E+00
 -1       174-2.90066E+01-1.23008E+01-1.21182E+01-8.44249E+00-8.52481E-02 4.34303E+00
 -1       175-1.65427E+01-6.78105E+00-7.25699E+00-4.73449E+00 1.46357E-01 5.58398E+00
 -1       176-4.97358E+01-2.13156E+01-2.13155E+01-1.36992E+01 4.89627E-06-1.05520E+00
 -1       177-3.39685E+01-1.45581E+01-1.45580E+01-9.80025E+00 2.04277E-05 2.95783E+00
 -1       178-2.39392E+01-1.02598E+01-1.02597E+01-6.97533E+00 3.66194E-05 5.20817E+00
 -1       179-1.26111E+01-5.40478E+00-5.40475E+00-3.32163E+00 1.67192E-05 5.31382E+00
 -1       180-2.53464E-01 2.77698E-01 2.71430E-01 6.40667E-01 1.21476E-03 2.66445E-01
 -1       181 7.72488E-01-2.49025E-02 1.80751E-02 3.24314E-01-6.36288E-02 2.42829E-01
 -1       182 9.04114E-01-4.72910E-02-2.99859E-02 2.74558E-01-4.93865E-02 2.15662E-01
 -1       183 8.28567E-01-1.06842E-02-4.00733E-02 2.11958E-01-5.08928E-02 1.79689E-01
 -1       184 6.82675E-01-1.96927E-02-1.29720E-02 1.10269E-01-2.06501E-02 9.82647E-02
 -1       185 4.54351E-01-9.09021E-03-2.59711E-02 7.08133E-02-3.24631E-02 5.09619E-02
 -1       186 2.06074E-01-1.65308E-02-1.41189E-02 1.19366E-02-1.39684E-02-2.40415E-03
 -1       187 3.11233E-01-5.59241E-02-6.27064E-02-4.54526E-03-6.14309E-02 2.33337E-02
 -1       188 1.45641E+00-2.94074E-02-2.02223E-02-1.09795E-02-2.14755E-02 1.01115E-01
 -1       189-5.88330E+00-2.88702E-01-3.75954E-01 1.06653E-01-1.28630E-01 1.82033E+00
 -1       190 3.93077E-01 8.40576E-02 1.09670E-01 3.63947E-01-5.33915E-02 3.14926E-01
 -1       191 8.93289E-01-2.10482E-02-7.73722E-03 2.89457E-01-3.91316E-02 2.40725E-01
 -1       192 8.90174E-01-3.53036E-02-3.77036E-02 2.48495E-01-2.96139E-02 1.95527E-01
 -1       193 7.79549E-01-1.92943E-02-3.08589E-02 1.60396E-01-1.80018E-02 1.42965E-01
 -1       194 5.71171E-01-1.80768E-02-1.64041E-02 9.36559E-02-3.46234E-02 7.10502E-02
 -1       195 3.19696E-01-2.24942E-02-1.91491E-02 4.50482E-02-1.55443E-02 2.64250E-02
 -1       196 1.88572E-01-4.44862E-02-3.92035E-02 4.14681E-03-3.14176E-02 9.84868E-03
 -1       197 6.75478E-01-1.04689E-01-1.38986E-01-2.47377E-03-5.99747E-02 5.41777E-02
 -1       198 1.74942E+00-1.30901E-01-1.30813E-01 1.05998E-01-1.82370E-01-1.73846E-01
 -1       199 1.59055E-02-9.27727E-01 7.69346E-02-7.56614E-02-8.43921E-03-3.04449E-02
 -1       200 1.21108E-01-6.59116E-01 3.47436E-01-5.04417E-02-9.07404E-02-1.22275E-01
 -1       201-5.48733E-01-1.08449E+00-2.67792E-01 1.99638E-01 1.63225E-01-1.46492E-01
 -1       202-2.17298E+00 8.91794E-01-2.26670E-01-6.16851E-01 1.37161E+00 2.84629E+00
 -1       203-3.61608E+01-5.79994E-02-4.02383E+00-3.31866E+00 1.83658E+00 1.20961E+01
 -1       204 8.17288E-01 3.47387E-01 1.69970E+00-7.31680E-02 1.40113E-01-1.53379E-01
 -1       205-1.71158E+01 9.98892E-01-2.16011E+00-2.02904E+00 2.48230E+00 8.32668E+00
 -1       206-5.84634E+01-1.43717E+00-3.80633E+00-2.20376E+00 7.08081E-01 8.32410E+00
 -1       207-6.25042E+01 1.33111E-01 1.68432E-01-2.72749E-01 1.23042E-01-4.29630E-01
 -1       208-6.34307E+01 1.41972E-01 1.10290E-01-1.03918E-02 1.27110E-01-2.01508E-02
 -1       209-6.24714E+01 1.35494E-01 1.75148E-01 2.65078E-01 9.54428E-02 4.24870E-01
 -1       210-6.32486E+01-2.39424E-01-6.78772E-01-6.37526E-01 2.66655E-01 6.38762E-01
 -1       211-6.31716E+01 1.06631E-01 2.02659E-02-1.14819E-01 2.40239E-01-2.25811E-01
 -1       212-6.31031E+01 1.16212E-01 7.95686E-02 1.51170E-01 1.22222E-01 1.51830E-01
 -1       213-6.30399E+01-2.39552E-01-6.07226E-01 6.43979E-01 3.11698E-01-4.81985E-01
 -1       214 2.05212E+00 3.64310E-01-1.67158E-01-5.12878E-01 3.28841E-01-7.93291E-01
 -1       215 1.33969E+00 2.22016E+00 1.27504E-01-4.02510E-01 2.59171E-01-6.17344E-01
 -1       216 2.36748E+00 3.09645E+00-4.18314E-02-1.72469E-01 5.54163E-02-5.31767E-01
 -1       217 1.71601E+00 3.35996E+00-2.16963E-01-1.20390E-01-7.19879E-02-1.80191E-01
 -1       218 1.75196E+00 3.42882E+00-1.54327E-01-9.01095E-02 5.10515E-02-2.75571E-01
 -1       219 1.94925E+00 3.50525E+00-3.52168E-01 2.30699E-01-5.71316E-02-2.56109E-01
 -1       220 2.27858E+00 3.04270E+00-2.17681E-01 2.83702E-01-1.01214E-01-3.89542E-01
 -1       221 2.59829E+00 2.19019E+00-3.55468E-01 4.01026E-01-2.40891E-01-3.11225E-01
 -1       222 1.60973E+00 3.21007E-01 3.76063E-02 4.52290E-01-5.85579E-01-6.36784E-01
 -1       223 7.55438E-01-4.18865E-01-3.73401E-02-2.81130E-01 9.38819E-02-4.57227E-01
 -1       224 1.47666E+00 1.25020E+00 1.54903E-02-5.52809E-01 3.92266E-01-6.89658E-01
 -1       225 1.57062E+00 2.67837E+00 1.48598E-02-3.60571E-02 8.51277E-03-5.77908E-01
 -1       226 1.84641E+00 3.26046E+00 1.00348E-01-3.68656E-01-2.71926E-02-2.52668E-01
 -1       227 1.63090E+00 3.14733E+00-3.79100E-01-9.08642E-02-1.71926E-02-1.26436E-01
 -1       228 1.70956E+00 3.41266E+00-1.89991E-01 4.83898E-02-3.01437E-03-3.96806E-03
 -1       229 1.83866E+00 3.06635E+00-6.72362E-01 3.39620E-01 2.77988E-02 1.07491E-01
 -1       230 2.25657E+00 2.58307E+00-2.92587E-01 4.97939E-01-1.75626E-01-2.19122E-01
 -1       231 1.76489E+00 1.26853E+00-3.21096E-01 1.38536E-01-2.24028E-01-4.97083E-01
 -1       232 9.17432E-01-2.96074E-01-3.41707E-02 1.51850E-01-1.59460E-01-4.14159E-01
 -1       233-1.15993E-01-7.58812E-01-2.06293E-01-8.25827E-02 1.77912E-01 6.11181E-02
 -1       234-8.92202E-02-8.75658E-01-3.40979E-01-3.00128E-02 2.15159E-01 4.12085E-02
 -1       235 3.21761E-01-2.75636E-01 4.38888E-01-2.26156E-01 6.96722E-02 1.60238E-01
 -1       236 1.05889E+00 1.17041E+00 1.01548E+00 4.39057E-01-7.99815E-01-1.06183E+00
 -1       237 3.28449E+00 3.06654E+00-1.74416E-01 5.37862E-01-7.47664E-01-4.90839E-01
 -1       238 3.09258E+00 3.76298E+00 2.60027E-01 3.15091E-01-4.35927E-01-1.09144E+00
 -1       239 1.58707E+00 3.76469E+00 4.20366E-01 6.05885E-02-1.78190E-01-9.23132E-01
 -1       240 1.72490E+00 3.80993E+00 4.75351E-01-6.79596E-03 2.51366E-02-9.03492E-01
 -1       241 1.85136E+00 3.73894E+00 3.54719E-01-1.08658E-02 1.09264E-01-8.73226E-01
 -1       242 2.75395E+00 3.64168E+00 1.53325E-01-3.29258E-01 5.56827E-01-7.73325E-01
 -1       243 1.61309E+00 2.79143E+00 6.70469E-01-1.93343E-01 6.13264E-01-1.25364E+00
 -1       244 2.28011E+00 1.79371E+00 7.87528E-01-3.49396E-01 1.02443E+00-1.05542E+00
 -1       245 3.29814E-03 2.94534E-01 8.60417E-01 3.92828E-02-2.47484E-01-5.96230E-01
 -1       246 3.18635E+00 2.69019E+00 9.30050E-01 1.61878E-01-5.86335E-01-1.24853E+00
 -1       247 3.25867E+00 3.56695E+00 4.26452E-01 5.87212E-01-5.68687E-01-1.07669E+00
 -1       248 3.10943E+00 4.17716E+00 9.76819E-01 2.39147E-01-3.13500E-01-1.18248E+00
 -1       249 1.09633E+00 3.97492E+00 1.12290E+00-1.16189E-02-3.95279E-02-1.15625E+00
 -1       250 1.13351E+00 3.62074E+00 1.07734E+00-6.92078E-02 8.77587E-02-1.08485E+00
 -1       251 1.16887E+00 3.71921E+00 9.06008E-01-3.00055E-01 3.27482E-01-1.01907E+00
 -1       252 2.62315E+00 3.49736E+00 1.06442E+00 1.21090E-01 3.24377E-01-1.35791E+00
 -1       253 2.40150E+00 2.64478E+00 9.46332E-01-5.90088E-01 1.03868E+00-1.35769E+00
 -1       254-2.86323E-01 1.19116E-01 9.76852E-01 1.34794E-01 1.46843E-01-3.45483E-01
 -1       255-6.59456E+01-4.91690E+00-4.14537E+00 2.92620E+00 5.78586E-01 4.04346E+00
 -1       256-6.45503E+01-9.33406E+00-5.74483E+00 2.00346E+00 4.15105E-01 4.59667E+00
 -1       257-6.74074E+01-1.15548E+01-3.83983E+00 1.07952E+00 2.64019E-01 3.68255E+00
 -1       258-6.61100E+01-1.29712E+01-5.56403E+00 4.25190E-01 8.21109E-02 4.47357E+00
 -1       259-7.12515E+01-1.42093E+01-3.37125E+00 3.24539E-02 3.92597E-03 4.53794E+00
 -1       260-6.74132E+01-1.32843E+01-5.62187E+00-4.73867E-01-1.84970E-01 5.21050E+00
 -1       261-6.71576E+01-1.20215E+01-4.61200E+00-1.09441E+00-8.94932E-02 4.24605E+00
 -1       262-7.04037E+01-9.93048E+00-2.87340E+00-2.05093E+00-4.23220E-01 4.47849E+00
 -1       263-6.54974E+01-5.58622E+00-4.98663E+00-2.82153E+00-7.75375E-01 4.34357E+00
 -1       264-6.76101E+01-3.10370E+00-1.90840E+00 2.37373E+00 6.06934E-01 4.50961E+00
 -1       265-6.59385E+01-7.63852E+00-4.30595E+00 2.18226E+00 1.06584E+00 3.79574E+00
 -1       266-6.70205E+01-1.09322E+01-5.08229E+00 1.97181E+00-3.45524E-01 4.10768E+00
 -1       267-6.75138E+01-1.25450E+01-4.38952E+00 2.94024E-01 5.73824E-01 3.87180E+00
 -1       268-7.06122E+01-1.42952E+01-4.28717E+00 7.55175E-01-4.17177E-01 4.74978E+00
 -1       269-7.10031E+01-1.43318E+01-4.17409E+00-8.09315E-01 3.58577E-01 4.84449E+00
 -1       270-6.70716E+01-1.26242E+01-4.74929E+00-4.20727E-01-3.10099E-01 4.34201E+00
 -1       271-7.04582E+01-1.16299E+01-3.89174E+00-1.32935E+00-4.80427E-01 4.72682E+00
 -1       272-6.92706E+01-8.21419E+00-3.43901E+00-2.82850E+00-3.56154E-02 4.47365E+00
 -1       273-6.76973E+01-3.26877E+00-1.88544E+00-2.24998E+00-7.74312E-01 4.48548E+00
 -1       274-3.62023E+01-2.57788E-02-4.06506E+00 3.36799E+00-1.87229E+00 1.21076E+01
 -1       275-2.08227E+00 8.81553E-01-5.58035E-02 5.91571E-01-1.45419E+00 2.75549E+00
 -1       276-5.83643E+01-1.43179E+00-3.84356E+00 2.24955E+00-7.57893E-01 8.26713E+00
 -1       277-1.71715E+01 9.03774E-01-2.11728E+00 1.95012E+00-2.46249E+00 8.37437E+00
 -1       278 7.38854E-01 4.48553E-01 1.69500E+00 2.10902E-02-1.54666E-01-2.51852E-01
 -1       279-6.22139E+01 1.02238E-01 1.31401E-01-3.46527E-01-8.72330E-02 4.84133E-01
 -1       280-6.31276E+01 9.94550E-02 1.00349E-01-1.70120E-02-9.55620E-02 1.21451E-02
 -1       281-6.23281E+01 1.43399E-01 1.71564E-01 2.87359E-01-1.18566E-01-4.19486E-01
 -1       282-6.31570E+01-1.55202E-01-5.60033E-01-6.10227E-01-2.17696E-01-6.15226E-01
 -1       283-6.28278E+01 1.19567E-01 1.83281E-02-1.66705E-01-1.96472E-01 2.47074E-01
 -1       284-6.28487E+01 8.26906E-02 9.68471E-02 1.71122E-01-1.35141E-01-1.75217E-01
 -1       285-6.30969E+01-2.29934E-01-6.85224E-01 6.04585E-01-2.67377E-01 6.47544E-01
 -1       286 1.42626E+00-2.97762E-02-2.32091E-02 1.14252E-02 2.01615E-02 8.33279E-02
 -1       287 3.57008E-01-6.85700E-02-6.70581E-02-3.04016E-04 6.33895E-02 1.84274E-02
 -1       288 2.30524E-01-2.14247E-02-3.66043E-02-1.77986E-02 3.39674E-02-2.31747E-03
 -1       289 4.44189E-01-2.21189E-02-1.73454E-02-4.39292E-02 1.96879E-02 4.11998E-02
 -1       290 7.01370E-01-2.27242E-02-1.76606E-02-9.69529E-02 1.98330E-02 1.03424E-01
 -1       291 8.34486E-01 1.05961E-02-3.56742E-02-1.91739E-01 4.31852E-02 1.93931E-01
 -1       292 9.09437E-01-4.49334E-02-4.09948E-02-1.99389E-01 3.81227E-02 2.05451E-01
 -1       293 6.73455E-01 8.49724E-02-1.76283E-02-3.57963E-01 4.45692E-02 3.13455E-01
 -1       294-2.38478E-01 2.75100E-01 2.63768E-01-6.72940E-01 1.83941E-02 2.72592E-01
 -1       295 1.73549E+00-1.50443E-01-1.52312E-01-8.19232E-02 1.49726E-01-1.79977E-01
 -1       296 6.93832E-01-1.18109E-01-1.42871E-01-1.48000E-03 5.44041E-02 4.79398E-02
 -1       297 2.02357E-01-5.70804E-02-4.97944E-02-5.03602E-03 4.29444E-02 1.32879E-02
 -1       298 3.08362E-01-2.63368E-02-2.79589E-02-2.64893E-02 1.59861E-02 2.23485E-02
 -1       299 5.75056E-01-2.57335E-02-1.69681E-02-7.33024E-02 2.06127E-02 7.37616E-02
 -1       300 7.85491E-01-1.76921E-02-3.21035E-02-1.33443E-01 2.96675E-02 1.65914E-01
 -1       301 9.01915E-01-3.00264E-02-2.86438E-02-2.13514E-01 4.29882E-02 1.87911E-01
 -1       302 8.49566E-01-1.81431E-02-6.78921E-02-2.53255E-01 2.11257E-02 2.83355E-01
 -1       303 4.08653E-01 1.25201E-01 9.06251E-02-4.03652E-01 1.57145E-02 3.36991E-01
 -1       304-5.90406E+00-3.28085E-01-4.08706E-01-9.99398E-02 8.49858E-02 1.81616E+00
 -1       305-1.70932E+01-7.34391E+00-7.35359E+00 5.10104E+00-1.32170E-02 5.46707E+00
 -1       306-2.87930E+01-1.22761E+01-1.20972E+01 8.43460E+00 4.17960E-02 4.36583E+00
 -1       307-4.11463E+01-1.74311E+01-1.72218E+01 1.19032E+01 1.35113E-01 1.34909E+00
 -1       308-1.31959E+01-5.65544E+00-5.65540E+00 3.62882E+00-1.73736E-05 5.42581E+00
 -1       309-2.33378E+01-1.00021E+01-1.00020E+01 6.79160E+00-3.29645E-05 5.09223E+00
 -1       310-3.57734E+01-1.53317E+01-1.53315E+01 1.03178E+01-2.15615E-05 3.09615E+00
 -1       311-4.82749E+01-2.06894E+01-2.06893E+01 1.31649E+01-2.06853E-06-1.10685E+00
 -1       312-2.88720E+01 9.74616E-01 9.42166E-01 2.21378E-01-8.78140E-02 1.65323E+00
 -1       313-3.08637E+01 7.69518E-02 5.52501E-02 1.86963E-01-9.36525E-03 4.63304E-01
 -1       314-3.18949E+01 3.56882E-02 3.43774E-02 1.59113E-01 5.98800E-02 2.82414E-01
 -1       315-3.25346E+01 2.47723E-02 2.16361E-02 1.02890E-01 3.87696E-02 1.56226E-01
 -1       316-3.29895E+01 3.26496E-02 1.51397E-02 5.04727E-02 2.05982E-02 5.94417E-02
 -1       317-3.34047E+01 2.52923E-02 1.38690E-02-3.29912E-03 2.03617E-02 1.39394E-02
 -1       318-3.38071E+01 1.04079E-03 8.09025E-03-5.85246E-02 1.48535E-02-3.31901E-02
 -1       319-3.40979E+01 2.27526E-02-1.25241E-02-1.56635E-01 1.21287E-02-1.49095E-01
 -1       320-3.30081E+01-1.76414E-01-2.13349E-02-5.72142E-01-4.06738E-02-7.18769E-01
 -1       321-2.77513E+01-9.93327E-03-4.86470E-02-1.22606E+00 2.30157E-03-1.54657E+00
 -1       322-1.33257E+01-2.38071E-02 1.41282E-01-1.70420E+00 1.42126E-01-3.82911E+00
 -1       323-9.78171E-01 1.95769E-01-1.33955E-01-1.41245E+00-1.12469E-01-1.38571E+00
 -1       324 1.56012E+00-5.22192E-02 9.87872E-02-2.48539E-01 6.04643E-02-2.40884E-01
 -1       325 1.46420E+00 2.97846E-01-1.84749E-01 4.94979E-01-1.39385E-01 3.40221E-01
 -1       326-6.62311E-01 3.86777E-02-1.22558E-01 1.29072E+00-1.50601E-01 1.41988E+00
 -1       327-1.32682E+01 9.61962E-02 2.92794E-01 1.64445E+00-3.06540E-03 3.46933E+00
 -1       328-2.78348E+01-1.64580E-01-5.35917E-02 1.21329E+00 2.02257E-02 1.36849E+00
 -1       329-3.30131E+01-1.65975E-01-2.81937E-02 4.64013E-01-5.88535E-02 7.37177E-01
 -1       330-3.40969E+01-6.24478E-02-6.39809E-03 2.32820E-01 5.11512E-03 1.79683E-01
 -1       331-3.38370E+01 2.37620E-02 1.06280E-03 4.66994E-02 1.61918E-02 3.44637E-02
 -1       332-3.34113E+01 1.97953E-02 9.50436E-03-1.00763E-02 1.64065E-02-1.87367E-02
 -1       333-3.29824E+01 1.75549E-02 2.42387E-02-4.37941E-02 3.13834E-02-7.72699E-02
 -1       334-3.25051E+01 2.96358E-02 3.40591E-02-9.03311E-02 5.42435E-02-1.55055E-01
 -1       335-3.18898E+01 7.41961E-02 1.83648E-02-1.48830E-01 2.92766E-02-1.91037E-01
 -1       336-3.09170E+01 1.69344E-01 9.11054E-02-2.20312E-01 1.84286E-02-4.36885E-01
 -1       337-2.88709E+01 8.40140E-01 8.93567E-01-1.05261E-01-9.08707E-02-1.66675E+00
 -1       338-3.68622E+01-9.26273E-01-1.49592E+00 3.70282E+00 3.08522E-02-6.67072E-01
 -1       339-3.03737E+01 8.47084E-02 7.86126E-02 5.96740E-01 1.51947E-01 6.37536E-01
 -1       340-3.14246E+01 6.34697E-02 4.12051E-02 2.00108E-01 6.61592E-02 3.24056E-01
 -1       341-3.22289E+01 4.21869E-02 4.40519E-02 1.28954E-01 5.48889E-02 1.96016E-01
 -1       342-3.27611E+01 4.46953E-02 3.59361E-02 7.24002E-02 4.10559E-02 1.03718E-01
 -1       343-3.31824E+01 3.34986E-02 2.71100E-02 1.93114E-02-1.12159E-03 3.82380E-02
 -1       344-3.36331E+01 5.78048E-03 1.02280E-02-2.79668E-02 2.24949E-02-1.90750E-02
 -1       345-3.39764E+01 1.08917E-02 1.17719E-02-8.98400E-02-2.08084E-02-9.83503E-02
 -1       346-3.38555E+01-7.96425E-02-3.13417E-02-3.66496E-01 1.66391E-02-4.72428E-01
 -1       347-3.12184E+01-2.05968E-01-2.05254E-01-9.16350E-01-1.80466E-01-1.16416E+00
 -1       348-2.02974E+01-3.31774E-02-2.77409E-01-1.60195E+00 3.31314E-01-2.80363E+00
 -1       349-6.52693E+00 3.73112E-01 6.22326E-01-1.67488E+00-2.74204E-01-2.00462E+00
 -1       350 5.78826E-01 2.04941E-01 9.39006E-02-7.13594E-01 2.27749E-01-9.82183E-01
 -1       351 1.85877E+00-1.80765E-01-1.12191E-01 1.27037E-01-6.31528E-02 8.67905E-02
 -1       352 5.94737E-01 2.05541E-01 1.01393E-01 7.64949E-01 5.38803E-02 6.88553E-01
 -1       353-6.56702E+00 5.66447E-02 5.01940E-01 1.62800E+00-1.99036E-01 2.26396E+00
 -1       354-2.05926E+01-1.02125E-01-2.40859E-01 1.71405E+00 2.09556E-01 2.22348E+00
 -1       355-3.11142E+01-2.25346E-01-3.71311E-01 7.89835E-01-1.72675E-01 1.25694E+00
 -1       356-3.38084E+01-6.35492E-02 1.02185E-02 3.70230E-01-1.61724E-02 4.27760E-01
 -1       357-3.40441E+01-2.42850E-02 5.40390E-03 1.32792E-01 1.60535E-02 1.27030E-01
 -1       358-3.36242E+01 1.61817E-02 1.03427E-02 1.35389E-02 1.17919E-02 1.56914E-02
 -1       359-3.31850E+01 2.09337E-02 2.80937E-02-2.56089E-02 1.35467E-02-4.24673E-02
 -1       360-3.27373E+01 3.25610E-02 4.29596E-02-6.70819E-02 3.86978E-02-1.12518E-01
 -1       361-3.22448E+01 5.05461E-02 1.53026E-02-1.16635E-01 1.64742E-03-1.69001E-01
 -1       362-3.13855E+01 1.17185E-01 6.96810E-02-1.76067E-01 3.73861E-02-3.28091E-01
 -1       363-3.03260E+01 8.44565E-02 1.31946E-01-4.82425E-01 2.29629E-01-6.26206E-01
 -1       364-3.69305E+01-1.00178E+00-1.52645E+00-3.66657E+00 4.40784E-02 6.48846E-01
 -1       365-4.08608E+01-1.73310E+01-1.70899E+01-1.19319E+01 1.17910E-01-1.34760E+00
 -1       366-2.87348E+01-1.22178E+01-1.20634E+01-8.44515E+00 6.31317E-02-4.37628E+00
 -1       367-1.65189E+01-6.76894E+00-7.24588E+00-4.72876E+00-1.45670E-01-5.57433E+00
 -1       368-4.81358E+01-2.06298E+01-2.06297E+01-1.31770E+01-1.67956E-06 1.13678E+00
 -1       369-3.54667E+01-1.52002E+01-1.52001E+01-1.02972E+01-2.09408E-05-3.10776E+00
 -1       370-2.38820E+01-1.02353E+01-1.02352E+01-6.96539E+00-3.57785E-05-5.20335E+00
 -1       371-1.25928E+01-5.39698E+00-5.39695E+00-3.31639E+00-1.63901E-05-5.30515E+00
 -1       372-2.59078E-01 2.70064E-01 2.53308E-01 6.34517E-01 1.19854E-02-2.54971E-01
 -1       373 7.63364E-01-2.25089E-02 1.25900E-02 2.92457E-01 6.16232E-02-1.97677E-01
 -1       374 8.92217E-01-2.36229E-02-2.73569E-02 2.15670E-01 4.51468E-02-2.02924E-01
 -1       375 8.42928E-01-3.27781E-02-2.09587E-02 1.65438E-01 2.50532E-02-1.48249E-01
 -1       376 6.78049E-01-9.36001E-03-1.26788E-02 8.49360E-02 1.71661E-02-9.00178E-02
 -1       377 4.54201E-01-5.71554E-03-2.61872E-02 6.79417E-02 2.67044E-02-4.39400E-02
 -1       378 2.23711E-01-2.43118E-02-2.80053E-02 1.16414E-03 2.03550E-02 8.56345E-03
 -1       379 2.58929E-01-3.60712E-02-2.49910E-02 1.14919E-02 2.14947E-02-4.32031E-03
 -1       380 1.42395E+00-7.97165E-03-1.97921E-02 1.54512E-02-1.54960E-02-1.42511E-01
 -1       381-5.87377E+00-2.91620E-01-3.76877E-01 1.09114E-01 1.29032E-01-1.81674E+00
 -1       382 3.75277E-01 8.65082E-02 7.20468E-02 3.47470E-01 3.51790E-02-2.77668E-01
 -1       383 8.98921E-01-2.03096E-03-3.71955E-03 2.62050E-01 6.06217E-02-2.06836E-01
 -1       384 8.95614E-01-6.81853E-03-2.80292E-02 1.78795E-01 9.59888E-03-1.75503E-01
 -1       385 7.77920E-01-2.11290E-02-1.13450E-02 1.41010E-01 2.46171E-02-1.20266E-01
 -1       386 5.62645E-01-1.00882E-02-1.89570E-02 7.11055E-02 2.69857E-02-6.67912E-02
 -1       387 3.36908E-01-1.99676E-02-2.33143E-02 3.67549E-02 2.48651E-02-2.15100E-02
 -1       388 1.78650E-01-3.15124E-02-4.26434E-02-1.09104E-03 2.08888E-02-2.92226E-03
 -1       389 6.91411E-01-5.20696E-02-5.28464E-02 2.30177E-02 3.44826E-02-8.63141E-02
 -1       390 1.89740E+00-9.01783E-02 2.62485E-01 1.08360E-01 3.25979E-02 1.44623E-01
 -1       391-7.48411E+00-3.20640E+00-3.22165E+00 2.35856E-01 9.63545E-03 3.75601E+00
 -1       392-2.16101E+00-8.83204E-01-9.82274E-01 1.66593E-01 2.25594E-02 2.57639E+00
 -1       393-3.30241E-01-1.34532E-01-3.86169E-01 1.10178E-01 1.35735E-02 2.08610E+00
 -1       394-3.36921E-01-1.76635E-01-1.89790E-01 8.34511E-02 2.78534E-02 1.76204E+00
 -1       395 4.49860E-02-2.17279E-02-2.88102E-02 3.47268E-02 2.96634E-02 1.65654E+00
 -1       396-2.85205E-01-1.56783E-01-1.40518E-01-4.56593E-02 1.16447E-02 1.75486E+00
 -1       397-1.41314E+00-6.35270E-01-6.45877E-01-1.22270E-01-2.47082E-02 2.08838E+00
 -1       398-3.46074E+00-1.53185E+00-1.52383E+00-1.67607E-01-2.54090E-02 2.63467E+00
 -1       399-7.43827E+00-3.17362E+00-3.20609E+00-1.95553E-01-1.26421E-02 3.72935E+00
 -1       400-1.10034E+01-4.71577E+00-4.71583E+00 4.57162E-01 6.08341E-06 4.71080E+00
 -1       401-5.48861E+00-2.35229E+00-2.35236E+00 2.41445E-01 8.99555E-06 3.30633E+00
 -1       402-2.23500E+00-9.57896E-01-9.57982E-01 1.67461E-01 7.03716E-06 2.55837E+00
 -1       403-6.03847E-01-2.58825E-01-2.58903E-01 5.88787E-02 4.73983E-06 2.03334E+00
 -1       404-1.47713E-01-6.33366E-02-6.34069E-02 2.65495E-02 1.76908E-06 1.71522E+00
 -1       405-1.68217E-01-7.21225E-02-7.21892E-02-3.87741E-02-1.28889E-06 1.69801E+00
 -1       406-1.13703E+00-4.87333E-01-4.87407E-01-8.52950E-02-4.90605E-06 1.90188E+00
 -1       407-2.47249E+00-1.05967E+00-1.05974E+00-1.34755E-01-7.65275E-06 2.36851E+00
 -1       408-5.30704E+00-2.27448E+00-2.27455E+00-1.50431E-01-9.95420E-06 3.18149E+00
 -1       409-1.09187E+01-4.67946E+00-4.67952E+00-4.26587E-01-6.53848E-06 4.68536E+00
 -1       410-3.71467E+01-1.56983E+01-1.57245E+01 6.31334E+00-1.28473E-01 8.69298E+00
 -1       411-3.66378E+01-1.43325E+01-1.15989E+01 3.94690E+00-5.05336E-02 7.21359E+00
 -1       412-4.01640E+01-1.70341E+01-1.68062E+01 2.51353E+00-2.48214E-01 9.45109E+00
 -1       413-3.87902E+01-1.52754E+01-1.23042E+01 1.06497E+00 8.74911E-03 7.80473E+00
 -1       414-4.15394E+01-1.75917E+01-1.73425E+01-1.77787E-01 2.80797E-01 9.77521E+00
 -1       415-3.87375E+01-1.52430E+01-1.23300E+01-1.36164E+00 1.45956E-01 7.72078E+00
 -1       416-4.03050E+01-1.71010E+01-1.68657E+01-2.55894E+00 2.45963E-01 9.43105E+00
 -1       417-3.65942E+01-1.42961E+01-1.15677E+01-4.09662E+00 1.70938E-01 7.08511E+00
 -1       418-3.73974E+01-1.58241E+01-1.57588E+01-6.33215E+00 1.58619E-01 8.70288E+00
 -1       419-4.06894E+01-1.74384E+01-1.74385E+01 8.02261E+00-2.14472E-05 8.23515E+00
 -1       420-3.99211E+01-1.71092E+01-1.71093E+01 4.92914E+00-1.98372E-05 9.25832E+00
 -1       421-4.07630E+01-1.74699E+01-1.74701E+01 3.03141E+00-1.08234E-05 9.23354E+00
 -1       422-4.32025E+01-1.85155E+01-1.85157E+01 1.68203E+00-8.51394E-06 1.02175E+01
 -1       423-4.38296E+01-1.87842E+01-1.87845E+01 5.42340E-01 4.61099E-09 1.04213E+01
 -1       424-4.28086E+01-1.83467E+01-1.83469E+01-5.88057E-01 2.72283E-06 9.72773E+00
 -1       425-4.31468E+01-1.84916E+01-1.84919E+01-1.77355E+00 1.05435E-05 1.02470E+01
 -1       426-4.08892E+01-1.75240E+01-1.75242E+01-3.08129E+00 1.28027E-05 9.17745E+00
 -1       427-4.01007E+01-1.71861E+01-1.71863E+01-5.01483E+00 2.12791E-05 9.33460E+00
 -1       428-4.07813E+01-1.74778E+01-1.74779E+01-7.98833E+00 2.16415E-05 8.23213E+00
 -1       429-7.39804E+00-3.15962E+00-3.18759E+00-1.91596E-01 1.18146E-02-3.72064E+00
 -1       430-3.41946E+00-1.52692E+00-1.51589E+00-1.72725E-01 3.17619E-02-2.59941E+00
 -1       431-1.51030E+00-6.78927E-01-6.77839E-01-1.42619E-01 1.89531E-02-2.07179E+00
 -1       432-3.76528E-01-1.97060E-01-1.77963E-01-5.29609E-02-1.08165E-02-1.77177E+00
 -1       433 6.51084E-01 2.94433E-01-2.90651E-02-1.46739E-02-5.72524E-03-1.79967E+00
 -1       434-3.75980E-01-1.99815E-01-1.96805E-01 1.10463E-01-2.21714E-02-1.79884E+00
 -1       435-1.58688E+00-7.07062E-01-7.21904E-01 1.19129E-01-2.56058E-02-2.06606E+00
 -1       436-3.41647E+00-1.50536E+00-1.49910E+00 1.84986E-01-2.16935E-02-2.60920E+00
 -1       437-7.36804E+00-3.15916E+00-3.19684E+00 2.01479E-01-2.63513E-02-3.71380E+00
 -1       438-1.08806E+01-4.66316E+00-4.66322E+00-4.24315E-01 6.40267E-06-4.67380E+00
 -1       439-5.24113E+00-2.24623E+00-2.24630E+00-1.49631E-01 9.62698E-06-3.16550E+00
 -1       440-2.49650E+00-1.06996E+00-1.07003E+00-1.47649E-01 7.12081E-06-2.33239E+00
 -1       441-1.27378E+00-5.45934E-01-5.46000E-01-9.84425E-02 4.49483E-06-1.91502E+00
 -1       442-8.95676E-02-3.84142E-02-3.84792E-02-9.92589E-02 9.64609E-09-1.83775E+00
 -1       443-3.07450E-01-1.31797E-01-1.31872E-01 8.93055E-02-6.79724E-07-1.84539E+00
 -1       444-9.87680E-01-4.23319E-01-4.23381E-01 8.79393E-02-4.56938E-06-1.92749E+00
 -1       445-2.65513E+00-1.13794E+00-1.13800E+00 1.28976E-01-6.52197E-06-2.35656E+00
 -1       446-5.09122E+00-2.18199E+00-2.18207E+00 1.69189E-01-1.06519E-05-3.14363E+00
 -1       447-1.09687E+01-4.70091E+00-4.70096E+00 4.35739E-01-6.13339E-06-4.69008E+00
 -1       448-3.71878E+01-1.57021E+01-1.57374E+01 6.33789E+00 1.30930E-01-8.66362E+00
 -1       449-3.83746E+01-1.63088E+01-1.60473E+01 4.09022E+00 2.40340E-01-9.12635E+00
 -1       450-4.02042E+01-1.71116E+01-1.67869E+01 2.07349E+00-2.56968E-01-9.69625E+00
 -1       451-4.09032E+01-1.74116E+01-1.71016E+01 9.16943E-01-2.59681E-01-9.65804E+00
 -1       452-4.10289E+01-1.74192E+01-1.71523E+01-1.42246E-01-2.62654E-01-9.31659E+00
 -1       453-4.07633E+01-1.73690E+01-1.73231E+01-1.30492E+00-9.05900E-02-9.23622E+00
 -1       454-4.03414E+01-1.70916E+01-1.69358E+01-2.46769E+00-2.13263E-01-9.43166E+00
 -1       455-3.85234E+01-1.63821E+01-1.62288E+01-4.06439E+00-1.64889E-01-8.98772E+00
 -1       456-3.72385E+01-1.57213E+01-1.57252E+01-6.34395E+00-1.54179E-01-8.78560E+00
 -1       457-4.05867E+01-1.73944E+01-1.73945E+01 8.02478E+00 2.21983E-05-8.22489E+00
 -1       458-3.81707E+01-1.63589E+01-1.63591E+01 4.93512E+00 1.96146E-05-8.93388E+00
 -1       459-4.13965E+01-1.77415E+01-1.77417E+01 3.04577E+00 1.26653E-05-1.02100E+01
 -1       460-4.13573E+01-1.77247E+01-1.77249E+01 1.68759E+00 4.28855E-06-9.96484E+00
 -1       461-4.16622E+01-1.78554E+01-1.78556E+01 6.09486E-01 2.00899E-06-9.80251E+00
 -1       462-4.13461E+01-1.77199E+01-1.77201E+01-5.30706E-01-4.59095E-06-9.28983E+00
 -1       463-4.11721E+01-1.76453E+01-1.76455E+01-1.68365E+00-8.02824E-06-9.64578E+00
 -1       464-4.01282E+01-1.71979E+01-1.71981E+01-3.07889E+00-1.45725E-05-9.38749E+00
 -1       465-3.82672E+01-1.64003E+01-1.64005E+01-4.94152E+00-1.86595E-05-9.01992E+00
 -1       466-4.07436E+01-1.74616E+01-1.74617E+01-8.04082E+00-2.15476E-05-8.29445E+00
 -1       467 3.72895E-02 8.50818E-02 9.49451E-01 4.23035E-02-1.36656E-01 2.45078E-01
 -1       468 7.25485E-01-2.53623E-01-1.08823E-01-7.00180E-02-2.00778E-02 3.88611E-01
 -1       469 8.13612E-01-3.05387E-01 1.14725E-03 1.89986E-01 7.82933E-03 7.64834E-02
 -1       470-5.88676E-01-2.06007E-01 3.88720E-01-3.89438E-02 1.84883E-01 3.00106E-01
 -1       471 1.60329E+00 6.71596E-01-7.32318E-02-3.39334E-01-6.72996E-01 6.40155E-01
 -1       472 9.66764E-01 1.45739E+00 1.33359E-01-4.60781E-01-5.42547E-01 6.68900E-01
 -1       473 5.13345E-01 2.34353E+00-7.40543E-02-1.37662E-02-2.98834E-01 7.23309E-01
 -1       474 1.64261E-01 1.85927E+00-1.48351E-01-1.43413E-01-3.69512E-01 6.45617E-01
 -1       475 1.96384E+00 3.52075E+00 1.27987E-01-2.97528E-01-7.03203E-02 5.47491E-01
 -1       476 1.63889E+00 3.24492E+00-1.74505E-01 4.91220E-02-3.15081E-02 5.09853E-01
 -1       477 1.49196E+00 3.03550E+00-1.97148E-02-1.24171E-01-2.61667E-01 7.07960E-01
 -1       478 1.66269E+00 3.58845E+00 1.06320E-01 7.79508E-02 5.66462E-03 4.67148E-01
 -1       479 1.45086E+00 3.32329E+00 3.64785E-02-1.22857E-01 3.69498E-02 4.64500E-01
 -1       480 1.71484E+00 3.68143E+00 1.37733E-01 6.03139E-02 2.77307E-02 4.73263E-01
 -1       481 1.35364E+00 3.37836E+00 4.10818E-02 9.72766E-02 1.46178E-01 4.69442E-01
 -1       482 1.64963E+00 3.17817E+00-8.10604E-02 4.56412E-01 3.01897E-01 3.48490E-01
 -1       483 1.33364E+00 3.27532E+00-1.87909E-01 1.30265E-01 1.13807E-01 4.84493E-01
 -1       484 1.63153E+00 2.51903E+00-9.70201E-02 3.02267E-01 3.40622E-01 6.65416E-01
 -1       485 1.34448E+00 1.55192E+00-1.32992E-02 2.77859E-03 3.30413E-01 7.14442E-01
 -1       486 2.03656E+00 2.48364E+00-2.00889E-01 1.71684E-01 3.50626E-01 6.57867E-01
 -1       487 4.91207E-01 7.46223E-01 2.50835E-01 2.22118E-01 6.56167E-01 7.13400E-01
 -1       488-1.72572E+01 7.17030E-01-3.20202E+00-3.63941E+00-2.91855E+00-8.99221E+00
 -1       489-1.66897E+01 7.09552E-01-3.42936E+00 4.15512E+00 3.20292E+00-8.80082E+00
 -1       490-8.64848E+00 1.94241E+00-2.46053E+00 4.93858E-01 5.98413E-01-6.43384E+00
 -1       491-4.04167E+01-7.63479E+00-7.57924E+00-4.79461E-01-2.47050E-01-1.38070E+01
 -1       492-8.93209E+00 2.16718E+00-2.23711E+00-1.11395E+00-1.38617E+00-6.25450E+00
 -1       493-4.10971E+01-6.29073E+00-7.36047E+00 1.78242E+00 8.79773E-01-1.64566E+01
 -1       494-3.99281E+01-7.28074E+00-7.38095E+00-6.65289E-01-6.83001E-01-1.41431E+01
 -1       495-4.15931E+01-7.99927E+00-7.05516E+00 5.24908E-01 2.31513E-01-1.42066E+01
 -1       496-4.24944E+01-4.86953E+00-5.27527E+00 3.22653E+00 6.01815E-01-8.39024E+00
 -1       497-6.73108E+00 2.51491E+00-1.72608E+00-1.94269E+00-1.82540E+00-5.79329E+00
 -1       498-6.18703E+00 2.74849E+00-1.11650E+00 1.63793E+00 2.07498E+00-4.77230E+00
 -1       499-4.54346E+01-5.93266E+00-6.23019E+00-3.36240E+00-1.24019E+00-1.44535E+01
 -1       500-4.52586E+00 2.85635E+00-1.79291E+00-3.55034E-01-5.53575E-01-4.04802E+00
 -1       501-4.62741E+00 2.84969E+00-2.15311E+00 7.23516E-02 1.01484E-01-4.90948E+00
 -1       502-5.11099E+01-8.14315E+00-6.78074E+00-1.94993E+00-3.07436E-01-8.90541E+00
 -1       503-4.83990E+01-9.21698E+00-6.94235E+00 6.64588E-01 1.18553E-01-1.37249E+01
 -1       504-4.66970E+00 2.89931E+00-2.05482E+00-8.55950E-02-2.16913E-01-4.61737E+00
 -1       505-1.86129E+00 3.46931E+00-1.99817E+00 9.92957E-01 1.15981E+00-4.22075E+00
 -1       506 2.67536E-01 2.18507E+00 1.49123E+00 9.36795E-01 1.96049E+00 6.07884E-02
 -1       507-5.53529E+01-3.56917E+00-7.03993E+00-5.59468E+00-1.27827E+00-1.29142E+01
 -1       508-4.87939E+01-2.64689E+00-5.92641E+00 4.30902E+00 3.22158E-01-6.28090E+00
 -1       509 4.63041E-02 2.27893E+00 1.17521E+00-1.19032E+00-2.11248E+00-1.94015E-01
 -1       510 8.60207E-01 1.67412E+00 1.04571E+00-6.70151E-01-1.42320E+00 5.43418E-01
 -1       511 7.32847E-01 1.24115E+00 2.36978E+00-3.77539E-01-8.32890E-01 9.55564E-01
 -1       512-2.26842E-01 2.37221E+00 1.70905E+00-1.16047E+00-2.01517E+00-8.21696E-01
 -1       513 5.32695E-01 1.07540E+00 2.28437E+00 3.06578E-01 7.02313E-01 5.82620E-01
 -1       514 8.76214E-01 2.10144E+00 1.56377E+00 3.81593E-01 1.39295E+00 5.36061E-01
 -1       515-1.53889E-01 2.28896E+00 1.79882E+00 1.10678E+00 2.01985E+00-7.98397E-01
 -1       516-4.56608E+01-1.75639E+00-6.43653E+00-5.79922E+00-1.88660E+00-1.34700E+01
 -1       517-6.85619E+01-4.29293E+00-5.27779E+00-3.18307E+00-3.67106E-01-9.80688E+00
 -1       518-7.23051E+01-8.26684E+00-7.79898E+00-4.16851E+00-4.36096E-01-1.08888E+01
 -1       519-6.54487E+01-7.01115E+00-7.20005E+00 3.30312E+00-5.54518E-02-6.51975E+00
 -1       520-6.54108E+01-3.70599E+00-5.03847E+00 5.01632E+00 6.77256E-01-9.19359E+00
 -1       521-4.45985E+01-2.32202E+00-6.23271E+00 6.94004E+00 1.11675E+00-1.29967E+01
 -1       522-4.84867E-01 2.64167E+00 3.72892E-01 1.20936E+00 1.83743E+00-3.27313E-01
 -1       523-1.08210E-01 3.33945E+00-4.42862E-01 6.84998E-01 1.30522E+00-6.07478E-01
 -1       524-1.64019E+00 2.94855E+00 4.46431E-01 1.68680E+00 2.56073E+00-1.25868E+00
 -1       525 1.37283E+00 3.87255E+00 4.00000E-01 7.18783E-01 9.35667E-01 2.97530E-01
 -1       526 1.30517E+00 4.04254E+00 7.26489E-01 6.04585E-01 9.33785E-01 2.00624E-01
 -1       527-2.87731E+00 3.60867E+00-1.48266E+00 8.51679E-01 1.19048E+00-4.59698E+00
 -1       528-1.75194E+00 3.27530E+00-7.42503E-01 5.44701E-01 7.24186E-01-1.09681E+00
 -1       529-9.03327E-01 3.57440E+00-7.13938E-01 1.65640E-01 1.98333E-01-1.27853E+00
 -1       530-4.96590E+00 2.84655E+00-2.48431E+00 8.84253E-01 1.31649E+00-5.34812E+00
 -1       531 3.34323E-01 3.91170E+00-2.28102E-01-6.38824E-02 2.16674E-01-6.57643E-01
 -1       532-4.90899E-01 3.73830E+00-3.28344E-01 1.39779E-01 9.94843E-02-5.37506E-01
 -1       533-5.51422E+00 2.58563E+00-2.07762E+00 3.52080E-01 1.92928E-01-6.05096E+00
 -1       534-2.42658E-01 3.82917E+00-2.64511E-01-5.77598E-02 3.73948E-02-4.53444E-01
 -1       535-2.22538E-01 3.57523E+00-5.28043E-01-5.18041E-02-3.20308E-01-5.21927E-01
 -1       536-4.47648E+00 2.92887E+00-1.88032E+00-7.18838E-03-3.70666E-02-4.81068E+00
 -1       537 2.62526E-01 3.88034E+00-3.12960E-01-1.82986E-01-3.27403E-01-6.37805E-01
 -1       538-7.07595E-02 3.54128E+00-2.36450E-01-2.94321E-01-5.24538E-01-4.76564E-01
 -1       539-4.14746E+00 2.92132E+00-1.86831E+00-1.63614E-01-4.43073E-01-4.51993E+00
 -1       540-1.34657E+00 3.46588E+00-5.25463E-01-6.29419E-01-9.96478E-01-1.16823E+00
 -1       541-1.12731E+00 3.36920E+00 1.24866E-02-7.47267E-01-1.29699E+00-9.71886E-01
 -1       542-6.21759E+00 2.59587E+00-2.10983E+00-7.35869E-01-8.91937E-01-4.98616E+00
 -1       543-9.81701E-01 3.53009E+00 2.32569E-01-8.18931E-01-1.62387E+00-4.76467E-01
 -1       544-8.69467E-03 2.76868E+00 2.45645E-01-9.93464E-01-1.68372E+00-6.80423E-01
 -1       545-7.62751E+00 2.80856E+00-1.70417E+00-1.53398E+00-1.66291E+00-6.36061E+00
 -1       546-1.89162E+00 2.76974E+00-1.08599E-01-1.85628E+00-2.36184E+00-1.64638E+00
 -1       547-8.59982E+00 8.33539E-01-1.81735E+00-2.35258E+00-3.11666E+00-6.45415E+00
 -1       548-2.46767E+01 7.21357E-01-4.48081E+00-4.73432E+00-2.51275E+00-1.18141E+01
 -1       549-6.49693E+00 1.59996E+00-1.73894E+00-2.50820E+00-3.17900E+00-3.73557E+00
 -1       550-3.72724E+01-1.40421E+00-6.29153E+00-5.18195E+00-1.79504E+00-1.32282E+01
 -1       551-6.96376E+01-1.02719E+01-7.86521E+00-3.68935E+00-2.85706E-01-1.27929E+01
 -1       552-6.76546E+01-1.19793E+01-7.49792E+00-3.09811E+00-3.06020E-01-1.37476E+01
 -1       553-5.51680E+01-6.42145E+00-6.58428E+00-4.51054E+00-9.42964E-01-1.48722E+01
 -1       554-6.60189E+01-1.15229E+01-7.19090E+00-2.22721E+00 1.75828E-01-8.41168E+00
 -1       555-6.72249E+01-1.30559E+01-7.31893E+00-1.21859E+00-1.08330E-01-8.19879E+00
 -1       556-5.09980E+01-8.33114E+00-7.73600E+00-4.06164E+00-7.47981E-01-1.34979E+01
 -1       557-6.63732E+01-1.41022E+01-7.50505E+00-8.99932E-01-3.72249E-01-1.32253E+01
 -1       558-6.86430E+01-1.46422E+01-6.71681E+00-6.99442E-01-3.26541E-01-1.26686E+01
 -1       559-5.09517E+01-9.58324E+00-8.87911E+00 6.01616E-02-6.08439E-01-1.37552E+01
 -1       560-6.90506E+01-1.53068E+01-6.86727E+00-6.27252E-01-3.42458E-02-1.22631E+01
 -1       561-6.71177E+01-1.52887E+01-9.11201E+00-7.61560E-01 1.40130E-01-1.26873E+01
 -1       562-3.97077E+01-7.94470E+00-7.18562E+00-5.32972E-01-5.28058E-01-1.41381E+01
 -1       563-6.74096E+01-1.52026E+01-8.38412E+00 4.11321E-01 4.28936E-02-1.28533E+01
 -1       564-6.94872E+01-1.53599E+01-6.83515E+00 7.10552E-01 5.97422E-02-1.25900E+01
 -1       565-4.06969E+01-7.61953E+00-7.82910E+00 5.23171E-02-1.90827E-01-1.39622E+01
 -1       566-7.32549E+01-1.60766E+01-7.02902E+00 6.39380E-01 1.35369E-01-1.21916E+01
 -1       567-7.20108E+01-1.60649E+01-9.42667E+00 8.64785E-01-1.02282E-02-1.23270E+01
 -1       568-4.52773E+01-8.71502E+00-6.86828E+00 3.97114E-01 6.09878E-02-1.46670E+01
 -1       569-6.76281E+01-1.35697E+01-7.74965E+00 1.63248E+00 6.03566E-02-1.44883E+01
 -1       570-6.49304E+01-1.20611E+01-7.51301E+00 1.75541E+00 3.79432E-01-1.47665E+01
 -1       571-4.34734E+01-7.46947E+00-7.05100E+00 1.78026E+00 6.56334E-01-1.48227E+01
 -1       572-6.32574E+01-1.02429E+01-7.02407E+00 2.71221E+00-6.77595E-02-8.81829E+00
 -1       573-6.32353E+01-7.83366E+00-5.94661E+00 3.55171E+00 3.20162E-01-6.55548E+00
 -1       574-4.13914E+01-5.13564E+00-6.69675E+00 2.54232E-01 9.56562E-01-1.50913E+01
 -1       575-4.68360E+01-4.19057E+00-5.43109E+00 3.11603E+00 3.79463E-01-6.52293E+00
 -1       576-2.44400E+01 2.11756E-01-5.15037E+00 5.19927E+00 2.94723E+00-1.19690E+01
 -1       577-9.38107E+00 7.33394E-01-1.79018E+00 2.85189E+00 3.11139E+00-6.66385E+00
 -1       578-4.07475E+01-4.66715E+00-9.25452E+00 5.79536E+00 2.90331E+00-1.33805E+01
 -1       579-6.80740E+00 1.13798E+00-1.97526E+00 2.48466E+00 3.15593E+00-4.21232E+00
 -1       580-1.11775E+01 1.82731E+00-2.57091E+00-3.17539E+00-2.18915E+00-6.74670E+00
 -1       581-2.42445E+01-1.48933E+00-5.38238E+00-3.24167E+00-1.77263E+00-1.06486E+01
 -1       582-3.18079E+01-2.62765E+00-4.83544E+00-3.49759E+00-2.49243E+00-1.28547E+01
 -1       583-3.47410E+01-3.92133E+00-7.53953E+00 4.59529E+00 2.50702E+00-1.23061E+01
 -1       584-2.62475E+01-2.46676E+00-5.75849E+00 3.07306E+00 1.70718E+00-9.53379E+00
 -1       585-1.05715E+01 2.45594E+00-1.75821E+00 2.86208E+00 2.60889E+00-6.93215E+00
 -1       586-2.19604E+01-2.03656E+00-6.66172E+00 1.49209E+00 1.11339E+00-1.17180E+01
 -1       587-2.72816E+01-3.62676E+00-6.25869E+00 4.66765E-01 3.03538E-01-1.15159E+01
 -1       588-1.74885E+01-8.00891E-01-5.87233E+00 1.37084E+00 1.03468E+00-1.01415E+01
 -1       589-2.20139E+01-2.66694E+00-5.86377E+00 2.72930E-01 1.15441E-01-1.12907E+01
 -1       590-1.96463E+01-1.80511E+00-5.49490E+00 2.72206E-01 2.74987E-01-9.98151E+00
 -1       591-1.93044E+01-1.88172E+00-5.94628E+00-2.51251E-01-4.82053E-01-1.01406E+01
 -1       592-2.02103E+01-2.04085E+00-5.80006E+00-2.23654E-01-2.60177E-01-9.81377E+00
 -1       593-1.92353E+01-1.36862E+00-5.59416E+00 2.25032E-02-9.80030E-03-1.00170E+01
 -1       594-2.30473E+01-2.12340E+00-5.63705E+00-5.08067E-01-1.09838E+00-1.04849E+01
 -1       595-1.95364E+01-1.78831E+00-6.02767E+00-9.80857E-02-6.14303E-01-9.50673E+00
 -1       596-3.46813E+01-4.95426E+00-8.01261E+00-1.18593E+00-1.06001E+00-1.15105E+01
 -1       597-3.05215E+01-3.68004E+00-6.98281E+00-3.02945E+00-1.18204E+00-1.10674E+01
 -1       598-2.04524E+01-7.32879E-01-5.90227E+00 7.07140E-01 1.16147E+00-9.74549E+00
 -1       599-7.90481E+00 1.01627E-02 1.08312E-01 5.35995E-02 1.12749E-01-1.07755E+00
 -1       600-7.83461E+00 1.45188E-03 1.02002E-01-4.04348E-02 1.03211E-01 1.07443E+00
 -1       601-7.97921E+00-1.02761E-03-4.55285E-02 2.53687E-02 3.42618E-02-5.24085E-01
 -1       602-7.91795E+00-5.01456E-03-3.40966E-02 6.57350E-03 2.71079E-02 5.35268E-01
 -1       603-8.40348E+00-2.38990E-02-2.20053E-02 5.20992E-03 2.14382E-02-1.08602E-01
 -1       604-8.41576E+00-2.10385E-02-2.27126E-02 2.08554E-02 1.33939E-02 8.44468E-02
 -1       605-8.37467E+00 1.12053E-02 3.18635E-01-1.03242E-02 2.07493E-02-4.28781E-01
 -1       606-8.06488E+00-3.40548E-02 3.69665E-01 2.94726E-02 2.41236E-02 4.89062E-01
 -1       607-2.69237E+01 1.65451E-01 2.40342E+00 6.87970E-02-3.85496E-02 3.98313E+00
 -1       608-2.65230E+01 1.17619E-01 2.43615E+00-1.51440E-01-2.65303E-02-4.17508E+00
 -1       609-2.36886E+01 3.82517E-01 5.90060E-01-4.01200E-01 4.38907E-02-2.30450E+00
 -1       610-2.36308E+01 4.17565E-01 6.20316E-01 4.47551E-01 3.11757E-02 2.26968E+00
 -1       611-2.35555E+01 6.90733E-02 1.67561E-01-1.07625E-01 2.36921E-02-9.12281E-01
 -1       612-2.35218E+01 6.39588E-02 1.51685E-01 8.20914E-02 2.14876E-02 8.90321E-01
 -1       613-2.43825E+01 9.01173E-03 4.09378E-02-2.53349E-02 3.42665E-02-2.35159E-01
 -1       614-2.43849E+01 2.51339E-02 3.14240E-02 3.80883E-02 2.56356E-02 2.49156E-01
 -1       615-2.51758E+01 1.25302E-02 1.66197E-01-7.42774E-03 3.17908E-02 3.32663E-01
 -1       616-2.48140E+01 4.55199E-03 1.87040E-01-9.19392E-03 3.47296E-02-3.51733E-01
 -1       617-1.40304E+01 1.87171E+00-1.39097E+00-1.58085E-01 1.71461E-01-3.31666E+00
 -1       618-1.40337E+01 1.71281E+00-1.58430E+00-6.66206E-02 2.26221E-01 3.16683E+00
 -1       619-1.37931E+00-2.22886E-01-8.13440E-01-1.39713E-01-1.45504E-01-3.35317E-01
 -1       620-6.13987E+00-1.10053E-01-2.47118E-01 5.18452E-02 9.50475E-02 1.44447E+00
 -1       621-1.34869E+01-7.26097E-01 1.64695E+00-4.49940E-01-3.86943E-01-2.80423E+00
 -1       622-3.08021E+01-1.60359E-01-9.19904E-01-2.45633E-01-4.60522E-01 7.70147E+00
 -1       623-2.99276E+01 8.51354E-01 4.62237E-02 2.66905E-01-8.65297E-01-9.42711E+00
 -1       624-2.71999E+01 1.93918E-01 7.12860E+00 1.71221E-01-1.52704E-02-2.04496E+00
 -1       625-2.99746E+01 1.53964E-01 6.83055E+00-6.27480E-01-1.13071E+00 5.95603E+00
 -1       626-1.80066E+01-5.40864E-02 2.35275E+00-8.34933E-02 1.87936E-01 2.04865E-01
 -1       627-2.54709E+01 1.19219E-01 8.26295E-01 5.40019E-02-1.82439E-02-1.42398E+00
 -1       628-3.42682E+01 2.48376E-01-8.33786E-01 2.63664E-02-5.18319E-01 2.79961E+00
 -1       629-3.38558E+01 2.69078E-02-1.17092E+00-3.19907E-02-4.88871E-01-3.01952E+00
 -1       630-2.56240E+01 6.48203E-02 6.59393E-01 8.89750E-03 5.29693E-02 1.16803E+00
 -1       631-2.31870E+01 7.12174E-02 4.03619E-01 2.91706E-01 1.34295E-02 1.57230E+00
 -1       632-2.31648E+01 7.03215E-02 3.80965E-01-2.87408E-01 8.57432E-03-1.56549E+00
 -1       633-2.48378E+01 2.46959E-02 3.59299E-02 2.16656E-02 2.43018E-02 1.29161E-02
 -1       634-2.40298E+01 2.19414E-02 5.98479E-02 3.35428E-02 3.71603E-02 4.82694E-01
 -1       635-2.40324E+01 3.29023E-02 5.92451E-02-1.69993E-02 3.20729E-02-4.77720E-01
 -1       636-2.49048E+01 1.69564E-02 3.91849E-02-3.77584E-02 2.11640E-02-2.23480E-02
 -1       637-8.12342E+00-2.47278E-02-4.15258E-02-9.66047E-03 2.03970E-02 2.98162E-01
 -1       638-8.35143E+00-1.01391E-02 7.04265E-02 1.38160E-02 1.51613E-02 7.79148E-02
 -1       639-8.49777E+00-1.80657E-02 9.81465E-02-2.38879E-02 1.19089E-02-5.31796E-02
 -1       640-8.15017E+00-2.27584E-02-4.29618E-02-4.79292E-03 1.68602E-02-3.04184E-01
 -1       641-7.77567E+00-1.13567E-02 3.34506E-02 4.27855E-03 3.64583E-02 8.01496E-01
 -1       642-7.80406E+00-2.16627E-03 3.28227E-02-2.90495E-02 3.96924E-02-7.87596E-01
 -1       643-3.48716E+01-1.42419E-01-4.31356E-02-1.82498E-02-4.14450E-01 9.84901E-01
 -1       644-3.52736E+01-1.91901E-02 1.46798E-02 1.01992E-03-2.51875E-01-7.40137E-01
 -1       645-2.31274E+01 1.97003E+00-1.55958E+00 9.48359E-01 1.06079E-01-2.18381E+00
 -1       646-2.33491E+01 2.22343E+00-1.30940E+00-7.08192E-01 7.25267E-02 2.26564E+00
 -1       647-1.73321E+01-2.50052E-02 6.02326E-01-2.86322E-02 3.84810E-02 2.71874E-01
 -1       648-1.60269E+01 3.12036E-01 5.23328E-01-2.52120E-01 2.16720E-01-1.87299E+00
 -1       649-1.59997E+01 3.23197E-01 5.46116E-01 2.32042E-01 2.31332E-01 1.87447E+00
 -1       650-1.56708E+01 3.60395E-02 2.67996E-01 5.24319E-02 9.26913E-02 1.25362E+00
 -1       651-1.56566E+01 5.85131E-02 2.79170E-01-1.01092E-01 9.10825E-02-1.29213E+00
 -1       652-1.58047E+01 9.53793E-03 8.89555E-02-4.49174E-02 6.21521E-02-8.17694E-01
 -1       653-1.58107E+01 4.67470E-03 8.80250E-02 2.82501E-02 5.45795E-02 8.06599E-01
 -1       654-1.60893E+01 1.70969E-02 7.94986E-03-5.08706E-02 6.78324E-02-4.65524E-01
 -1       655-1.60801E+01 2.35910E-02 5.71340E-03 4.79060E-02 5.17359E-02 4.53233E-01
 -1       656-9.05057E+00 1.29635E-01-1.16879E-01 2.04532E-02 2.14843E-01-1.93584E+00
 -1       657-9.07853E+00 8.86585E-02-9.59398E-02-8.04269E-02 2.10652E-01 1.85148E+00
 -1       658-1.64302E+01 9.60895E-03-1.48347E-02-3.98932E-02 5.56107E-02-1.78719E-01
 -1       659-1.63720E+01-5.43443E-04 5.54799E-03 2.60764E-02 3.47783E-02 1.98071E-01
 -1       660-1.67356E+01 6.64987E-04 1.27050E-01-2.89160E-02 4.93201E-02 4.43443E-02
 -1       661-1.66679E+01-9.70425E-03 1.05246E-01 2.96261E-02 4.61940E-02-3.04626E-02
 -1       662-2.66956E+01-6.41471E-02 2.33078E+00-2.98122E-01 2.98397E-02-7.93205E+00
 -1       663-1.84457E+01-2.46900E-02 2.04985E+00 7.90997E-03 4.07932E-02 1.24116E-01
 -1       664-1.70507E+01-2.01158E-02 6.70242E-01 4.46181E-02 4.17470E-03-2.28342E-01
 -1       665-2.66593E+01 3.22181E-01 2.12412E+00 3.44195E-01-3.14904E-01 7.61174E+00
 -1       666-2.39821E+01 2.76361E-02 4.86138E+00-3.15033E-03-1.10952E-01 6.48170E-01
 -1       667-6.06740E+00-1.13266E-02 2.02314E-01 2.44913E-03 1.98518E-02-9.59423E-01
 -1       668-1.35347E+01-5.61714E-01 1.80735E+00 2.72629E-01-6.90213E-02 3.44325E+00
 -1       669-2.94523E+01 2.54213E+00 2.25381E-01 4.96456E-01 9.37166E-02-1.23335E+00
 -1       670-2.95185E+01 2.50984E+00 2.64136E-01-5.08815E-01 7.07513E-02 1.25296E+00
 -1       671-8.90983E+00 8.93325E-01-1.31288E+00-3.37061E-01 1.35395E-01 3.46630E+00
 -1       672-8.92369E+00 8.72905E-01-1.32562E+00 3.14457E-01 9.94423E-02-3.48150E+00
 -1       673-1.64883E+01 2.45160E-01-2.56539E-01-7.02501E-02 2.04798E-01-2.34763E+00
 -1       674-1.65752E+01 2.94787E-01-2.84072E-01 1.82852E-02 2.28605E-01 2.33766E+00
 -1       675-1.98779E+01 4.57348E-01-6.22144E-01 2.55545E-01-6.93260E-01-5.94642E+00
 -1       676-1.80771E+01 3.79739E-01-1.34243E+00-1.51776E-01-5.92620E-01 5.81926E+00
 -1       677-1.87667E+00 6.90796E-02-6.14062E-01 1.92125E-01 7.01666E-03 6.96993E-01
 -1       678-1.66704E+01-8.36058E-02-4.21717E-02 1.10663E-01-2.42814E-01-4.27516E-02
 -1       679-2.00624E-01-7.92138E-01-1.65233E-01-2.73243E-01-1.70164E-01 1.90602E-01
 -1       680 1.06407E-01-1.01436E-01-1.11797E-01-1.14280E-01-1.30919E-01 3.22028E-01
 -1       681 7.54521E-02-2.82382E-01-4.39996E-02-1.57134E-01-4.39258E-01 4.76356E-01
 -1       682-2.47663E-01 2.98354E-02-4.38933E-01-1.92771E-02 1.16206E-02-2.60712E-01
 -1       683-2.20205E+00-2.26499E-01-7.84844E-01 1.08058E-01 1.28777E-01-1.42887E+00
 -1       684-3.32693E+01 1.12934E+00-3.34980E-01-1.45724E+00-2.15979E-01 6.45703E-02
 -1       685-4.74296E+01 1.15562E+00-8.13874E-01 1.48147E-01 3.39768E-01 2.61920E+00
 -1       686-4.71875E+01 1.00268E+00-6.24119E-01 3.75072E-02-1.12765E-01 8.99464E-01
 -1       687-4.76127E+01 4.58858E-01-1.21718E-01-2.47963E-01-2.45412E-01 1.64436E+00
 -1       688-3.42950E+01-2.10161E-01-2.61895E+00-5.02275E-01-3.60359E-01 4.96825E+00
 -1       689-1.00986E+01-9.56305E-01-2.56129E+00 1.01036E+00 1.84244E-01-4.10712E+00
 -1       690-4.05816E+00 2.46794E-01-1.41947E-01-2.12042E-01 6.77981E-02-1.86552E+00
 -1       691-1.24488E+01-1.96153E+00-4.11524E+00 2.20849E+00 2.01126E-01-4.52067E+00
 -1       692-3.97175E+01-4.65742E+00-6.31856E+00 5.64740E+00-7.72944E-01 2.07754E+00
 -1       693-3.38797E+01-3.13199E+00-6.68858E+00 5.39843E+00-1.36750E-02-1.28608E+00
 -1       694-2.81522E+01 1.13231E+00 1.33196E+00-2.21083E-01 5.53872E-01-2.05294E+00
 -1       695-3.96909E+01-4.65798E+00-6.28763E+00-5.65565E+00-7.93216E-01-2.08100E+00
 -1       696-2.81448E+01 1.11983E+00 1.38298E+00 2.70848E-01 5.44080E-01 2.08513E+00
 -1       697-3.38504E+01-3.10469E+00-6.64033E+00-5.41100E+00-1.00413E-03 1.27043E+00
 -1       698-1.00742E+01-9.48416E-01-2.55896E+00-1.01533E+00 1.89019E-01 4.09787E+00
 -1       699-1.24166E+01-1.94351E+00-4.12237E+00-2.23093E+00 2.16505E-01 4.51983E+00
 -1       700-4.06154E+00 2.40138E-01-1.30387E-01 2.08202E-01 7.94771E-02 1.86849E+00
 -1       701-6.56500E-01-1.01081E+00-3.49982E-01 4.96650E-02-8.99474E-02-1.95943E-01
 -1       702 3.04712E-01-1.02723E-02 2.72595E-01 2.36303E-01-3.06037E-01-6.61286E-02
 -1       703 3.54459E-01 2.36150E-01-4.29864E-03 1.50543E-01-9.09696E-02-2.68293E-01
 -1       704-1.62879E+00-2.89504E-02-2.98440E-01 1.48174E-01-4.48862E-02 3.24429E-01
 -1       705-2.13948E+00 4.98904E-02-1.27130E-01 4.14252E-03 1.30889E-02 6.43639E-01
 -1       706-4.36551E+00-1.00033E-01-6.95232E-01 2.93018E-02 1.98938E-01 1.14993E+00
 -1       707-2.64058E+00-1.36810E-01-7.33109E-01-7.50152E-02 3.26839E-01 1.45096E+00
 -1       708-4.47733E+01 1.78104E+00-4.07548E-02-4.79987E-01-1.04493E-01-3.20609E+00
 -1       709-3.30335E+01 1.50774E+00 4.07347E-01-7.23106E-01-4.06284E-01-7.04853E-01
 -1       710-4.74103E+01 4.24288E-01-2.45599E-01 3.49790E-01-3.14384E-01-1.69431E+00
 -1       711-4.74488E+01 8.37285E-01-1.11034E+00 3.16271E-01-2.35628E-01-9.32027E-01
 -1       712-3.36918E+01-1.41886E-01-3.50105E+00 6.01639E-01-2.28014E-01-5.32634E+00
 -1       713-2.14431E+01-1.83316E-01 3.05997E+00-1.83796E-01-2.99341E-01-1.14267E+00
 -1       714-3.26955E+01-2.72059E-01 2.52626E+00-1.03608E-01-2.31599E-01-1.50561E+00
 -1       715-3.29915E+01-1.21651E+00 2.45300E+00-2.91637E+00-1.03122E+00 8.27073E+00
 -1       716-7.71664E+00-9.55683E-01-4.93094E-01-3.67431E-01-2.42554E-01-2.02100E+00
 -1       717-8.97378E+00-2.92881E-01 1.12479E+00-2.96877E-01-3.72084E-01-3.46960E+00
 -1       718-1.96206E+01-3.99932E-01 3.58878E+00-5.60381E-01-3.54786E-01-1.33642E+00
 -1       719-1.79796E+01-1.43087E-01 2.47328E+00-1.29200E+00-1.08150E-01-3.29675E+00
 -1       720-2.74178E+01 3.37202E-01 6.36861E+00 1.09485E-01-7.97110E-01 2.70266E+00
 -1       721-4.00582E+00 1.28807E-02 9.54475E-02-1.90092E-02 1.06077E-02-2.23820E-01
 -1       722-3.60348E+00 1.11920E-02 1.21873E-01-7.94356E-03-2.34393E-02-3.26435E-01
 -1       723-7.46176E+00-4.28153E-02 1.85856E-01 3.06848E-02 5.40693E-02-7.06798E-01
 -1       724-2.38849E+00 3.38592E-02 4.90039E-02-5.56496E-03 1.22747E-02-4.76116E-01
 -1       725-3.89027E+00-5.51719E-02-2.81336E-01-2.15205E-02 1.78404E-02-8.33877E-01
 -1       726-4.14267E+00-1.60016E-02 2.89066E-03-2.47315E-02-7.65666E-03-4.91572E-02
 -1       727-4.12906E+00-2.32638E-03 5.12549E-02-1.23035E-02-4.80999E-03-5.01663E-02
 -1       728-8.50683E+00-3.04900E-02 2.24592E-01-1.56225E-02 1.06366E-02-2.00002E-01
 -1       729-4.00396E+00-2.53516E-02-2.68186E-02-7.74060E-03 3.82776E-03-8.99705E-02
 -1       730-4.13283E+00-3.60411E-02-3.22473E-02-1.01274E-02-2.24767E-03-4.41996E-02
 -1       731-8.48811E+00-2.34184E-02 5.98141E-03-2.20225E-02 2.36194E-02-6.62859E-02
 -1       732-3.80854E+00-3.24327E-02-6.00007E-02-1.81267E-02 4.63610E-03-2.25012E-01
 -1       733-3.93801E+00-3.10358E-02-5.84254E-02-3.11159E-03 4.06873E-03-1.64534E-01
 -1       734-8.28067E+00-9.47371E-03-4.21476E-02-2.30358E-03 1.96627E-02-1.88264E-01
 -1       735-3.62908E+00-6.22711E-03-5.14386E-02-7.62153E-02 6.44959E-03-3.69770E-01
 -1       736-3.65319E+00 4.55398E-03-3.30634E-02-6.51548E-03 8.65155E-03-3.07926E-01
 -1       737-8.06687E+00-1.58189E-02-3.36064E-02 2.12640E-02 1.64009E-02-4.15563E-01
 -1       738-3.55610E+00-6.40286E-02-5.54482E-02-4.44513E-02 1.52764E-02-5.45216E-01
 -1       739-3.50320E+00-2.53930E-02-2.90387E-02-7.78350E-02 3.40160E-03-4.74339E-01
 -1       740-7.79546E+00 1.63899E-02-8.74540E-03-1.45548E-02 3.53536E-02-6.87127E-01
 -1       741-3.70993E+00-5.83030E-02-3.24316E-03-4.27492E-02 4.44729E-02-7.16965E-01
 -1       742-3.54193E+00-1.65432E-02 3.06079E-02 4.02202E-03 3.44245E-02-6.51517E-01
 -1       743-7.79755E+00 5.46563E-03 9.58406E-02 1.69883E-02 5.14589E-02-9.27839E-01
 -1       744-5.18990E+00-1.30326E-01-2.67020E-01-1.98439E-02 1.47258E-01-1.37436E+00
 -1       745-4.31245E+00-7.12456E-02-6.78992E-02 3.10114E-02 8.29594E-02-1.09088E+00
 -1       746-8.18310E+00 1.24338E-01 1.24993E-01 1.31774E-02 1.65421E-01-1.48153E+00
 -1       747-8.09637E+00 4.20601E-01-3.00602E-01 3.44074E-02 1.95697E-01-2.72089E+00
 -1       748-2.07721E+01-3.23829E+00-5.84832E+00 3.51302E+00 1.05082E-01-3.77092E+00
 -1       749-1.50043E+01-9.27196E-01-3.91082E+00 1.93934E+00 1.82038E-01-4.49024E+00
 -1       750-1.17968E+01 1.12947E+00-1.64087E+00 5.29608E-02 4.06911E-02-3.53267E+00
 -1       751-3.09077E+01-5.10741E+00-8.04483E+00 5.67511E+00 4.59897E-01-2.21996E+00
 -1       752-2.57925E+01-3.97370E+00-6.54182E+00 4.53404E+00-3.03060E-02-3.02892E+00
 -1       753-1.85466E+01 1.43742E+00-1.90119E+00 6.33336E-01 1.46848E-01-2.79934E+00
 -1       754-2.65336E+01 2.55710E+00-1.01671E+00 5.11660E-01-6.77332E-02-1.89259E+00
 -1       755-2.67623E+01 2.28025E-01 5.03794E-01-2.56142E-01 3.31197E-02-1.47959E+00
 -1       756-2.74054E+01-7.01779E-02-6.16382E-02-1.49221E-01-1.87245E-01-1.87825E+00
 -1       757-2.51882E+01 6.05893E-01 5.74643E-01-1.13777E-01 6.09450E-03-2.00885E+00
 -1       758-2.72873E+01 1.10375E-01 2.69139E-01-1.19572E-01 2.27743E-02-8.49476E-01
 -1       759-2.69996E+01 4.60798E-02 2.03622E-01-1.55980E-01-5.12557E-02-1.08068E+00
 -1       760-2.31306E+01 1.65461E-01 4.62641E-01-2.05711E-01-6.09830E-02-1.83318E+00
 -1       761-2.79929E+01 6.05918E-02 1.04839E-01 1.76960E-04 8.91350E-03-4.90611E-01
 -1       762-2.76607E+01 2.86022E-02 1.17298E-01-4.56272E-02-1.82887E-02-5.92181E-01
 -1       763-2.32734E+01 8.94297E-02 3.03180E-01-1.98550E-01 2.02394E-02-1.19167E+00
 -1       764-2.84970E+01 1.54210E-02 2.61235E-02-3.96758E-03 6.43070E-03-2.67538E-01
 -1       765-2.81672E+01 3.67078E-02 8.23773E-02 3.89843E-02 1.66885E-03-3.39382E-01
 -1       766-2.37178E+01 5.85028E-02 1.46239E-01-1.18510E-02 4.33386E-02-7.06496E-01
 -1       767-2.88761E+01 2.84859E-02 3.25326E-02-9.28283E-03 3.80938E-03-1.09662E-01
 -1       768-2.86277E+01 2.58441E-02 5.13001E-02 3.71875E-03 1.44653E-02-1.74570E-01
 -1       769-2.42191E+01 1.77793E-02 4.86701E-02-2.15847E-02 2.75726E-02-3.62044E-01
 -1       770-2.92696E+01 4.82266E-02 5.49232E-02-2.21592E-02 9.34921E-03 3.11697E-02
 -1       771-2.90593E+01 4.43642E-02 4.73329E-02-9.69485E-03-3.97149E-03-2.44963E-02
 -1       772-2.46412E+01 1.38950E-02 4.24224E-02-3.86302E-02 2.25106E-02-1.33124E-01
 -1       773-2.94875E+01 6.43079E-02 1.57228E-01-4.26819E-02 3.66831E-02 3.07254E-01
 -1       774-2.94561E+01 4.33481E-02 7.11480E-02-1.43973E-02-7.97900E-03 1.72490E-01
 -1       775-2.50552E+01 1.60932E-02 8.94956E-02-9.09195E-03 1.82315E-02 1.49256E-01
 -1       776-2.90364E+01-2.49684E-02 4.64548E-01-1.35392E-01 7.69304E-02 1.08009E+00
 -1       777-2.97958E+01 4.44145E-02 2.44054E-01 7.86277E-03 9.92541E-03 6.35682E-01
 -1       778-2.54136E+01 5.55241E-03 3.70500E-01 1.83732E-02 3.18959E-02 7.12965E-01
 -1       779-2.66850E+01 4.70709E-01 1.47968E+00-1.73336E-01 8.03791E-02 3.44604E+00
 -1       780-2.92798E+01 1.82170E-01 1.02698E+00-1.34278E-01 5.10572E-02 2.40278E+00
 -1       781-2.62161E+01 1.82184E-01 1.56042E+00-1.06747E-01-6.69164E-02 2.47770E+00
 -1       782-2.09289E+01-1.40194E-01 5.59829E-01-4.38480E-01-3.18399E-01 5.50007E+00
 -1       783-2.69881E+01 1.15764E-01 1.14669E+00-2.18716E-01-1.54458E-01 4.42669E+00
 -1       784-2.76970E+01-1.33473E-01 2.00978E+00 4.11361E-01-1.71396E-01 6.01537E+00
 -1       785-9.54787E+00-2.50305E-01-5.36753E-01-7.00961E-01-2.21765E-01 3.80525E+00
 -1       786-1.51983E+01-1.31135E-01-6.59371E-02-7.71112E-01-2.49561E-01 5.26919E+00
 -1       787-2.85397E+01-6.36229E-01 1.16472E+00 9.33577E-01-3.66103E-01 7.54684E+00
 -1       788-2.35462E+01-6.69956E-01-3.74237E-01 7.51458E-01 1.87328E-01 6.58504E+00
 -1       789-2.54882E+01-7.09257E-02-1.40543E+00 2.45563E-01-3.45715E-01 6.57990E+00
 -1       790-1.76867E+01-5.16466E-01-7.76122E-01 1.88083E-01-3.34468E-01 1.69050E+00
 -1       791-1.84606E+01-5.05281E-01-9.15029E-01-9.50060E-02-3.07370E-01 2.77917E+00
 -1       792-2.54814E+01 7.90108E-01-1.01527E+00 2.27167E-01-5.21460E-01 4.26319E+00
 -1       793-7.41710E+00-2.24991E-01-6.54887E-02 1.27705E-01-1.09341E-01-1.34761E-01
 -1       794-7.42873E+00 8.33631E-02-1.26497E-01-1.53736E-01-6.25701E-02 1.92510E-01
 -1       795-1.68627E+01 8.43393E-02-1.34965E-01-2.15230E-01-2.28799E-01 7.59235E-01
 -1       796-3.50036E+01-2.78895E-01-4.81502E-01 5.73630E-02-4.03682E-01 1.78609E+00
 -1       797-2.61361E+01-1.98852E-01-1.92538E-01 1.12593E-01-3.76206E-01 3.76703E-01
 -1       798-1.81919E+01-5.44706E-01-6.78164E-01-5.96781E-03-2.13782E-01-2.89521E+00
 -1       799-1.73647E+01-6.95741E-01-6.81635E-01-2.83878E-01-2.66212E-01-1.72977E+00
 -1       800-3.51148E+01-3.69062E-01-5.07549E-01-7.88205E-04-3.31639E-01-1.77060E+00
 -1       801-1.71524E+01-3.73465E-01-8.66112E-02-2.45976E-02-4.53408E-02-6.53685E-01
 -1       802-2.61809E+01-2.18912E-01 1.41428E-03 2.42782E-03-2.30337E-01-3.83103E-01
 -1       803-1.53746E+01 7.47504E-01 2.05228E-01 1.10296E+00-3.74250E-01-5.01261E+00
 -1       804-1.05263E+01-1.15887E-01-3.59569E-01 8.28223E-01-4.64240E-01-3.50615E+00
 -1       805-2.65194E+01 1.67689E-01-9.68528E-01-2.27696E-01-5.07136E-01-4.19412E+00
 -1       806-2.71967E+01-1.22845E-01 1.05081E+00 1.35954E-01 8.51733E-02-4.64602E+00
 -1       807-2.13929E+01-2.40177E-01 7.99646E-01 6.10545E-01-1.15128E-01-6.08052E+00
 -1       808-2.93962E+01 9.63942E-02 1.92858E+00-2.37637E-01-4.87207E-01-9.05827E+00
 -1       809-2.36577E+01-1.60693E-02 4.68984E-03 8.19652E-01-5.92756E-01-7.33186E+00
 -1       810-2.53174E+01 5.53638E-01-3.81756E-01 5.03848E-01-5.41984E-01-7.44549E+00
 -1       811-2.92472E+01 2.57463E-01 1.01626E+00-1.10205E-02-9.38310E-02-2.36371E+00
 -1       812-2.67574E+01 3.17251E-01 1.23707E+00 3.00082E-02 1.23891E-01-3.55566E+00
 -1       813-2.73952E+01-3.72631E-01 2.27539E+00-3.89007E-01-6.88621E-02-6.28451E+00
 -1       814-2.95391E+01 1.19271E-01 3.57636E-01 1.20800E-01-1.36158E-03-7.96146E-01
 -1       815-2.87591E+01 2.77153E-01 6.56896E-01 8.33299E-02 1.42759E-02-1.14445E+00
 -1       816-2.61041E+01-1.06391E-01 1.54972E+00-7.57441E-02-4.58068E-02-2.53385E+00
 -1       817-2.92744E+01 2.98692E-02 8.86408E-02-1.06959E-02 2.52526E-02-1.64228E-01
 -1       818-2.92973E+01-3.12002E-02 1.52341E-01 6.89855E-02 2.03376E-02-3.06443E-01
 -1       819-2.52701E+01 4.81197E-02 4.46108E-01 1.01902E-01 1.59816E-02-8.10457E-01
 -1       820-2.90697E+01 2.07409E-02 3.31560E-02 1.31299E-02-2.64837E-03 2.23452E-02
 -1       821-2.93073E+01 4.71455E-02 3.87756E-02 1.20678E-02 2.30682E-03-3.28399E-02
 -1       822-2.48382E+01 1.35272E-02 9.71920E-02-2.13654E-02 1.27293E-02-1.60903E-01
 -1       823-2.86153E+01 2.55504E-02 4.83132E-02 8.49314E-03 5.75438E-03 1.71359E-01
 -1       824-2.88297E+01 3.46332E-02 4.85341E-02 2.09100E-02 9.70974E-03 1.15172E-01
 -1       825-2.45943E+01 1.03818E-02 4.23741E-02 3.08092E-02 2.92471E-02 1.34116E-01
 -1       826-2.81772E+01 4.89840E-02 7.38601E-02-1.93833E-02-2.26836E-03 3.33539E-01
 -1       827-2.85031E+01 1.36323E-02 3.01806E-02 1.36044E-02 8.99979E-03 2.62993E-01
 -1       828-2.42089E+01 2.81566E-02 5.79684E-02 4.50641E-02 3.47498E-02 3.65651E-01
 -1       829-2.75767E+01 8.51861E-02 1.30946E-01-1.87403E-02-2.42606E-02 5.95570E-01
 -1       830-2.79967E+01 5.53216E-02 7.64832E-02 4.19986E-03 9.94954E-03 4.72985E-01
 -1       831-2.37155E+01 5.55573E-02 1.48876E-01 3.83883E-02 3.27415E-02 7.04482E-01
 -1       832-2.70009E+01 4.37624E-02 2.14812E-01 1.57011E-01-5.37914E-02 1.07593E+00
 -1       833-2.73926E+01 8.67867E-02 2.48268E-01 5.62163E-02 4.39484E-03 8.60207E-01
 -1       834-2.32494E+01 9.32726E-02 3.27661E-01 1.27914E-01 3.43786E-02 1.23324E+00
 -1       835-2.74088E+01-9.05901E-02-4.89335E-02 1.92284E-01-1.88725E-01 1.86932E+00
 -1       836-2.67587E+01 2.55783E-01 5.17786E-01 2.87532E-01 3.51714E-02 1.44947E+00
 -1       837-2.31681E+01 1.26936E-01 4.34953E-01 1.98655E-01-8.97700E-02 1.79037E+00
 -1       838-2.51587E+01 7.26441E-01 7.09651E-01 2.13119E-01 4.01850E-02 2.03205E+00
 -1       839-2.60938E+01-4.04744E+00-6.42544E+00-4.52761E+00-1.05938E-01 3.13681E+00
 -1       840-3.12234E+01-5.12390E+00-8.10816E+00-5.64075E+00 3.98715E-01 2.22334E+00
 -1       841-2.65478E+01 2.58377E+00-9.27042E-01-4.59230E-01-1.44420E-01 1.82336E+00
 -1       842-1.47383E+01-8.82545E-01-3.85944E+00-1.98794E+00 2.24754E-01 4.40642E+00
 -1       843-2.05149E+01-3.05365E+00-5.82847E+00-3.55456E+00 7.30767E-02 3.80575E+00
 -1       844-1.79200E+01 1.83880E+00-1.78493E+00-2.50537E-01 2.14620E-01 2.90194E+00
 -1       845-1.17181E+01 1.16651E+00-1.49736E+00-1.71135E-01 1.14388E-01 3.40499E+00
 -1       846-4.29986E+00-7.95516E-02-3.04413E-02-4.77324E-02 7.34965E-02 1.06613E+00
 -1       847-5.21352E+00-1.24558E-01-2.52528E-01 1.37743E-02 1.65197E-01 1.36175E+00
 -1       848-8.08708E+00 4.15672E-01-2.93737E-01-6.09783E-02 2.03898E-01 2.70967E+00
 -1       849-3.51419E+00-3.41029E-02 8.42290E-03 5.11458E-02 1.83401E-02 6.53465E-01
 -1       850-3.62080E+00-4.06514E-02 9.75506E-04 5.47594E-02 5.59628E-02 7.30648E-01
 -1       851-8.21962E+00 3.04366E-02 1.21970E-01-9.49837E-02 1.43448E-01 1.41111E+00
 -1       852-3.45615E+00-1.31670E-02-1.80222E-02 9.23986E-02-4.39258E-03 4.63423E-01
 -1       853-3.53757E+00-7.64264E-02-5.65933E-02 6.90674E-02 1.19720E-02 5.43970E-01
 -1       854-7.75627E+00 2.37923E-02 8.86102E-02-1.41854E-02 6.22623E-02 9.26387E-01
 -1       855-3.64964E+00-1.18323E-02-3.56997E-02 1.09034E-02 1.28316E-02 3.12552E-01
 -1       856-3.58887E+00-1.14761E-02-4.47645E-02 7.97713E-02-5.91544E-03 3.70833E-01
 -1       857-7.82229E+00-6.37595E-03-1.29287E-02 3.12742E-02 2.17158E-02 6.82277E-01
 -1       858-3.87360E+00-2.94386E-02-4.54419E-02 2.87434E-02-1.41003E-03 1.55351E-01
 -1       859-3.75420E+00-3.46021E-02-4.32758E-02 1.27942E-02-1.03296E-03 2.25096E-01
 -1       860-8.01514E+00-2.48703E-03-4.06068E-02-4.22521E-03 2.69005E-02 4.06120E-01
 -1       861-4.12592E+00-1.64539E-02-2.30600E-02 3.87834E-03 2.37410E-03 4.00163E-02
 -1       862-4.00781E+00-2.19590E-02-4.22402E-02 3.83861E-02 2.15779E-03 8.66358E-02
 -1       863-8.28530E+00-2.56281E-02-5.14244E-02 2.49130E-02 2.58203E-02 1.94403E-01
 -1       864-4.03924E+00-3.30731E-02 1.28648E-02 7.35322E-03-1.45150E-02 5.59463E-02
 -1       865-4.05615E+00-1.34763E-02 7.75308E-03 9.14192E-03 1.33157E-03 4.66680E-02
 -1       866-8.39824E+00-1.40765E-02 2.89919E-02 2.02453E-02 5.63100E-03 5.93010E-02
 -1       867-3.30966E+00 7.99785E-03 1.35368E-01 1.74494E-02 1.15516E-02 3.56845E-01
 -1       868-3.82117E+00-2.95671E-02 1.17121E-01 8.85737E-03-1.84790E-02 2.39721E-01
 -1       869-8.30438E+00-1.66003E-02 1.96851E-01 9.74446E-03 3.20970E-02 2.22410E-01
 -1       870-7.37890E+00-1.20081E-01 7.82375E-02 4.38393E-02 1.13397E-02 9.80196E-01
 -1       871-3.03658E+01 3.31523E-01 3.80369E+00 9.92303E-02 5.85211E-01 3.77980E+00
 -1       872-1.67905E+01 1.28464E-02 2.98219E+00 3.22123E-01-1.26966E-01 2.21928E+00
 -1       873-2.10129E+01-1.71960E-01 4.07827E+00 5.49490E-02-3.49202E-01 2.18645E+00
 -1       874-9.04186E+00-5.41468E-01 6.23725E-01 3.50530E-01-1.89028E-01 3.83641E+00
 -1       875-8.80958E+00-1.42734E+00-9.25053E-01 4.33890E-01-3.74909E-01 3.16328E+00
 -1       876-3.36523E+01-1.04708E+00 2.53613E+00 8.92586E-01-3.85009E-01-6.21944E+00
 -1       877-4.91246E+01 2.77274E-01 8.13062E-02 8.15610E-03-7.12954E-02-3.26329E-01
 -1       878-4.86603E+01 3.19268E-01 4.91863E-02 1.47004E-02-1.36836E-02-7.25254E-01
 -1       879-4.84891E+01 1.27498E-01 2.69679E-02 2.59804E-02-7.30611E-02 7.76511E-01
 -1       880-4.89194E+01 1.72291E-01 1.57448E-01-9.23048E-02-1.81098E-01 3.67202E-01
 -1       881-3.53755E+01-1.87926E-01-8.92070E-02 2.83902E-02-3.42064E-01 4.52457E-02
 -1       882-1.17337E+01 1.46977E-02 2.00282E-01-8.08868E-02 9.75557E-02-1.27952E+00
 -1       883-1.17547E+01 1.52002E-02 1.38012E-01-8.77990E-02 6.82356E-02-1.08314E+00
 -1       884-1.54755E+01 1.80866E-01 4.97483E-01-1.61528E-01 1.38788E-01-1.59164E+00
 -1       885-1.17391E+01 6.88473E-02 3.90698E-01-7.88990E-02 1.53170E-01-1.58471E+00
 -1       886-1.25778E+01 1.26219E-01 1.85797E-01-1.32968E-01 1.90233E-01-1.94017E+00
 -1       887-1.18444E+01-3.32865E-02 1.21485E-01 2.17607E-02 6.76339E-02 1.08826E+00
 -1       888-1.17150E+01 2.66065E-02 2.22808E-01 6.34048E-02 1.15693E-01 1.26500E+00
 -1       889-1.54798E+01 1.35584E-01 4.85912E-01 9.94783E-02 1.51571E-01 1.58212E+00
 -1       890-1.17523E+01 7.02554E-02 3.81553E-01 5.41054E-02 1.67154E-01 1.60096E+00
 -1       891-1.25382E+01 1.44733E-01 1.83522E-01 1.11725E-01 1.84381E-01 1.93687E+00
 -1       892-1.20258E+01-1.48969E-02-1.41961E-02-5.56880E-03 3.99260E-02-5.36444E-01
 -1       893-1.21260E+01-2.42677E-02-1.89211E-02-1.39268E-02 4.14588E-02-4.11058E-01
 -1       894-1.18616E+01 3.60019E-03 6.81899E-02-3.97443E-02 6.09634E-02-8.30642E-01
 -1       895-1.18625E+01 9.04605E-05 3.10108E-02 9.34160E-03 4.29100E-02-7.08601E-01
 -1       896-1.59360E+01 2.06393E-02 6.45034E-02-4.68719E-02 6.27564E-02-6.24403E-01
 -1       897-1.21318E+01-1.74822E-02-2.28210E-02 1.81191E-02 3.19503E-02 4.03268E-01
 -1       898-1.20077E+01-6.88962E-03-2.08614E-02 3.21202E-02 5.71254E-02 5.27315E-01
 -1       899-1.18698E+01-1.57870E-02 5.30960E-03 1.80421E-02 3.89050E-02 6.92627E-01
 -1       900-1.17836E+01-1.61514E-02 7.31723E-02 1.39183E-02 6.08263E-02 8.41763E-01
 -1       901-1.59294E+01 1.90436E-02 6.45719E-02 2.59150E-02 5.37999E-02 6.28474E-01
 -1       902-1.25934E+01-1.82232E-02 3.28355E-02-2.20239E-02 3.63799E-02-4.74951E-02
 -1       903-1.26624E+01-1.65336E-02 1.30097E-01-2.19369E-02 3.21327E-02 6.29591E-03
 -1       904-1.22890E+01-1.50927E-02-1.78654E-02-2.98925E-02 5.36559E-02-2.57435E-01
 -1       905-1.24263E+01-6.24109E-03-4.05165E-03-1.70878E-02 2.83874E-02-1.53411E-01
 -1       906-1.65753E+01 3.98156E-03 3.72826E-02-3.44327E-02 5.73353E-02-6.33506E-02
 -1       907-1.24089E+01-2.32960E-02-1.63091E-02 2.00143E-02 2.93100E-02 1.51428E-01
 -1       908-1.22688E+01-2.24933E-02-3.50983E-02 2.03268E-02 3.54999E-02 2.65669E-01
 -1       909-1.25662E+01-1.48961E-02 1.19525E-01 3.21609E-02 2.47113E-02 1.22250E-02
 -1       910-1.25578E+01-2.97468E-02 2.60496E-02 2.56107E-02 2.76262E-02 3.03336E-02
 -1       911-1.65162E+01-4.76473E-03 4.52236E-02 2.22027E-02 3.34672E-02 7.82446E-02
 -1       912-1.29335E+01-5.78759E-02 3.05618E-01-1.65007E-02 2.72029E-02 7.87578E-02
 -1       913-1.29767E+01-2.09305E-02 5.91455E-01-3.21500E-02 1.51887E-02-6.11142E-02
 -1       914-1.77698E+01-5.24002E-02 1.28050E+00-4.21629E-02-2.24595E-03 2.50500E-01
 -1       915-1.33821E+01-8.66006E-02 1.11412E+00 4.99523E-02 5.01513E-02-3.30862E-01
 -1       916-1.23687E+01-6.50856E-02 1.17096E+00 4.08079E-02 4.47673E-02-6.92242E-01
 -1       917-1.22165E+01 1.84272E-02 1.59883E+00 4.39539E-02 4.43220E-02 1.21030E+00
 -1       918-1.29364E+01-6.33779E-03 1.42198E+00-3.50153E-02 5.91883E-02 4.76965E-01
 -1       919-1.73197E+01 2.13037E-02 1.43165E+00-2.00543E-02 9.15113E-02-8.94901E-02
 -1       920-1.25251E+01-2.85622E-03 6.20007E-01 2.72998E-02-1.08165E-02 7.41576E-02
 -1       921-1.27651E+01-5.49480E-02 2.96886E-01 3.26636E-02 2.93156E-02-3.39259E-02
 -1       922-2.73970E+01 1.14198E-01 3.37040E+00 3.54290E-02-9.75226E-02 7.04725E+00
 -1       923-2.83249E+01 2.62982E-01 3.98192E+00-1.52598E-01 7.46565E-02 4.22416E+00
 -1       924-2.52186E+01-2.47522E-01 3.42266E+00 3.44419E-01-6.79007E-02 2.64387E+00
 -1       925-2.31600E+01-2.86131E-02 2.48957E+00 9.06827E-02 4.11095E-02 1.90940E+00
 -1       926-2.23459E+01-5.82323E-02 1.42691E+00-1.94839E-02 4.02283E-02 9.56870E-01
 -1       927-2.03188E+01 1.93814E-01 3.48519E+00 9.85504E-02 1.32015E-01 4.75504E-01
 -1       928-2.28185E+01 6.93490E-03 2.81845E+00 1.78483E-01 1.27105E-01-1.74809E+00
 -1       929-2.23428E+01 1.48075E-02 4.36514E+00-2.31807E-01 2.11981E-01-7.16492E-02
 -1       930-2.76203E+01-8.76267E-02 4.86243E+00-2.80080E-01 1.53329E-01-3.13064E+00
 -1       931-2.84238E+01 5.26937E-02 4.57315E+00-2.69002E-01 4.37220E-01-6.26694E+00
 -1       932-2.18972E+01-7.22593E-02 1.61901E+00-1.59456E-02 8.00657E-02-9.10288E-01
 -1       933-1.93711E+01 1.05636E-01 5.01512E-01-1.93975E-01 1.04344E-01-1.81071E+00
 -1       934-1.99635E+01 2.25406E-01 4.28101E-01-1.76422E-01 1.39539E-01-2.16507E+00
 -1       935-2.20144E+01 5.22231E-01 2.02200E-01 1.28298E-01 3.07850E-01-2.45171E+00
 -1       936-1.98893E+01 4.09753E-01 2.71742E-01-2.80570E-01 1.74926E-01-2.43877E+00
 -1       937-1.84170E+01 2.78429E-01-7.58396E-01 2.76967E-01 1.30473E-01-2.35762E+00
 -1       938-1.61828E+01 4.28258E-01 2.02947E-01-1.98797E-01 2.25316E-01-2.12699E+00
 -1       939-1.98760E+01 2.32021E-01 4.38081E-01 2.13310E-01 1.13771E-01 2.14099E+00
 -1       940-1.93752E+01 4.94920E-02 5.13361E-01 1.87757E-01 1.17150E-01 1.83976E+00
 -1       941-2.16891E+01 8.02518E-01 3.66604E-01 1.59302E-01 3.00230E-01 2.34583E+00
 -1       942-1.81177E+01 5.06676E-01-5.35435E-01 1.46520E-01 2.08443E-01 2.51236E+00
 -1       943-1.98205E+01 4.37639E-01 2.81926E-01 2.83365E-01 1.42292E-01 2.45620E+00
 -1       944-1.62534E+01 4.43782E-01 2.08744E-01 1.52307E-01 2.40653E-01 2.09087E+00
 -1       945-1.96293E+01 7.26122E-02 2.40276E-01-6.73032E-02 5.20719E-02-1.10913E+00
 -1       946-1.93563E+01 8.64985E-02 3.80985E-01-1.22805E-01 7.00445E-02-1.46420E+00
 -1       947-1.98710E+01 4.07622E-02 8.71844E-02-5.16772E-02 5.85354E-02-6.63722E-01
 -1       948-1.96048E+01 4.92503E-02 1.55594E-01-4.42827E-02 5.00808E-02-8.96383E-01
 -1       949-1.56464E+01 5.39780E-02 2.12130E-01-5.05702E-02 7.31540E-02-1.06529E+00
 -1       950-1.93331E+01 8.95773E-02 4.00689E-01 1.42774E-01 8.95736E-02 1.48301E+00
 -1       951-1.95903E+01 6.35419E-02 2.33925E-01 8.31515E-02 5.22964E-02 1.12108E+00
 -1       952-1.95969E+01 6.04965E-02 1.80405E-01 5.59943E-02 4.32987E-02 8.98591E-01
 -1       953-1.98716E+01 3.23516E-02 9.27489E-02 4.60806E-02 3.74366E-02 6.69310E-01
 -1       954-1.56490E+01 3.80012E-02 2.10580E-01 2.31794E-02 6.70677E-02 1.03234E+00
 -1       955-2.02082E+01 2.66858E-02 1.47038E-02-4.65414E-02 5.35056E-02-3.64989E-01
 -1       956-2.00783E+01 3.46612E-02 3.28664E-02-3.31021E-02 4.29589E-02-5.01459E-01
 -1       957-2.06419E+01 2.05602E-02 3.93058E-02-4.71571E-02 5.86431E-02-1.08109E-01
 -1       958-2.03852E+01 2.20601E-02 1.85919E-02-3.08709E-02 4.12893E-02-2.26415E-01
 -1       959-1.62263E+01 1.97765E-02 1.01033E-02-3.91413E-02 6.14630E-02-3.26628E-01
 -1       960-2.03469E+01 2.93533E-02 3.41621E-02 2.56955E-02 3.67744E-02 2.36117E-01
 -1       961-2.05794E+01 2.20153E-02 4.47840E-02 3.49965E-02 3.49117E-02 9.32396E-02
 -1       962-2.00402E+01 3.63727E-02 3.87389E-02 4.40164E-02 3.66130E-02 5.12585E-01
 -1       963-2.02341E+01 4.77770E-02 2.09951E-02 5.26911E-02 4.89837E-02 3.52351E-01
 -1       964-1.62118E+01 1.68796E-02 1.34532E-02 3.17621E-02 4.10611E-02 3.25795E-01
 -1       965-2.16748E+01-8.58365E-04 7.12432E-01-5.70937E-02 5.37050E-02 8.17431E-01
 -1       966-2.13236E+01-3.06765E-02 3.64828E-01-1.69621E-02 4.57290E-02 3.57377E-01
 -1       967-2.09850E+01 6.44685E-03 1.65338E-01-3.31606E-02 5.23183E-02 2.06740E-01
 -1       968-2.08334E+01 8.88983E-03 8.19510E-02-3.03037E-02 4.45482E-02 1.47159E-02
 -1       969-1.70003E+01-1.10358E-02 3.14904E-01-2.74369E-02 4.99495E-02 1.59091E-01
 -1       970-2.10301E+01-4.17678E-02 3.98512E-01-4.10031E-03 1.54297E-02-3.51559E-01
 -1       971-2.15401E+01 4.28522E-02 7.97990E-01 5.06949E-02 3.05465E-02-8.09363E-01
 -1       972-2.07636E+01 1.30332E-02 7.29616E-02 2.44707E-02 3.06334E-02-9.99185E-03
 -1       973-2.07886E+01 5.15824E-03 1.67140E-01 1.67767E-02 4.30720E-02-2.16500E-01
 -1       974-1.68257E+01-2.36812E-02 3.70759E-01 3.85983E-02 2.49710E-02-1.27251E-01
 -1       975-1.45179E+01 2.88958E-01-6.15002E-01 8.07627E-02 2.96461E-01-2.82630E+00
 -1       976-1.09366E+01 3.48851E-01-6.81379E-01-1.25792E-01 1.91369E-01-2.72944E+00
 -1       977-1.23644E+01 3.34086E-01 6.02893E-02-1.45397E-01 1.85911E-01-2.20186E+00
 -1       978-1.48167E+01 4.85258E-01-8.69075E-01-1.34400E-01 3.20305E-01 2.78814E+00
 -1       979-1.10822E+01 2.71710E-01-6.53801E-01-2.89272E-02 2.44624E-01 2.68925E+00
 -1       980-1.24681E+01 3.75915E-01 1.89666E-02 9.75345E-02 2.07747E-01 2.18501E+00
 -1       981-9.41012E+00-3.10501E-01 6.90753E-01-2.18780E-01 3.95556E-02-1.96992E+00
 -1       982-9.22796E+00-2.91423E-01 5.96941E-01-2.14253E-02 1.13380E-01 2.41281E+00
 -1       983-1.64427E+01-2.81804E-01 2.30463E+00-1.83327E-01 4.51606E-01 1.67492E+00
 -1       984-1.67906E+01-4.66289E-01 1.75502E+00-1.44657E-01 1.35861E-01-1.12805E+00
 -1       985 1.07601E+00-3.30940E-01 2.35252E-02-3.29272E-01-1.60570E-02-4.63304E-02
 -1       986-4.84421E-01-2.42346E-01 5.82420E-01-5.58769E-03 1.80486E-01-3.09940E-01
 -1       987 4.13616E-01-4.09316E-01-2.42729E-01 1.81931E-01-8.17843E-02-9.71309E-02
 -1       988-4.94631E-02-1.72642E-03 4.89998E-01 1.68900E-01-2.22380E-01-3.80749E-01
 -1       989 1.59493E+00 8.76228E-01 1.54073E-01-3.88164E-01 5.69492E-01-8.38957E-01
 -1       990 1.81037E-01 1.98330E+00-1.42159E-01-1.25130E-01 3.17696E-01-6.66847E-01
 -1       991 7.85682E-01 1.19192E+00 4.30550E-02-2.35120E-01 3.98241E-01-9.01707E-01
 -1       992 7.51787E-01 2.37042E+00-2.76549E-01 9.02345E-02 1.78434E-01-7.13719E-01
 -1       993 1.19978E+00 3.19467E+00-3.36098E-01-3.87945E-01 2.28567E-01-5.53462E-01
 -1       994 2.28385E+00 3.33132E+00 2.17689E-01-2.86859E-01 3.62419E-01-7.50791E-01
 -1       995 1.46374E+00 3.57596E+00 1.66417E-01-2.16317E-02 4.31722E-02-5.58218E-01
 -1       996 1.30141E+00 3.27853E+00 1.01601E-01-5.17095E-02 4.83167E-02-5.26526E-01
 -1       997 1.48480E+00 3.55483E+00 1.99967E-01-1.08435E-01 4.06947E-02-6.30522E-01
 -1       998 1.38584E+00 3.58723E+00-1.21387E-01 2.26988E-01-1.22948E-01-4.15845E-01
 -1       999 1.11813E+00 3.41144E+00-2.08263E-01 3.18221E-03-3.27112E-02-6.52717E-01
 -1      1000 1.56494E+00 3.23679E+00 2.11218E-02 2.45639E-01-1.31063E-01-6.03000E-01
 -1      1001 2.72348E+00 2.62366E+00-1.34948E-01 3.99224E-01-4.22063E-01-4.96824E-01
 -1      1002 2.04436E+00 2.79732E+00-2.20722E-01 5.46907E-01-2.92623E-01-3.45962E-01
 -1      1003 2.07650E+00 3.12958E+00-4.66978E-02 1.82634E-01-2.92812E-01-6.00078E-01
 -1      1004 1.01283E+00 5.60292E-01 3.97745E-01 4.55436E-01-6.47355E-01-7.11050E-01
 -1      1005 1.13119E+00 1.35249E+00-2.57361E-01 1.73668E-01-3.47681E-01-5.39615E-01
 -1      1006-1.64141E+01 8.97625E-01-4.02140E+00-3.94358E+00 3.24607E+00 9.30469E+00
 -1      1007-1.59964E+01 8.25629E-01-3.77662E+00 3.73083E+00-2.98070E+00 8.91589E+00
 -1      1008-4.03549E+01-7.03999E+00-7.71141E+00 1.08406E+00-4.29399E-01 1.48343E+01
 -1      1009-3.95233E+01-6.84895E+00-6.57036E+00-1.05474E+00 5.83669E-01 1.33470E+01
 -1      1010-1.03759E+01 1.48346E+00-2.30225E+00 1.11911E+00-1.35453E+00 7.11895E+00
 -1      1011-9.29170E+00 1.53714E+00-2.36321E+00 2.13002E-02-7.65656E-02 7.04127E+00
 -1      1012-9.19571E+00 1.58968E+00-2.74728E+00-1.13624E+00 1.16737E+00 7.28675E+00
 -1      1013-4.03424E+01-7.51986E+00-7.56343E+00 6.78683E-02 2.82297E-02 1.49159E+01
 -1      1014-6.15525E+00 2.75594E+00-1.98384E+00-1.76398E+00 1.99614E+00 5.32299E+00
 -1      1015-7.67208E+00 2.48657E+00-1.80843E+00 1.94183E+00-1.88901E+00 5.71610E+00
 -1      1016-4.37058E+01-5.38432E+00-7.21411E+00-3.19872E+00 1.16580E+00 1.36418E+01
 -1      1017-4.51549E+01-5.40801E+00-5.92009E+00 3.84074E+00-1.54040E+00 1.46525E+01
 -1      1018-5.00752E+00 2.75026E+00-1.77891E+00 4.47197E-01-6.37055E-01 5.01723E+00
 -1      1019-5.29438E+00 2.83390E+00-1.88264E+00-3.72791E-01 6.77178E-01 4.58186E+00
 -1      1020-4.94115E+01-8.29321E+00-7.44378E+00 1.39399E+00-1.50797E-01 1.65187E+01
 -1      1021-5.15904E+01-1.05193E+01-6.64910E+00-4.36524E-01 3.30780E-01 1.64261E+01
 -1      1022-4.80456E+01-7.83585E+00-7.90761E+00-1.79060E+00 5.09729E-01 1.44977E+01
 -1      1023-3.43594E+00 3.22676E+00-1.58654E+00 1.99899E-02 1.03987E-01 3.35805E+00
 -1      1024-5.35309E+01-3.66756E+00-7.43320E+00-5.60503E+00 1.38076E+00 1.39824E+01
 -1      1025 3.41206E-02 2.12258E+00 1.43104E+00 1.09275E+00-2.03194E+00 1.17241E-01
 -1      1026-5.49848E-02 2.22458E+00 1.03278E+00-1.09719E+00 1.86624E+00 7.34559E-01
 -1      1027-5.40380E+01-3.79172E+00-7.49849E+00 5.57799E+00-1.09020E+00 1.37724E+01
 -1      1028 9.39836E-01 1.14687E+00 2.35021E+00-2.56791E-01 6.33547E-01-5.92524E-01
 -1      1029 3.86966E-01 2.30483E+00 1.82404E+00-1.20496E+00 2.05603E+00 3.38050E-01
 -1      1030 1.40747E+00 2.37181E+00 1.46147E+00-5.77430E-01 1.35359E+00-4.82288E-01
 -1      1031-4.40314E+01-1.98075E+00-7.41526E+00-5.64272E+00 1.89541E+00 1.37771E+01
 -1      1032-6.83569E+01-4.61468E+00-5.58579E+00-2.83594E+00 9.34191E-02 1.00969E+01
 -1      1033-6.86141E+01-7.50429E+00-8.54772E+00-4.65615E+00 1.10616E-01 1.29619E+01
 -1      1034 1.45581E+00 1.42566E+00 2.56386E+00 3.71575E-01-7.45148E-01-9.54569E-01
 -1      1035 5.02165E-01 1.76177E+00 1.56467E+00 7.06496E-01-1.41611E+00-6.62742E-01
 -1      1036 6.71203E-01 2.43092E+00 2.08245E+00 1.33334E+00-2.17010E+00 7.37926E-02
 -1      1037-6.98612E+01-7.46339E+00-8.19060E+00 4.53005E+00-3.18924E-01 1.25572E+01
 -1      1038-6.83038E+01-4.64561E+00-5.47710E+00 2.90197E+00-5.56844E-02 1.00222E+01
 -1      1039-4.40474E+01-2.03178E+00-7.40357E+00 5.74632E+00-1.87784E+00 1.37317E+01
 -1      1040-6.71435E+00 1.10683E+00-3.26630E+00-2.79804E+00 3.42258E+00 5.48311E+00
 -1      1041-2.46878E+01 1.93698E-01-6.16701E+00-4.46528E+00 2.95824E+00 1.23791E+01
 -1      1042-5.53222E+00 2.40511E+00-1.39603E+00-3.03026E+00 3.22597E+00 4.04863E+00
 -1      1043-3.56104E+01-1.54801E+00-7.27572E+00-5.09747E+00 2.08433E+00 1.40388E+01
 -1      1044-8.03956E-01 2.63943E+00 3.51896E-01 1.40415E+00-1.74356E+00 3.34670E-01
 -1      1045-5.23041E-01 3.21183E+00-4.36774E-01 1.16094E+00-1.32633E+00 1.03495E+00
 -1      1046-2.88454E+00 2.71540E+00-2.40151E-01 1.80662E+00-2.55292E+00 1.74152E+00
 -1      1047-1.26661E+00 2.91700E+00-8.90088E-01 7.47042E-01-1.24627E+00 1.37777E+00
 -1      1048-1.61320E+00 3.29682E+00-8.36184E-01 5.18512E-01-8.22385E-01 9.78271E-01
 -1      1049-9.18875E+00 2.12133E+00-1.74280E+00 1.15467E+00-1.62859E+00 6.46910E+00
 -1      1050 4.13888E-02 3.76914E+00-1.18709E-01 4.56236E-01-6.54636E-01 3.74910E-01
 -1      1051 3.48730E-01 3.89736E+00 2.56630E-01 1.05219E-01-1.99823E-01 3.62200E-01
 -1      1052-6.37100E+00 2.80965E+00-1.75699E+00 7.05347E-01-8.97590E-01 4.93929E+00
 -1      1053-1.53592E+00 3.39113E+00-5.58204E-01 2.36526E-01-4.30804E-01 1.07087E+00
 -1      1054-1.45932E+00 3.61249E+00-6.04061E-01-1.89123E-03 3.96136E-02 1.14809E+00
 -1      1055-5.10020E+00 2.59404E+00-1.86854E+00-5.95072E-02-5.54920E-01 6.30784E+00
 -1      1056-3.32759E-02 3.84281E+00 1.02487E-01-2.08683E-01 9.93689E-02 3.14228E-01
 -1      1057 1.61656E-01 3.75942E+00-2.60862E-02 1.44252E-01 6.97271E-02 3.62278E-01
 -1      1058-6.04649E+00 2.43322E+00-2.46952E+00 9.30527E-02 2.96474E-01 4.81929E+00
 -1      1059-7.30563E-01 3.59932E+00-4.45027E-01-1.38257E-01 3.05946E-01 6.52589E-01
 -1      1060-2.22685E-01 3.63101E+00-5.42684E-01-3.59802E-01 7.42979E-01 8.73166E-01
 -1      1061-3.54534E+00 3.09527E+00-1.72264E+00-6.14380E-02 1.54389E-01 4.28910E+00
 -1      1062-6.58298E-01 3.40455E+00-6.93980E-01-6.62463E-01 8.82990E-01 1.03479E+00
 -1      1063-7.63195E-01 3.33486E+00 3.69418E-02-7.71228E-01 1.28984E+00 7.29501E-01
 -1      1064-6.40931E+00 2.91274E+00-1.86305E+00-1.26527E+00 1.00189E+00 5.37773E+00
 -1      1065-9.25491E-01 3.37165E+00 2.06025E-01-7.74734E-01 1.44582E+00 5.39310E-01
 -1      1066-4.34110E-01 2.81328E+00 2.62963E-01-1.00972E+00 1.73148E+00 5.72252E-01
 -1      1067-6.52060E+00 2.41896E+00-1.90796E+00-1.00280E+00 1.58287E+00 5.91731E+00
 -1      1068-2.46360E+00 2.90088E+00-2.82636E-01-1.66021E+00 2.26116E+00 3.11777E+00
 -1      1069-6.41336E+01-1.13914E+01-9.87805E+00 3.32990E+00-5.65986E-01 1.48481E+01
 -1      1070-6.69696E+01-9.40232E+00-7.23218E+00 3.97238E+00-4.19034E-01 1.42718E+01
 -1      1071-5.44472E+01-6.11680E+00-7.58588E+00 4.95995E+00-1.16697E+00 1.57870E+01
 -1      1072-7.04465E+01-1.43399E+01-7.10000E+00 1.66360E+00-5.66253E-01 1.34882E+01
 -1      1073-6.32905E+01-1.11696E+01-8.15992E+00 7.09202E-01-3.74242E-01 1.45062E+01
 -1      1074-4.81638E+01-6.55533E+00-7.07243E+00 2.55516E+00-1.49258E+00 1.63857E+01
 -1      1075-6.41270E+01-1.42410E+01-1.05331E+01 1.55556E+00-4.35326E-01 1.50808E+01
 -1      1076-6.78027E+01-1.44129E+01-8.21893E+00 1.03100E+00 2.18437E-01 1.43497E+01
 -1      1077-4.76758E+01-9.81347E+00-7.53708E+00 1.25858E+00-6.64551E-03 1.66175E+01
 -1      1078-7.21822E+01-1.63105E+01-6.89833E+00 5.19866E-02-2.10084E-01 1.30265E+01
 -1      1079-6.59916E+01-1.44599E+01-8.16549E+00-8.77833E-01-1.66434E-01 1.42256E+01
 -1      1080-4.71822E+01-8.83613E+00-8.92377E+00 6.24133E-01-8.85035E-01 1.71855E+01
 -1      1081-6.55271E+01-1.52206E+01-1.05251E+01 2.75817E-01 3.26203E-01 1.44839E+01
 -1      1082-6.90148E+01-1.56821E+01-7.95907E+00 3.20202E-02 4.52229E-01 1.38337E+01
 -1      1083-4.83293E+01-1.04681E+01-7.41110E+00-2.12573E-01 4.87850E-01 1.66730E+01
 -1      1084-6.69943E+01-1.43074E+01-8.36392E+00-1.05715E+00 1.41465E-01 1.45245E+01
 -1      1085-6.52574E+01-1.47266E+01-1.07084E+01-1.31233E+00-3.21384E-02 1.45876E+01
 -1      1086-3.89994E+01-6.45746E+00-6.84423E+00-3.14637E-01 3.07099E-01 1.37328E+01
 -1      1087-7.13520E+01-1.35316E+01-7.44774E+00-2.09113E+00 1.71339E-01 1.34329E+01
 -1      1088-7.03537E+01-1.47983E+01-9.61149E+00-1.63005E+00 5.45394E-01 1.34953E+01
 -1      1089-4.76472E+01-8.74545E+00-7.85393E+00-1.62346E+00 3.94540E-01 1.56577E+01
 -1      1090-6.64202E+01-1.02816E+01-1.00061E+01-3.24075E+00 3.75456E-01 1.36680E+01
 -1      1091-7.07546E+01-1.25989E+01-8.40548E+00-2.85990E+00 6.99004E-01 1.32636E+01
 -1      1092-4.51953E+01-7.16594E+00-7.12946E+00-2.51669E+00 1.23974E+00 1.40219E+01
 -1      1093-5.38370E+01-5.53011E+00-8.00633E+00-4.78439E+00 9.50533E-01 1.56714E+01
 -1      1094-2.47635E+01 2.97723E-01-6.26690E+00 4.52915E+00-2.92078E+00 1.23963E+01
 -1      1095-6.85241E+00 1.15956E+00-3.22817E+00 2.62837E+00-3.31167E+00 5.58873E+00
 -1      1096-3.58311E+01-1.71187E+00-7.30937E+00 5.11029E+00-1.84476E+00 1.38002E+01
 -1      1097-5.88277E+00 1.57065E+00-1.73282E+00 2.46852E+00-3.40162E+00 3.84053E+00
 -1      1098-1.13308E+01 1.79407E+00-3.21350E+00-3.17816E+00 2.76950E+00 7.10955E+00
 -1      1099-2.40945E+01-1.45471E+00-6.66960E+00-2.61064E+00 1.92171E+00 1.04415E+01
 -1      1100-3.03022E+01-1.82233E+00-5.82805E+00-3.74639E+00 2.50109E+00 1.23430E+01
 -1      1101-1.07527E+01 2.20841E+00-2.26247E+00 2.80203E+00-2.47065E+00 6.64716E+00
 -1      1102-3.14792E+01-2.88639E+00-5.97778E+00 4.33709E+00-2.92216E+00 1.25550E+01
 -1      1103-2.57691E+01-1.26586E+00-5.62783E+00 2.97966E+00-1.88327E+00 1.11186E+01
 -1      1104-2.24890E+01-2.29089E+00-4.52789E+00 5.80181E-01-1.31257E+00 1.15876E+01
 -1      1105-1.95441E+01-1.18425E+00-5.54901E+00 9.12621E-01-4.37005E-02 9.93869E+00
 -1      1106-2.69631E+01-2.65776E+00-4.09762E+00 1.55832E+00-5.48979E-01 1.30380E+01
 -1      1107-2.28585E+01-1.98119E+00-5.66185E+00 5.92850E-01-6.00392E-01 1.20761E+01
 -1      1108-2.69677E+01-3.55656E+00-3.61141E+00 3.33498E-02 4.25198E-01 1.31696E+01
 -1      1109-2.40795E+01-2.48180E+00-4.97300E+00-4.91632E-01 1.33687E+00 1.14313E+01
 -1      1110-2.04918E+01-1.86906E+00-5.63984E+00-5.00504E-01 9.31193E-01 9.54962E+00
 -1      1111-2.71642E+01-2.77526E+00-6.63302E+00-1.92612E+00-1.45325E-02 1.22393E+01
 -1      1112-1.99605E+01-1.79576E+00-6.52798E+00 3.90267E-02 1.85763E-01 1.06651E+01
 -1      1113-2.60292E+01-1.69148E+00-5.59976E+00 2.03144E+00-1.08824E+00 1.26071E+01
 -1      1114-2.21273E+01-2.37469E+00-4.11372E+00-4.79830E-01-1.07404E-01 1.20296E+01
 -1      1115-1.96442E+01-1.71955E+00-6.59459E+00-1.22367E-01-2.34588E-01 1.00561E+01
 -1      1116-2.50841E+01-2.61481E+00-7.58721E+00-2.47027E+00 1.36376E+00 1.12559E+01
 -1      1117-6.73429E+01-8.07830E+00-1.89855E-01-7.28905E-01 4.92051E-01-6.26527E-01
 -1      1118-6.76413E+01-1.13610E+01-1.13476E-01 3.11102E-02 1.04677E-01-6.31220E-01
 -1      1119-6.71562E+01-1.04857E+01-4.15985E-02 4.90205E-01-2.99149E-01-4.12180E-01
 -1      1120-6.70934E+01-4.84701E+00 2.28257E-01 1.44330E+00-3.94642E-01-4.34747E-01
 -1      1121-6.68746E+01-8.26989E+00-1.30288E-01-6.82207E-01-5.59627E-01 5.45191E-01
 -1      1122-6.62377E+01-4.39239E+00 7.43847E-02 9.05013E-01 8.05208E-01 2.40665E-01
 -1      1123-6.73663E+01-1.02374E+01 1.06026E-02 2.89039E-01 3.18854E-01 3.75304E-01
 -1      1124-6.74946E+01-1.14424E+01 2.30048E-03-2.31024E-01-7.06669E-02 3.74996E-01
 -1      1125-6.52093E+01-1.31798E+00-5.84302E-02-3.45776E-01-5.73483E-01-2.97474E-02
 -1      1126-6.49159E+01-1.19527E+00-3.12109E-02-3.69860E-01 6.74863E-02 5.82389E-02
 -1      1127-6.69605E+01-8.16490E+00-1.61936E-01 1.06708E+00-4.01544E-01-5.42148E-01
 -1      1128-6.75031E+01-1.03987E+01-1.10484E-01-2.65256E-01-3.22758E-01 5.83461E-01
 -1      1129-6.70555E+01-7.99148E+00-1.67983E-03 9.86570E-01 4.72030E-01 5.43219E-01
 -1      1130-6.72711E+01-1.05133E+01-1.22650E-01-6.37529E-01 2.88154E-01-6.07600E-01
 -1      1131-6.74685E+01-1.13957E+01 6.62486E-04 1.02287E-02-1.52601E-01-4.28214E-01
 -1      1132-6.75994E+01-1.12507E+01 1.68708E-02 2.80485E-01 4.32608E-02 4.19989E-01
 -1      1133-6.62614E+01-4.33775E+00 5.51273E-02-1.16887E+00-6.76322E-01 2.17697E-01
 -1      1134-6.66831E+01-6.52780E+00-3.83564E-02 8.90092E-02-4.46589E-01 7.13927E-02
 -1      1135-6.52634E+01-1.07452E+00-1.44589E-02 2.95165E-01-1.85479E-01 6.98883E-02
 -1      1136-6.48401E+01-1.38290E+00 2.62172E-02 3.89376E-01 5.53226E-01-5.96351E-02
 -1      1137-6.54849E+01-4.47996E+00 1.70405E-01-1.02713E+00 1.96518E-01 2.16842E-01
 -1      1138-6.68396E+01-6.13432E+00-9.94980E-02 1.26476E-01 5.08672E-01 4.32779E-02
 -1      1139-6.70615E+01-9.18467E+00-6.08652E-02 1.43042E-01-4.22130E-01-5.35170E-03
 -1      1140-6.73162E+01-1.07614E+01-3.78983E-02 1.64726E-02-2.24853E-01-1.54511E-03
 -1      1141-6.71693E+01-9.02778E+00-6.50541E-02-2.49904E-02 4.10521E-01-5.38584E-02
 -1      1142-6.73813E+01-1.12289E+01-4.79496E-02 1.70156E-02-1.54535E-02-3.22877E-02
 -1      1143-6.73838E+01-1.07145E+01-4.79855E-02-5.03954E-02 2.04197E-01-1.07460E-01
 -1      1144-6.61163E+01-3.43264E+00 3.11647E-03 4.51326E-02-1.93251E-01-3.45291E-02
 -1      1145-6.51894E+01-1.25813E+00-1.28795E-01 8.34881E-01-4.25449E-01-2.75653E-01
 -1      1146-6.59089E+01-3.45839E+00 4.30001E-02 1.42524E-02 1.25993E-01 5.29692E-02
 -1      1147-6.49443E+01-1.37895E+00-1.25767E-01-1.05094E+00-4.34945E-01 8.68898E-02
 -1      1148-6.45413E+01-1.34766E+00-8.57984E-02 1.13948E+00 4.38880E-01 8.41539E-03
 -1      1149-6.45556E+01-1.32293E+00-2.56643E-01-1.23018E+00 2.96467E-01-1.52242E-01
 -1      1150-6.57896E+01-3.04145E+00-1.65851E+00-1.82923E+00 7.23313E-01-1.27935E+00
 -1      1151-6.52987E+01-1.04408E+00-7.05533E-01-1.09886E+00 1.71360E-01-1.14588E+00
 -1      1152-6.33688E+01-4.35607E-01 1.05390E-01-8.38632E-01 1.97575E-01 7.07312E-02
 -1      1153-6.49368E+01-8.69812E-01-5.93919E-01 1.05056E+00-1.28517E-01-1.02245E+00
 -1      1154-6.70625E+01-2.78619E+00-1.37882E+00 1.15957E+00-6.53053E-01-1.26140E+00
 -1      1155-6.36921E+01-4.39144E-01 1.45209E-01 5.73332E-01-2.34519E-01 2.20646E-02
 -1      1156-6.54608E+01-1.20053E+00-7.71903E-01-1.13096E+00-1.05676E-01 1.09498E+00
 -1      1157-6.36913E+01-4.80791E-01 1.42282E-01-7.21755E-01-2.20849E-01-9.79456E-02
 -1      1158-6.70408E+01-3.25008E+00-1.66556E+00-1.67343E+00-7.47110E-01 1.83324E+00
 -1      1159-6.52504E+01-1.18358E+00-7.27654E-01 1.12203E+00 1.17462E-01 1.09241E+00
 -1      1160-6.62194E+01-2.98516E+00-1.45655E+00 1.86257E+00 6.85243E-01 1.51397E+00
 -1      1161-6.34480E+01-4.79520E-01 1.45855E-01 7.77215E-01 2.28148E-01-1.17671E-01
 -1      1162-6.73849E+01-6.71575E+00-2.79450E-01-9.53427E-01-1.51883E-02-6.57265E-01
 -1      1163-6.59127E+01-4.60383E+00 1.47770E-01-1.80331E+00 4.78814E-01-5.57813E-01
 -1      1164-6.49108E+01-2.75502E+00 1.52889E-01-1.29394E+00 1.76980E-01 2.14409E-01
 -1      1165-6.94520E+01-1.02734E+01-2.06121E+00-1.11685E+00 4.84849E-01-1.77808E+00
 -1      1166-6.88314E+01-8.82037E+00-1.72118E+00-1.10333E+00 3.28729E-01-1.72944E+00
 -1      1167-6.68817E+01-6.56313E+00-8.16564E-02-7.48302E-01 8.76688E-02 2.13100E-02
 -1      1168-6.89626E+01-1.22093E+01-1.61731E+00-6.20347E-01 9.14564E-02-1.83840E+00
 -1      1169-6.94347E+01-1.17723E+01-2.31851E+00-1.11935E+00 3.09674E-01-1.99973E+00
 -1      1170-6.72867E+01-9.25688E+00-2.38537E-02-7.40564E-01 3.50143E-01-5.40978E-01
 -1      1171-6.93366E+01-1.29312E+01-2.61962E+00 5.03083E-02 3.81061E-02-2.10991E+00
 -1      1172-6.89494E+01-1.25121E+01-1.55025E+00-1.89040E-01 1.68120E-01-1.87307E+00
 -1      1173-6.71176E+01-1.10306E+01 4.52464E-02-2.66865E-01 1.87558E-01-5.50721E-01
 -1      1174-6.82649E+01-1.24394E+01-1.80834E+00 1.38846E-01-1.51320E-01-1.46582E+00
 -1      1175-6.92167E+01-1.28299E+01-2.46319E+00-1.29810E-01-1.79228E-01-1.87689E+00
 -1      1176-6.76812E+01-1.13534E+01-5.21591E-02-4.71524E-02-1.48795E-02-4.83796E-01
 -1      1177-6.84194E+01-1.15502E+01-2.32122E+00 7.56119E-01-3.23194E-01-1.80915E+00
 -1      1178-6.80573E+01-1.18787E+01-1.47400E+00 5.88923E-01-1.85763E-01-1.36947E+00
 -1      1179-6.71384E+01-1.09623E+01 1.52254E-02 2.55126E-01-2.21117E-01-3.65578E-01
 -1      1180-6.89054E+01-9.64030E+00-2.33309E+00 1.79371E+00-3.75327E-01-1.89901E+00
 -1      1181-6.81163E+01-1.06040E+01-2.12260E+00 1.11852E+00-3.46752E-01-1.72474E+00
 -1      1182-6.68071E+01-9.41402E+00 6.15914E-02 7.82929E-01-3.15343E-01-4.05940E-01
 -1      1183-6.78261E+01-4.98125E+00-6.01637E-01 2.10436E+00-3.19775E-01-1.35500E+00
 -1      1184-6.86349E+01-7.23575E+00-1.59194E+00 2.10499E+00-4.69752E-01-1.79249E+00
 -1      1185-6.72260E+01-6.62082E+00-5.92997E-02 1.43133E+00-3.25392E-01-5.40112E-01
 -1      1186-6.65748E+01-2.83370E+00 8.51616E-03 1.16363E+00-3.70338E-01-9.45799E-02
 -1      1187-6.41683E+01-7.78451E-01-1.39403E-01-4.30662E-01-1.19701E-01-1.37945E-01
 -1      1188-6.46213E+01-7.55309E-01-1.32619E-01-1.25432E-01-1.48524E-01 5.53228E-02
 -1      1189-6.49843E+01-1.34456E+00-1.81501E-01-7.25570E-01-5.43689E-01-1.13394E-02
 -1      1190-6.43116E+01-3.46085E-01 3.17334E-02 8.59059E-02-7.10447E-02 3.36190E-02
 -1      1191-6.41895E+01-5.05042E-01-1.47808E-01 3.96141E-01 1.61862E-02 1.52898E-01
 -1      1192-6.52297E+01-1.24759E+00-6.72295E-03 7.78577E-02-2.89569E-01 2.51687E-02
 -1      1193-6.52957E+01-1.15812E+00-8.64958E-02 5.93157E-01-1.97851E-01-7.93480E-02
 -1      1194-6.68631E+01-4.85138E+00-1.64860E+00 1.89095E+00 6.34246E-01 1.38770E+00
 -1      1195-6.84984E+01-7.44425E+00-2.15521E+00 1.25834E+00 8.19876E-01 2.06206E+00
 -1      1196-6.57483E+01-3.08435E+00-4.33868E-01 1.20439E+00 5.48474E-01 3.01169E-02
 -1      1197-6.92326E+01-9.25269E+00-2.93451E+00 1.69143E+00 2.46500E-01 2.57985E+00
 -1      1198-6.80936E+01-1.02797E+01-1.73962E+00 1.24730E+00 2.72289E-01 1.61306E+00
 -1      1199-6.67934E+01-6.33889E+00 5.82226E-02 9.27758E-01 6.55123E-01 2.97559E-01
 -1      1200-6.81704E+01-1.12335E+01-1.93103E+00 6.23984E-01 2.95515E-01 1.59896E+00
 -1      1201-6.94472E+01-1.22398E+01-2.21271E+00 2.21355E-01 3.76699E-01 2.05357E+00
 -1      1202-6.70892E+01-9.44631E+00-8.43208E-02 6.11190E-01 3.68643E-01 4.10770E-01
 -1      1203-6.97844E+01-1.27862E+01-2.83387E+00 5.28167E-01-8.66102E-02 2.27627E+00
 -1      1204-6.83174E+01-1.26371E+01-1.83772E+00 3.15963E-01 5.01683E-03 1.48943E+00
 -1      1205-6.75767E+01-1.08681E+01 1.94046E-02 2.12823E-01 1.63120E-01 3.32556E-01
 -1      1206-6.83254E+01-1.28067E+01-2.22567E+00-2.16471E-01-1.94966E-02 1.52104E+00
 -1      1207-6.95550E+01-1.27457E+01-2.32731E+00-6.03916E-01 7.09273E-02 2.09568E+00
 -1      1208-6.73904E+01-1.14898E+01 1.06576E-03 5.06871E-02 1.14299E-02 3.57048E-01
 -1      1209-6.99189E+01-1.25011E+01-3.00447E+00-3.07130E-01-2.80011E-01 2.39254E+00
 -1      1210-6.88209E+01-1.16322E+01-2.04344E+00-5.28454E-01-2.77611E-01 2.01178E+00
 -1      1211-6.75078E+01-1.08459E+01-1.08332E-02-2.58540E-01-1.61202E-01 4.41358E-01
 -1      1212-6.84996E+01-1.06663E+01-2.51568E+00-9.37847E-01-4.07943E-01 1.93451E+00
 -1      1213-6.73169E+01-8.84797E+00-2.14642E+00-1.24199E+00-5.42436E-01 1.68346E+00
 -1      1214-6.71229E+01-9.44303E+00 2.03302E-02-4.36640E-01-3.90741E-01 5.15923E-01
 -1      1215-6.70346E+01-7.05758E+00-1.75802E+00-1.76044E+00-4.36272E-01 1.34445E+00
 -1      1216-6.74820E+01-5.12548E+00-2.20925E+00-2.15663E+00-3.79727E-01 1.65629E+00
 -1      1217-6.65127E+01-6.48505E+00-5.42175E-02-8.88466E-01-6.39683E-01 3.34352E-01
 -1      1218-6.60210E+01-3.01820E+00-4.59334E-01-1.25329E+00-5.14568E-01 4.44609E-02
 -1      1219-6.37997E+01-4.64800E-01-1.49943E-01-4.24356E-01-6.06079E-02 1.68384E-01
 -1      1220-6.42886E+01-4.44537E-01-7.23248E-02-1.59333E-01-3.32446E-03-5.03632E-02
 -1      1221-6.45551E+01-1.11567E+00-6.21629E-02-7.58864E-01 6.69783E-02-1.00495E-02
 -1      1222-6.40253E+01-6.19409E-01-2.13341E-02 1.60398E-01 1.95702E-01-4.13744E-02
 -1      1223-6.39150E+01-7.45288E-01-1.48111E-01 4.62199E-01 1.34013E-01-1.37290E-01
 -1      1224-6.48617E+01-1.14898E+00 6.99973E-02-4.94231E-02 1.83417E-01-4.47041E-02
 -1      1225-6.46121E+01-1.36094E+00-9.84735E-02 7.75329E-01 5.80477E-01-2.28153E-02
 -1      1226-6.75198E+01-9.79748E+00-2.17241E-01-3.37411E-01 2.93239E-01-2.36297E-01
 -1      1227-6.75853E+01-8.83710E+00-3.78251E-01-3.38840E-01 4.11476E-01-4.20588E-01
 -1      1228-6.71342E+01-6.93849E+00-2.43047E-01-2.87365E-01 3.83472E-01-1.00213E-01
 -1      1229-6.64522E+01-5.66782E+00-1.45151E-01-4.39513E-01 9.56470E-02 1.68400E-01
 -1      1230-6.71237E+01-7.76171E+00-2.25344E-01 2.75080E-02 4.87231E-01-8.96219E-02
 -1      1231-6.76777E+01-1.11592E+01-1.94087E-01-3.51825E-02 1.37313E-01-3.17854E-01
 -1      1232-6.75527E+01-1.08210E+01-2.89038E-01-2.60141E-01 2.45321E-01-3.29031E-01
 -1      1233-6.76335E+01-1.14095E+01-1.92425E-01 1.08932E-02-7.94390E-02-2.10773E-01
 -1      1234-6.77734E+01-1.13230E+01-2.17769E-01-1.35467E-02 4.94809E-02-2.75232E-01
 -1      1235-6.73746E+01-1.10454E+01-4.91805E-02-1.11392E-02 1.00087E-01-7.87012E-02
 -1      1236-6.73634E+01-8.97147E+00-3.96142E-01 5.47371E-01-3.82363E-01-3.27903E-01
 -1      1237-6.72810E+01-9.76496E+00-1.32732E-01 3.48664E-01-2.99937E-01-1.56970E-01
 -1      1238-6.74443E+01-1.07385E+01-2.10717E-01 2.10452E-01-2.55582E-01-2.04989E-01
 -1      1239-6.75237E+01-1.10901E+01-1.46496E-01 3.96416E-02-1.61035E-01-1.70164E-01
 -1      1240-6.70929E+01-9.93657E+00 2.97311E-02 1.01280E-01-2.93219E-01 1.83547E-02
 -1      1241-6.70774E+01-5.89701E+00-1.92483E-01 7.06863E-01-1.50809E-01-1.69683E-01
 -1      1242-6.70759E+01-6.92793E+00-2.83573E-01 5.30607E-01-3.05131E-01-1.28849E-01
 -1      1243-6.65758E+01-3.98573E+00 4.14677E-02 6.57297E-01-2.83413E-01-1.53502E-01
 -1      1244-6.65164E+01-5.14813E+00-6.32482E-03 1.37003E-01-1.58059E-01 9.37621E-02
 -1      1245-6.63149E+01-2.77773E+00 3.79463E-02 8.31421E-01-3.42158E-01-6.53919E-02
 -1      1246-6.58317E+01-2.26632E+00-3.18379E-02 2.06328E-01-1.44357E-01 1.35103E-02
 -1      1247-6.75361E+01-9.98690E+00-3.16988E-01-1.27065E-01-3.54298E-01 1.95077E-01
 -1      1248-6.71909E+01-8.67706E+00-1.50993E-01-2.74962E-01-3.90387E-01 2.35402E-01
 -1      1249-6.69282E+01-7.44668E+00-1.71284E-01-3.72155E-01-5.18885E-01 1.10245E-01
 -1      1250-6.66033E+01-5.53412E+00-7.90112E-02-3.59127E-01-4.28680E-01 1.98854E-01
 -1      1251-6.67846E+01-7.72536E+00 2.22112E-02 1.24499E-01-4.66674E-01 4.92848E-02
 -1      1252-6.67336E+01-5.54633E+00-2.40909E-01 4.34498E-01 6.06998E-01 1.81297E-01
 -1      1253-6.70534E+01-7.17009E+00-2.68145E-01 5.25746E-01 5.02606E-01 1.16906E-01
 -1      1254-6.54889E+01-2.59822E+00 6.87415E-02 6.46781E-01 6.56792E-01-1.39123E-02
 -1      1255-6.54260E+01-2.22541E+00 5.45230E-02 1.02916E-01 1.66504E-01-1.23907E-01
 -1      1256-6.60253E+01-3.79602E+00 4.43163E-03 4.08976E-01 4.06764E-01 5.69678E-02
 -1      1257-6.64758E+01-5.16397E+00-1.15398E-02-1.16888E-02 1.74597E-01 1.31022E-01
 -1      1258-6.71791E+01-8.53866E+00-2.14461E-01 4.36423E-01 4.15202E-01 2.62298E-01
 -1      1259-6.74242E+01-9.90860E+00-2.38848E-01 1.79063E-01 3.32508E-01 7.71706E-02
 -1      1260-6.75929E+01-1.06248E+01-1.65993E-01 1.16343E-01 2.06026E-01 1.29496E-01
 -1      1261-6.76706E+01-1.10490E+01-2.07881E-01 8.86016E-02 1.43300E-01 1.00171E-01
 -1      1262-6.72662E+01-1.00541E+01-3.81832E-02-5.68824E-02 2.67807E-01-5.50086E-02
 -1      1263-6.76464E+01-1.11984E+01-2.01028E-01-1.22036E-01-1.46650E-01 1.57854E-01
 -1      1264-6.76101E+01-1.05364E+01-2.12503E-01-1.27672E-01-2.14032E-01 2.45390E-01
 -1      1265-6.76214E+01-1.14002E+01-2.19547E-01 1.20833E-01 1.81600E-02 1.58841E-01
 -1      1266-6.75876E+01-1.13568E+01-1.49622E-01-8.95593E-02-3.13772E-02 1.38021E-01
 -1      1267-6.73134E+01-1.10409E+01-1.47957E-02 6.23804E-03-1.14528E-01-1.17384E-02
 -1      1268-6.58638E+01-2.62010E+00-2.99590E-02-6.91173E-01-6.12893E-01 1.72792E-02
 -1      1269-6.61471E+01-3.77003E+00 2.76305E-02-4.37693E-01-4.19379E-01 6.44372E-02
 -1      1270-6.56396E+01-2.13972E+00 1.13016E-01-5.81194E-02-1.90272E-01-1.20110E-01
 -1      1271-6.54579E+01-2.38792E+00 2.55005E-02-1.99365E-01 5.48527E-02 9.67121E-02
 -1      1272-6.53111E+01-2.82691E+00 1.67971E-01-7.76498E-01 2.00160E-01 2.13270E-01
 -1      1273-6.57724E+01-3.82474E+00 2.01016E-01-5.14753E-01 1.55716E-01 1.64592E-01
 -1      1274-7.86707E+00 1.34740E-03 1.05292E-01 1.39102E-02-6.96424E-02 1.10556E+00
 -1      1275-7.88483E+00 1.17127E-02 9.42132E-02-4.51778E-02-1.01169E-01-1.09205E+00
 -1      1276-7.94053E+00-4.64982E-03-2.97816E-02-2.09294E-03-3.39248E-02 5.04662E-01
 -1      1277-7.90950E+00 7.20226E-03-4.56268E-02-3.59115E-02-3.58152E-02-5.46470E-01
 -1      1278-8.38460E+00-2.49719E-02-2.05024E-02-8.72665E-03-1.53739E-02 1.08178E-01
 -1      1279-8.41270E+00-1.18530E-02-1.25176E-02 2.02868E-02-1.58563E-02-9.37692E-02
 -1      1280-8.05154E+00-1.84808E-02 3.63095E-01-5.02742E-02-2.64198E-02 4.95972E-01
 -1      1281-8.32091E+00-9.82927E-04 3.22516E-01 7.85621E-03-2.80666E-02-4.08571E-01
 -1      1282-2.66545E+01 1.56950E-01 2.45582E+00 7.81918E-02 7.72206E-02-4.08160E+00
 -1      1283-2.67942E+01 1.47090E-01 2.47142E+00-1.18669E-01 3.34118E-02 4.11068E+00
 -1      1284-2.35757E+01 4.18693E-01 5.94752E-01-4.46336E-01-2.34517E-02 2.26584E+00
 -1      1285-2.36788E+01 3.77414E-01 5.84877E-01 2.78994E-01-2.60796E-02-2.21678E+00
 -1      1286-2.35146E+01 7.02585E-02 1.60806E-01-7.46233E-02-2.38722E-02 9.03868E-01
 -1      1287-2.35219E+01 1.16119E-01 1.46578E-01 1.33608E-01-2.22758E-02-9.01204E-01
 -1      1288-2.43519E+01 1.95093E-03 4.59353E-02-2.94665E-02-2.74467E-02 2.49667E-01
 -1      1289-2.43908E+01 2.59930E-02 3.88168E-02 1.16030E-02-2.05066E-02-2.37685E-01
 -1      1290-2.48741E+01 2.91485E-02 1.94945E-01-9.83162E-03-2.51883E-02-3.61919E-01
 -1      1291-2.51745E+01 2.93897E-02 1.69158E-01 1.76342E-02-2.38789E-02 3.00035E-01
 -1      1292-1.44944E+01 1.48881E+00-1.83203E+00 3.62155E-01-2.15417E-01 3.12993E+00
 -1      1293-1.40512E+01 1.69258E+00-1.59216E+00-6.19051E-02-2.17126E-01-3.16206E+00
 -1      1294-1.31069E+00-3.88914E-01-8.59980E-01 9.26011E-02 1.89016E-01-4.54125E-01
 -1      1295-6.04445E+00-1.17629E-01-2.01039E-01-6.67732E-02-7.12661E-02 1.39863E+00
 -1      1296-1.35259E+01-7.00282E-01 1.62752E+00 5.64578E-01 3.58608E-01-2.91890E+00
 -1      1297-2.98503E+01 8.33893E-01-1.79280E-02-2.89295E-01 9.19180E-01-9.40383E+00
 -1      1298-2.94704E+01 8.84612E-01-4.94642E-01 8.49322E-02 8.58795E-01 9.05909E+00
 -1      1299-2.70742E+01 1.27313E-01 7.17031E+00-2.00245E-01 1.85092E-02-2.15260E+00
 -1      1300-3.07721E+01-6.73626E-03 6.63867E+00 2.05021E-01 4.36013E-01 6.13720E+00
 -1      1301-1.80057E+01-9.33219E-02 2.39294E+00 1.03398E-01-9.97227E-02 2.50184E-01
 -1      1302-2.53172E+01 5.01182E-02 7.27665E-01 5.88679E-03-4.30521E-02-1.25420E+00
 -1      1303-3.38601E+01 7.68044E-02-1.13960E+00 7.67470E-02 3.91089E-01-2.96565E+00
 -1      1304-3.43333E+01 2.50133E-01-1.03423E+00 1.13649E-01 3.86104E-01 2.72650E+00
 -1      1305-2.56741E+01 1.03640E-01 7.00918E-01-1.19392E-02-3.72637E-02 1.25241E+00
 -1      1306-2.32044E+01 4.31654E-02 3.48146E-01 1.26795E-01-4.25659E-02-1.51907E+00
 -1      1307-2.31953E+01 7.53682E-02 3.99627E-01-2.76219E-01-1.01911E-02 1.56240E+00
 -1      1308-2.39786E+01 2.80457E-02 6.38240E-02 3.77441E-02-2.34130E-02-4.95391E-01
 -1      1309-2.47873E+01 1.74763E-02 4.29130E-02-2.39979E-02-2.24066E-02 3.61712E-02
 -1      1310-2.48440E+01 3.24020E-03 6.08904E-02 2.50987E-02-2.58250E-02-2.56604E-02
 -1      1311-2.40137E+01 3.90751E-02 5.85653E-02-3.05836E-02-2.72271E-02 4.66413E-01
 -1      1312-8.15486E+00-4.09586E-03-4.93578E-02-6.65194E-03-3.15745E-02 2.86787E-01
 -1      1313-8.36359E+00-1.99491E-02 1.05717E-01-2.30888E-02-1.81455E-02 6.34539E-02
 -1      1314-8.11773E+00-2.90634E-02-5.03949E-02-8.30697E-03-1.50896E-02-3.09718E-01
 -1      1315-8.47194E+00 6.49040E-03 7.77081E-02 1.97923E-02-1.39671E-02-8.54748E-02
 -1      1316-7.79699E+00-1.30800E-03 3.88290E-02-3.13639E-02-5.03535E-02 8.05372E-01
 -1      1317-7.77957E+00-7.22884E-03 3.26785E-02 1.06059E-03-3.87175E-02-8.15864E-01
 -1      1318-3.53447E+01-2.18279E-01-5.44368E-02 2.91930E-02 2.88554E-01-7.54691E-01
 -1      1319-3.48820E+01-1.34187E-01 6.38224E-02 2.80547E-02 3.89719E-01 8.96882E-01
 -1      1320-2.25341E+01 2.22340E+00-1.37013E+00 4.59122E-01-1.70944E-01 2.34682E+00
 -1      1321-2.26417E+01 2.13674E+00-1.41879E+00-4.87644E-01-1.70095E-01-2.33538E+00
 -1      1322-1.73143E+01-2.25531E-02 6.50654E-01 1.40702E-02-3.53254E-02 2.47259E-01
 -1      1323-1.60130E+01 3.02263E-01 5.60278E-01-2.25491E-01-2.09245E-01 1.86534E+00
 -1      1324-1.58755E+01 1.99039E-01 4.39593E-01 2.30433E-01-1.53228E-01-1.92675E+00
 -1      1325-1.56934E+01 4.74511E-02 2.63032E-01-7.03861E-02-1.21118E-01 1.25448E+00
 -1      1326-1.57219E+01 1.27068E-01 2.58021E-01 1.09898E-01-1.32937E-01-1.21079E+00
 -1      1327-1.57731E+01-1.73528E-03 9.56314E-02-3.13957E-02-4.24817E-02 8.16046E-01
 -1      1328-1.57569E+01-9.48532E-03 9.80107E-02 2.80155E-02-4.47184E-02-8.14722E-01
 -1      1329-1.60715E+01 9.68150E-03 1.36632E-02-4.29261E-02-6.97373E-02 4.78179E-01
 -1      1330-1.60742E+01 1.32586E-02 4.18659E-03 4.50757E-02-5.97122E-02-4.69802E-01
 -1      1331-9.04455E+00 9.53755E-02-1.04938E-01-1.72958E-02-2.01415E-01-1.94526E+00
 -1      1332-9.06244E+00 9.02377E-02-1.16692E-01 2.64607E-02-2.07454E-01 1.92712E+00
 -1      1333-1.63908E+01-3.92729E-04 7.63236E-03-3.34784E-02-5.54249E-02 1.86285E-01
 -1      1334-1.63872E+01-2.63068E-04 1.49235E-02 2.97444E-02-3.86509E-02-2.02085E-01
 -1      1335-1.67169E+01-2.28430E-04 1.20471E-01 1.54329E-02-4.29930E-02 3.07484E-02
 -1      1336-1.66804E+01-6.99585E-05 1.34354E-01-2.30547E-02-4.15049E-02-4.55602E-02
 -1      1337-2.69612E+01 6.15146E-02 2.35733E+00 1.43550E-01 2.17685E-01-7.64437E+00
 -1      1338-1.84301E+01 3.23035E-03 2.12182E+00 1.03328E-03-3.94843E-02 1.05345E-01
 -1      1339-1.69693E+01-1.16575E-02 6.67677E-01-1.08628E-02-4.36433E-02-2.09260E-01
 -1      1340-2.54800E+01-4.10121E-03 1.65341E+00 7.14934E-02 1.78058E-01 7.51348E+00
 -1      1341-2.40514E+01 1.51759E-01 4.99198E+00-6.38615E-02-1.64430E-02 6.15195E-01
 -1      1342-5.96060E+00-2.79148E-02 2.05218E-01 2.46720E-02-4.08543E-03-9.85651E-01
 -1      1343-1.33871E+01-4.65313E-01 1.79411E+00-1.88698E-01 3.63226E-02 3.60304E+00
 -1      1344-3.05357E+01 2.15751E+00-9.23195E-02 1.10661E+00 7.26208E-02 9.37407E-01
 -1      1345-3.05475E+01 2.08182E+00-9.63567E-02-1.12343E+00 6.72667E-02-9.07804E-01
 -1      1346-8.91358E+00 8.88597E-01-1.32315E+00-3.24095E-01-1.35677E-01-3.46289E+00
 -1      1347-8.47686E+00 8.13089E-01-1.22273E+00 1.65358E-01-1.14643E-01 3.46460E+00
 -1      1348-1.67086E+01 2.72690E-01-3.41550E-01-2.67852E-02-2.43480E-01-2.24075E+00
 -1      1349-1.65752E+01 2.96061E-01-2.59691E-01-2.42567E-02-2.21752E-01 2.31244E+00
 -1      1350-1.99784E+01 1.60814E-01-1.04533E+00 2.15497E-01 5.71709E-01 5.47392E+00
 -1      1351-1.97196E+01 4.47244E-01-7.23614E-01-1.99455E-01 7.55176E-01-5.93892E+00
 -1      1352-1.67799E+00 1.07245E-02-4.28087E-01-2.22784E-01-3.41193E-02 4.90951E-01
 -1      1353-1.64397E+01-2.16627E-01 2.95277E-02 1.60291E-02 1.97773E-01-1.30354E-01
 -1      1354 1.42867E-01-5.48411E-01 3.02729E-02 5.07031E-02 1.49064E-01 3.06382E-01
 -1      1355-2.67802E-01-3.55548E-01-7.78460E-03 1.09311E-01 3.37132E-01 4.90777E-01
 -1      1356 2.00598E-01-9.17152E-02-2.75866E-02 1.43342E-01 1.59149E-01 2.33269E-01
 -1      1357-2.04893E+00-2.26674E-01-8.06158E-01-1.06470E-01-3.64876E-02-1.38158E+00
 -1      1358-1.59817E-02 4.25514E-02-4.02766E-01 1.28883E-02-1.62698E-02-2.86733E-01
 -1      1359-4.54146E+01 1.28935E+00-7.87755E-01-1.70569E-01 2.78999E-01 2.86949E+00
 -1      1360-3.35082E+01 1.15930E+00 3.40357E-02-2.02828E-01 1.60075E-01 2.51202E-02
 -1      1361-4.73293E+01 5.03132E-01-1.73975E-01 3.19137E-01 1.60629E-01 1.58450E+00
 -1      1362-4.77233E+01 1.00374E+00-9.14624E-01 3.02095E-01 1.16716E-01 8.07308E-01
 -1      1363-3.35920E+01-3.64295E-02-2.59959E+00 1.99043E-01 5.49443E-01 4.95503E+00
 -1      1364-5.06634E-01-8.23219E-01-3.66145E-01-4.65655E-02 1.74613E-01-6.26122E-02
 -1      1365 4.62077E-01 1.73092E-01 1.70008E-02-9.44639E-02 5.36569E-02-2.57020E-01
 -1      1366 3.10620E-01-3.53171E-02 2.91156E-01-3.27308E-01 3.57137E-01-9.61530E-02
 -1      1367-2.13088E+00 5.80073E-02-1.14744E-01-1.14113E-02-4.36685E-03 6.30586E-01
 -1      1368-1.57362E+00-2.48313E-02-2.66906E-01-1.32529E-01 3.38908E-02 3.19061E-01
 -1      1369-4.29303E+00-1.60183E-01-6.16543E-01-5.56887E-02-2.10516E-01 1.12637E+00
 -1      1370-2.61880E+00-1.95617E-01-7.27203E-01 1.03925E-01-3.90219E-01 1.41411E+00
 -1      1371-3.31138E+01 1.50463E+00 3.34967E-01 7.04206E-01 4.29151E-01-6.99565E-01
 -1      1372-4.46240E+01 1.64082E+00-2.45535E-02 4.10265E-01 2.01446E-01-3.21564E+00
 -1      1373-4.74393E+01 8.12229E-01-1.08385E+00-3.69985E-01 2.17508E-01-9.07274E-01
 -1      1374-4.73434E+01 4.40831E-01-2.22583E-01-3.34890E-01 2.86746E-01-1.69500E+00
 -1      1375-3.35920E+01-2.32202E-01-3.48511E+00-6.72282E-01 3.13822E-01-5.28476E+00
 -1      1376-9.87768E+00-8.92817E-01-2.50694E+00 9.13244E-01-2.46561E-01 4.12982E+00
 -1      1377-4.08325E+00 2.56374E-01-8.60877E-02-2.12596E-01-4.68008E-02 1.87332E+00
 -1      1378-1.23342E+01-1.92752E+00-4.10877E+00 2.16908E+00-1.67511E-01 4.46953E+00
 -1      1379-4.01148E+01-4.90862E+00-6.52128E+00 5.82521E+00 6.68987E-01-1.87934E+00
 -1      1380-3.52716E+01-5.24881E+00-7.70507E+00 6.21448E+00 4.36223E-01 7.37511E-01
 -1      1381-2.81540E+01 1.10718E+00 1.42079E+00-2.78515E-01-4.69802E-01 2.09706E+00
 -1      1382-4.01192E+01-4.92549E+00-6.50736E+00-5.82565E+00 6.48630E-01 1.89387E+00
 -1      1383-2.82158E+01 1.04926E+00 1.37819E+00 3.37582E-01-4.65599E-01-2.12756E+00
 -1      1384-3.52658E+01-5.34106E+00-7.69946E+00-6.26243E+00 4.18080E-01-7.25587E-01
 -1      1385-1.00611E+01-9.47256E-01-2.55648E+00-1.00888E+00-1.87892E-01-4.09309E+00
 -1      1386-1.24178E+01-1.94507E+00-4.12617E+00-2.22574E+00-2.16438E-01-4.51076E+00
 -1      1387-4.06054E+00 2.41984E-01-1.34272E-01 2.12889E-01-7.65040E-02-1.86879E+00
 -1      1388-3.37595E+01-3.67347E-01 2.89037E+00 1.66010E-01 7.19188E-02-1.54419E+00
 -1      1389-2.14454E+01-4.65133E-01 2.95912E+00 1.52149E-01-4.81808E-02-1.11336E+00
 -1      1390-8.80133E+00-3.10958E-01 1.07849E+00 3.42340E-01 3.66080E-01-3.50362E+00
 -1      1391-7.62589E+00-1.03176E+00-6.02486E-01 4.10136E-01 2.52683E-01-2.05502E+00
 -1      1392-1.77033E+01-1.71268E-01 2.41935E+00 1.05000E+00 7.20459E-02-3.38964E+00
 -1      1393-1.96395E+01-2.71607E-01 3.60491E+00 4.62493E-01 2.35706E-01-1.49484E+00
 -1      1394-2.78802E+01 1.45992E-01 6.51163E+00-2.64588E-01 5.14124E-01 2.55526E+00
 -1      1395-3.36005E+01-6.49028E-01 1.89857E+00 8.07730E-01 6.16859E-01 8.35912E+00
 -1      1396-1.66424E+01-3.81020E-02 3.13844E+00-4.33435E-01 1.01737E-01 2.19002E+00
 -1      1397-3.02703E+01 3.90869E-01 3.80033E+00-1.14880E-01-6.01870E-01 3.75804E+00
 -1      1398-3.38012E+01-1.11897E+00 2.15108E+00-8.72624E-01 4.59119E-01-6.29144E+00
 -1      1399-8.97983E+00-5.93000E-01 6.35554E-01-3.51032E-01 9.39621E-02 3.89268E+00
 -1      1400-2.09132E+01-2.08891E-01 4.14990E+00-1.16513E-01 3.02171E-01 2.23224E+00
 -1      1401-8.67574E+00-1.34564E+00-8.82680E-01-5.09312E-01 4.10779E-01 3.20579E+00
 -1      1402-4.89204E+01 1.54184E-01 1.22082E-01 2.75048E-02 1.16634E-01 3.34540E-01
 -1      1403-4.84105E+01 5.94429E-02 7.35994E-02-4.09757E-02 9.90358E-02 8.35241E-01
 -1      1404-3.48673E+01-2.92376E-01-4.02992E-01 8.35598E-02 3.27968E-01 1.72191E+00
 -1      1405-4.85965E+01 3.02582E-01-1.83669E-02-5.73529E-02 4.42126E-04-7.31804E-01
 -1      1406-4.88061E+01 3.34359E-01 1.10418E-01-7.31470E-02 1.37409E-01-3.72200E-01
 -1      1407-3.53031E+01-8.07402E-02-1.65742E-02 3.72994E-02 2.74049E-01-5.66409E-02
 -1      1408-3.50631E+01-2.85584E-01-4.74434E-01 1.64304E-02 2.82437E-01-1.72923E+00
 -1      1409-3.78474E+00-2.58144E-02 9.64293E-02-2.51208E-02 2.70645E-02 2.59189E-01
 -1      1410-3.31032E+00 2.67374E-02 1.04780E-01-2.92692E-02-1.07539E-02 3.45466E-01
 -1      1411-7.31118E+00-9.06374E-02 1.25763E-01-8.52751E-02 7.99479E-05 9.38425E-01
 -1      1412-4.07219E+00-2.12986E-02 7.05431E-03-2.33302E-02 1.30628E-03 4.29128E-02
 -1      1413-4.00503E+00-3.86361E-02 4.58869E-02-1.51481E-02 1.42724E-02 4.88140E-02
 -1      1414-8.28288E+00-3.21486E-02 2.44561E-01-2.87835E-02-2.61756E-02 2.36481E-01
 -1      1415-4.02153E+00-3.00026E-02-4.23480E-02-1.94007E-02-8.84317E-03 8.96539E-02
 -1      1416-4.10465E+00-2.72814E-02-2.95806E-02-1.62112E-02 5.97440E-03 4.69220E-02
 -1      1417-8.40929E+00-2.53675E-02 1.22636E-02-1.82918E-02-2.67358E-02 6.77087E-02
 -1      1418-3.76901E+00-2.72885E-02-5.09024E-02-2.08092E-02-1.70912E-02 2.26165E-01
 -1      1419-3.87693E+00-1.14354E-02-3.85824E-02-7.75902E-03 1.27890E-03 1.67648E-01
 -1      1420-8.26419E+00-9.03931E-03-3.20970E-02-7.47821E-03-2.34926E-02 1.92765E-01
 -1      1421-3.59076E+00 7.52561E-03-5.52536E-02-8.14437E-02-7.36479E-03 3.71905E-01
 -1      1422-3.61606E+00 2.18620E-03-2.67120E-02-7.36972E-03-8.67508E-03 3.08107E-01
 -1      1423-8.01841E+00 1.29674E-03-2.58350E-02-8.99378E-05-2.70253E-02 3.99949E-01
 -1      1424-3.51733E+00-5.43619E-02-2.92479E-02-2.13150E-02-8.47955E-03 5.55380E-01
 -1      1425-3.46142E+00-7.08947E-03-1.38296E-02-8.15520E-02-1.49843E-02 4.72147E-01
 -1      1426-7.79930E+00-1.59516E-03-2.43460E-02-5.94390E-02-4.37357E-02 6.78451E-01
 -1      1427-3.68333E+00 2.10760E-02-2.98757E-02-1.37637E-01-2.20266E-02 7.23111E-01
 -1      1428-3.48912E+00-3.20761E-03 8.13361E-03-9.82988E-03-3.29848E-02 6.42815E-01
 -1      1429-7.78149E+00 2.44231E-02 1.11456E-01 3.24100E-04-3.59767E-02 9.57190E-01
 -1      1430-5.20698E+00-1.56143E-01-2.84104E-01-6.76830E-02-1.43446E-01 1.35304E+00
 -1      1431-4.22943E+00 1.56704E-02-3.83045E-02-9.85648E-02-1.21156E-01 1.06399E+00
 -1      1432-8.22814E+00 2.92352E-02 7.69798E-02-1.93931E-02-1.46828E-01 1.49038E+00
 -1      1433-8.15805E+00 3.20202E-01-3.33153E-01 9.45067E-02-1.60094E-01 2.71910E+00
 -1      1434-2.07060E+01-3.20762E+00-6.07006E+00 3.65507E+00-1.61059E-01 3.89455E+00
 -1      1435-1.56424E+01-2.03728E+00-4.33751E+00 2.55939E+00-1.04365E-01 4.20820E+00
 -1      1436-1.13608E+01 1.08377E+00-1.47285E+00 3.07828E-01-1.74037E-01 3.46933E+00
 -1      1437-3.07020E+01-4.45030E+00-7.81773E+00 5.23086E+00-2.08825E-01 2.15871E+00
 -1      1438-2.56103E+01-3.83042E+00-6.27083E+00 4.33677E+00-3.13421E-02 3.22410E+00
 -1      1439-1.79656E+01 1.81715E+00-1.68278E+00 3.55936E-01-1.17551E-01 2.86564E+00
 -1      1440-2.60247E+01 2.36272E+00-1.00480E+00 7.50535E-01-6.85611E-02 1.76358E+00
 -1      1441-2.67573E+01 2.36703E-01 4.91304E-01-2.88831E-01-3.64115E-02 1.44738E+00
 -1      1442-2.73582E+01-7.33247E-02-3.87168E-02-1.70175E-01 1.74190E-01 1.85450E+00
 -1      1443-2.51577E+01 7.40883E-01 7.88696E-01-1.96575E-01-7.67582E-03 1.93385E+00
 -1      1444-2.73934E+01 8.18416E-02 2.43060E-01-5.48922E-02 2.89078E-03 8.63078E-01
 -1      1445-2.70059E+01 4.97907E-02 2.11896E-01-1.56021E-01 5.31301E-02 1.06675E+00
 -1      1446-2.31630E+01 1.27224E-01 4.14889E-01-1.99005E-01 8.67390E-02 1.78974E+00
 -1      1447-2.79729E+01 4.76700E-02 8.54881E-02-3.39401E-03-1.37543E-02 4.85487E-01
 -1      1448-2.75523E+01 8.62457E-02 1.39105E-01 1.25068E-02 2.41802E-02 6.07108E-01
 -1      1449-2.32331E+01 1.04612E-01 3.36936E-01-1.24843E-01-3.16125E-02 1.23717E+00
 -1      1450-2.84991E+01 3.13396E-02 3.24065E-02-1.25002E-02-1.64722E-03 2.54492E-01
 -1      1451-2.81667E+01 6.26602E-02 7.76980E-02 1.56007E-02 4.23745E-03 3.24940E-01
 -1      1452-2.37271E+01 5.57151E-02 1.45917E-01-2.99300E-02-3.71612E-02 6.97600E-01
 -1      1453-2.88222E+01 3.16454E-02 5.13101E-02-2.32782E-02-9.54981E-03 1.18515E-01
 -1      1454-2.86063E+01 3.15839E-02 5.95732E-02-1.18379E-03-6.65873E-03 1.74450E-01
 -1      1455-2.41805E+01 7.07026E-03 5.53294E-02-2.42993E-02-2.51496E-02 3.63803E-01
 -1      1456-2.92258E+01 2.40830E-02 5.78910E-02-3.63644E-02-1.62249E-02-1.84389E-02
 -1      1457-2.90754E+01 1.72717E-02 3.31823E-02-1.42554E-02 2.66180E-03 3.59653E-02
 -1      1458-2.45947E+01-3.87590E-03 3.08520E-02-3.04670E-02-2.00455E-02 1.39203E-01
 -1      1459-2.92984E+01 7.74198E-02 1.72966E-01-3.98660E-02-2.76060E-02-3.25474E-01
 -1      1460-2.92602E+01 4.17023E-02 8.91286E-02-3.57662E-02-1.01386E-03-1.87567E-01
 -1      1461-2.48616E+01 1.27312E-02 1.08028E-01-2.75552E-02-1.99053E-02-1.65369E-01
 -1      1462-2.88929E+01 4.85540E-03 5.17897E-01-2.46242E-01-6.89202E-02-1.08612E+00
 -1      1463-2.95901E+01 4.69492E-02 2.71813E-01 4.78080E-03-4.20886E-03-6.99870E-01
 -1      1464-2.51192E+01 1.05673E-02 4.05287E-01 1.67487E-02-2.14973E-02-7.69295E-01
 -1      1465-2.65574E+01 4.13292E-01 1.45165E+00-2.59021E-01-3.55330E-03-3.39938E+00
 -1      1466-2.92846E+01 1.35147E-01 9.74508E-01-2.42437E-01 5.73931E-03-2.40514E+00
 -1      1467-2.61461E+01 4.42536E-02 1.63157E+00-5.72582E-02 1.00764E-01-2.64259E+00
 -1      1468-2.11758E+01-2.81391E-01 8.86767E-01-7.60011E-01 2.03317E-01-6.11032E+00
 -1      1469-2.73364E+01-3.95814E-02 1.11817E+00-1.33463E-01 6.63959E-02-4.64777E+00
 -1      1470-2.74697E+01-6.06271E-02 2.34014E+00 2.58975E-01 3.22575E-01-6.15320E+00
 -1      1471-1.05201E+01-1.81219E-02-3.18699E-01-7.14060E-01 4.75431E-01-3.57921E+00
 -1      1472-1.52991E+01 7.81566E-01 2.17502E-01-1.09939E+00 3.66905E-01-4.96598E+00
 -1      1473-2.92205E+01 2.48037E-01 2.04822E+00 1.02103E-01 3.70449E-01-8.91710E+00
 -1      1474-2.36095E+01-2.03299E-02-4.39736E-02-8.44251E-01 5.76160E-01-7.30555E+00
 -1      1475-2.51878E+01 4.85919E-01-6.31374E-01-5.20411E-01 6.34043E-01-7.37901E+00
 -1      1476-1.74821E+01-6.61214E-01-6.37063E-01 3.43408E-01 2.65328E-01-1.63966E+00
 -1      1477-1.82420E+01-4.97591E-01-6.88018E-01 9.54816E-02 1.53697E-01-2.85690E+00
 -1      1478-2.64573E+01 2.07371E-01-1.00105E+00 3.07305E-01 5.05029E-01-4.14988E+00
 -1      1479-7.53408E+00-6.37228E-04-2.02433E-01 1.90620E-01 6.18711E-02 2.30836E-01
 -1      1480-7.17396E+00-2.96798E-01 1.25408E-01-2.14931E-02 5.61669E-02-2.89889E-01
 -1      1481-1.74078E+01-6.88796E-02-2.20407E-02 1.20960E-01 1.37293E-01-5.86767E-01
 -1      1482-2.59863E+01-3.07878E-01 5.62550E-02 1.36946E-01 2.23675E-01-4.24499E-01
 -1      1483-1.81136E+01-5.57982E-01-5.12686E-01 2.02499E-02 3.28800E-01 2.83462E+00
 -1      1484-1.77390E+01-7.69442E-01-7.08266E-01-1.15976E-01 2.84658E-01 1.61299E+00
 -1      1485-1.68995E+01 6.07099E-02-1.32803E-01 2.11882E-01 1.89512E-01 7.59172E-01
 -1      1486-2.61427E+01-2.00271E-01-9.24646E-02-1.08556E-01 3.60533E-01 3.34192E-01
 -1      1487-1.57975E+01 4.38126E-01-2.84189E-01 1.04399E+00 2.78416E-01 4.78959E+00
 -1      1488-1.02784E+01-7.76241E-02-4.85676E-01 7.13513E-01 2.51128E-01 3.50861E+00
 -1      1489-2.68788E+01 2.41121E-01-9.67284E-01-2.08581E-01 5.52201E-01 4.15830E+00
 -1      1490-2.66384E+01-1.23693E-01 8.58286E-01 3.49654E-01 3.42107E-02 4.37692E+00
 -1      1491-1.99462E+01-3.93901E-01 6.37209E-01 9.51666E-01 1.33677E-01 5.51129E+00
 -1      1492-2.81756E+01 2.05554E-02 1.23667E+00-1.84870E-01 1.80702E-01 9.03942E+00
 -1      1493-2.26513E+01 3.21615E-01 2.90437E-01 5.97079E-01 3.27792E-01 7.39639E+00
 -1      1494-2.64303E+01-6.99437E-02-9.43173E-01-1.60060E-01 6.82795E-01 7.79528E+00
 -1      1495-2.93900E+01 2.05098E-01 1.03421E+00 1.47972E-01-2.04459E-02 2.41092E+00
 -1      1496-2.67293E+01 3.75068E-01 1.35969E+00 7.38264E-02-1.55031E-03 3.48124E+00
 -1      1497-2.73341E+01-3.05740E-01 1.88646E+00-2.75077E-01 1.47642E-01 6.05457E+00
 -1      1498-2.97886E+01 4.65089E-02 2.58809E-01 8.54957E-02-3.41176E-02 6.45238E-01
 -1      1499-2.90509E+01 3.62449E-02 4.78575E-01 1.60389E-01-6.68433E-02 1.02070E+00
 -1      1500-2.63100E+01 1.03001E-01 1.51527E+00 9.15136E-02 8.46916E-02 2.53754E+00
 -1      1501-2.94756E+01 2.97724E-02 7.23260E-02 6.54267E-03 3.94869E-03 1.59481E-01
 -1      1502-2.94897E+01 8.61069E-03 1.58333E-01 1.03284E-01-2.98642E-02 2.83409E-01
 -1      1503-2.54029E+01 6.24889E-02 4.52490E-01 3.15388E-02-3.85995E-02 7.76057E-01
 -1      1504-2.91031E+01 1.74386E-02 4.06422E-02 1.09205E-02 2.39643E-03-3.05843E-02
 -1      1505-2.92655E+01 3.26764E-02 6.58590E-02 2.26800E-02-1.93927E-02 3.65123E-02
 -1      1506-2.50395E+01-2.71956E-03 9.67210E-02 1.67637E-02-1.55207E-02 1.34516E-01
 -1      1507-2.86146E+01 3.25891E-02 5.05641E-02-5.16113E-03 6.58831E-03-1.67637E-01
 -1      1508-2.88569E+01 2.43225E-02 3.45426E-02 1.92131E-02-1.07233E-02-1.18852E-01
 -1      1509-2.46443E+01 3.54386E-03 4.34934E-02 1.54040E-02-2.45635E-02-1.32112E-01
 -1      1510-2.81591E+01 3.41867E-02 7.70942E-02-1.21755E-02 1.18593E-02-3.36312E-01
 -1      1511-2.84552E+01 2.76041E-02 4.35715E-02 5.41477E-03-1.02671E-02-2.66264E-01
 -1      1512-2.41567E+01 3.39377E-02 6.98731E-02 1.75303E-02-2.43693E-02-3.72647E-01
 -1      1513-2.75229E+01 1.19465E-01 1.47092E-01 2.68975E-02 2.87566E-03-5.88278E-01
 -1      1514-2.79370E+01 8.96182E-02 1.06167E-01 2.41561E-02 4.27955E-03-4.91125E-01
 -1      1515-2.36942E+01 6.04433E-02 1.56791E-01 5.46804E-02-3.92077E-02-7.07829E-01
 -1      1516-2.67781E+01 1.40654E-01 3.10107E-01 3.28715E-02-2.74852E-02-1.10296E+00
 -1      1517-2.74866E+01 9.24496E-02 1.59334E-01 2.75933E-02-1.04705E-02-8.38993E-01
 -1      1518-2.33830E+01 8.45300E-02 2.24554E-01 1.44289E-01-2.36765E-02-1.18272E+00
 -1      1519-2.72826E+01-8.71439E-02-1.11014E-02 2.33713E-01 1.86644E-01-1.86184E+00
 -1      1520-2.71402E+01 1.74948E-01 4.03264E-01 1.34911E-01 4.35095E-02-1.39525E+00
 -1      1521-2.30938E+01 6.87043E-02 4.60963E-01 8.52182E-02-9.43139E-03-1.88596E+00
 -1      1522-2.51320E+01 7.04687E-01 7.95373E-01 1.21327E-01 6.45134E-03-1.91359E+00
 -1      1523-2.56798E+01-3.87103E+00-6.29622E+00-4.36693E+00-1.92505E-02-3.20810E+00
 -1      1524-3.07941E+01-4.60999E+00-7.85738E+00-5.33466E+00-2.12552E-01-2.12769E+00
 -1      1525-2.61393E+01 2.21620E+00-1.07124E+00-8.04189E-01-5.74758E-02-1.72691E+00
 -1      1526-1.47463E+01-8.91665E-01-3.86960E+00-1.98507E+00-2.25650E-01-4.39131E+00
 -1      1527-2.05020E+01-3.08414E+00-5.88987E+00-3.54308E+00-9.06449E-02-3.78894E+00
 -1      1528-1.80123E+01 1.73432E+00-1.73721E+00-3.01992E-01-1.54902E-01-2.85767E+00
 -1      1529-1.17343E+01 1.15053E+00-1.51017E+00-1.59421E-01-1.16388E-01-3.39650E+00
 -1      1530-4.28310E+00-8.02189E-02-4.91350E-02-2.74121E-02-8.18916E-02-1.09742E+00
 -1      1531-5.18672E+00-1.41875E-01-2.57978E-01 1.46882E-02-1.43393E-01-1.37812E+00
 -1      1532-8.14327E+00 4.03174E-01-3.21133E-01-2.89658E-02-1.99072E-01-2.70665E+00
 -1      1533-3.54384E+00-1.48586E-02 1.74116E-02-7.55454E-03-2.82524E-02-6.57179E-01
 -1      1534-3.68468E+00-6.87081E-02-4.18462E-03 4.23630E-02-3.91337E-02-7.27881E-01
 -1      1535-8.14943E+00 9.61590E-02 1.47973E-01 7.49247E-03-1.38365E-01-1.49271E+00
 -1      1536-3.51318E+00-2.82712E-02-3.60736E-02 4.53030E-03-1.39484E-02-4.97335E-01
 -1      1537-3.50644E+00-3.60775E-02-4.01379E-02 1.04701E-02-1.01925E-02-5.54882E-01
 -1      1538-7.80374E+00 5.96351E-03 7.10276E-02-2.72927E-02-4.87020E-02-9.38314E-01
 -1      1539-3.67887E+00-1.41157E-02-5.48863E-02-1.84148E-02-1.34317E-02-3.20281E-01
 -1      1540-3.54868E+00-2.41405E-02-3.88475E-02 8.19722E-03-6.36518E-03-3.87678E-01
 -1      1541-7.77928E+00 2.38137E-02-1.95724E-02-2.56431E-03-4.18078E-02-6.74762E-01
 -1      1542-3.87707E+00-2.31025E-02-5.37758E-02 2.32222E-02-4.01108E-04-1.57578E-01
 -1      1543-3.76993E+00-3.19773E-02-5.14176E-02 6.55150E-04 5.79479E-03-2.22688E-01
 -1      1544-8.01419E+00-1.91616E-03-3.06565E-02-1.86890E-02-1.21039E-02-4.12763E-01
 -1      1545-4.09826E+00-4.53620E-03-1.94438E-02 3.33304E-03 3.95120E-03-4.45866E-02
 -1      1546-4.00481E+00-2.09409E-02-3.50302E-02 3.46774E-02-6.28093E-03-8.12740E-02
 -1      1547-8.27840E+00-2.45451E-02-5.35598E-02 1.85501E-02-2.99479E-02-1.94190E-01
 -1      1548-4.09037E+00 6.88357E-03 3.60624E-02 1.59029E-02 3.20166E-03-5.96405E-02
 -1      1549-4.11896E+00-2.65539E-03-8.19884E-03 2.38936E-02-1.04039E-02-4.89127E-02
 -1      1550-8.43632E+00 1.22139E-02 4.11436E-02 2.78654E-02-1.36762E-02-8.16301E-02
 -1      1551-3.50727E+00 2.72018E-03 1.49532E-01 9.20530E-03 1.12679E-02-3.38905E-01
 -1      1552-3.94092E+00 4.28398E-03 1.12305E-01 4.72779E-04-1.56290E-02-2.15058E-01
 -1      1553-8.45109E+00 5.12128E-03 1.80116E-01-9.33014E-03-2.69034E-02-2.04957E-01
 -1      1554-2.33135E+00-2.05074E-02 5.46149E-02-2.02044E-03 2.72413E-03-4.87518E-01
 -1      1555-7.38962E+00-6.42291E-02 1.77366E-01 1.32139E-02-4.22639E-02-7.29129E-01
 -1      1556-3.81277E+00-1.93945E-01-3.67963E-01-1.19765E-03-3.26149E-03-8.60393E-01
 -1      1557-1.17176E+01 1.23605E-02 2.25215E-01-4.73625E-02-8.70303E-02 1.26740E+00
 -1      1558-1.18125E+01 9.09671E-03 1.26272E-01-7.79645E-02-8.16900E-02 1.07322E+00
 -1      1559-1.54520E+01 1.57345E-01 4.91855E-01-1.31951E-01-1.51620E-01 1.59996E+00
 -1      1560-1.17310E+01 7.67139E-02 4.07993E-01-3.86158E-02-1.35814E-01 1.58281E+00
 -1      1561-1.25998E+01 1.12787E-01 1.87013E-01-7.91746E-02-1.81093E-01 1.94444E+00
 -1      1562-1.17774E+01 4.10237E-02 1.77849E-01 5.58380E-02-8.59310E-02-1.08813E+00
 -1      1563-1.17803E+01 5.02105E-02 2.09549E-01 8.33856E-02-1.04731E-01-1.25092E+00
 -1      1564-1.55286E+01 1.25925E-01 5.09943E-01 1.20461E-01-1.45124E-01-1.61979E+00
 -1      1565-1.16872E+01 6.02429E-02 3.46792E-01 1.29656E-01-1.50136E-01-1.57476E+00
 -1      1566-1.23052E+01 1.49763E-02 2.46458E-01 8.80409E-02-1.72934E-01-2.02029E+00
 -1      1567-1.20067E+01-1.18321E-02 7.07770E-04-2.08522E-02-4.72589E-02 5.31965E-01
 -1      1568-1.21127E+01-3.76101E-03-8.64145E-03-1.11422E-02-5.33633E-02 4.07862E-01
 -1      1569-1.17686E+01-1.32100E-02 6.09829E-02-3.53061E-02-5.04972E-02 8.51190E-01
 -1      1570-1.18599E+01-2.17681E-02 1.71157E-02-2.16102E-02-3.31334E-02 6.86305E-01
 -1      1571-1.59242E+01-1.54227E-03 4.40588E-02-3.97993E-02-3.88059E-02 6.31949E-01
 -1      1572-1.21112E+01-2.22654E-02-1.41038E-02 8.72700E-03-3.28453E-02-4.14562E-01
 -1      1573-1.20061E+01-7.03126E-03-8.15179E-03 2.80719E-02-4.10521E-02-5.18288E-01
 -1      1574-1.18459E+01-1.73154E-02 4.44270E-03 3.02560E-02-3.68632E-02-6.90525E-01
 -1      1575-1.17710E+01-8.11464E-03 5.40459E-02 4.30515E-02-5.68360E-02-8.45420E-01
 -1      1576-1.59164E+01-6.03523E-03 6.41693E-02 3.52758E-02-4.10547E-02-6.27316E-01
 -1      1577-1.22664E+01-1.85164E-02-2.11541E-02-3.09754E-02-5.05962E-02 2.59912E-01
 -1      1578-1.23937E+01-1.92213E-02-5.33610E-04-1.50412E-02-2.99870E-02 1.58985E-01
 -1      1579-1.25583E+01-3.27308E-02 2.96483E-02-2.42160E-02-3.64932E-02 4.85379E-02
 -1      1580-1.25761E+01-1.81550E-02 1.37014E-01-2.53086E-02-2.63382E-02-5.81838E-04
 -1      1581-1.65126E+01 3.80610E-03 7.06778E-02-2.19654E-02-4.29469E-02 8.30283E-02
 -1      1582-1.24197E+01-2.11551E-02-9.41988E-03 1.77920E-02-2.62483E-02-1.54768E-01
 -1      1583-1.22810E+01-2.75277E-02-2.92463E-02 1.93576E-02-4.10981E-02-2.67401E-01
 -1      1584-1.26446E+01-1.32029E-02 1.11716E-01 1.39095E-02-2.35031E-02-7.04062E-03
 -1      1585-1.25597E+01-2.08911E-02 3.04338E-02 2.29334E-02-2.85349E-02-4.86611E-02
 -1      1586-1.65464E+01-7.38810E-03 2.71674E-02 2.59855E-02-3.94773E-02-8.06391E-02
 -1      1587-1.28227E+01-6.84587E-02 1.27546E+00 7.20621E-02-5.06475E-02 5.39228E-01
 -1      1588-1.22558E+01-1.40606E-01 1.33734E+00-5.46830E-02 2.38183E-02 1.23404E+00
 -1      1589-1.25730E+01-5.98782E-03 6.44399E-01-2.27390E-02-3.56803E-02 9.59853E-02
 -1      1590-1.73910E+01-4.72417E-03 1.36083E+00 5.42443E-02-5.31816E-02-9.96534E-02
 -1      1591-1.26439E+01-4.60646E-02 3.46170E-01-1.58984E-02-3.95891E-02-2.25035E-02
 -1      1592-1.28406E+01-1.00213E-02 5.97848E-01 1.75736E-02-2.93023E-02-5.38016E-02
 -1      1593-1.29546E+01-3.10623E-02 3.03818E-01 2.55030E-03-2.41502E-02 5.52605E-02
 -1      1594-1.34345E+01-1.23981E-01 1.03965E+00-1.57418E-02-3.81082E-02-3.57166E-01
 -1      1595-1.77238E+01-7.87258E-02 1.37587E+00 2.42929E-02-2.48000E-02 2.00498E-01
 -1      1596-1.22309E+01 4.00370E-02 1.22128E+00 5.06421E-02-5.63324E-02-6.98551E-01
 -1      1597-2.22745E+01-6.70591E-02 4.48236E+00 1.23165E-01-2.34598E-01-1.70327E-01
 -1      1598-2.25833E+01 5.45474E-02 3.02601E+00 6.88942E-02-1.22087E-01-1.80561E+00
 -1      1599-2.76467E+01-2.02377E-01 4.58099E+00 2.95493E-01-1.14599E-01-3.08940E+00
 -1      1600-2.82909E+01-5.69058E-02 4.58354E+00 3.33870E-01-7.00921E-03-5.77025E+00
 -1      1601-2.21741E+01-9.12681E-02 1.60930E+00 1.22248E-01-1.03711E-01-8.78316E-01
 -1      1602-2.80599E+01 1.77708E-01 3.55144E+00-1.63864E-01 9.72029E-02 7.73452E+00
 -1      1603-2.83005E+01 6.94914E-02 4.56429E+00-6.27900E-02-2.68618E-01 4.62520E+00
 -1      1604-2.49329E+01-4.22561E-02 3.71761E+00-2.81503E-01-6.06691E-02 2.66434E+00
 -1      1605-2.24290E+01-1.18759E-01 1.41056E+00-1.60770E-02-3.50940E-02 9.12188E-01
 -1      1606-2.32622E+01-4.29866E-02 2.49255E+00-7.73282E-02-5.59893E-02 1.91007E+00
 -1      1607-2.03410E+01 3.01789E-01 3.57015E+00-1.27043E-01-1.98137E-01 4.29671E-01
 -1      1608-1.93883E+01 6.39023E-02 5.22800E-01-1.86352E-01-1.20699E-01 1.82668E+00
 -1      1609-1.98638E+01 2.39775E-01 4.45728E-01-2.14381E-01-1.03305E-01 2.15031E+00
 -1      1610-2.18073E+01 6.55023E-01 1.34109E-01-8.88217E-02-3.11616E-01 2.45301E+00
 -1      1611-1.97649E+01 5.01705E-01 3.21723E-01-3.14231E-01-1.35839E-01 2.45798E+00
 -1      1612-1.82619E+01 3.75976E-01-5.50982E-01-5.67467E-02-1.89135E-01 2.51680E+00
 -1      1613-1.62585E+01 4.24802E-01 2.51639E-01-1.42631E-01-2.26067E-01 2.07173E+00
 -1      1614-1.98546E+01 3.05016E-01 4.06388E-01 1.08790E-01-1.29240E-01-2.18760E+00
 -1      1615-1.95294E+01 1.04569E-01 4.44994E-01 1.52637E-01-9.07168E-02-1.73510E+00
 -1      1616-2.17657E+01 6.48589E-01 1.44070E-01 1.62655E-02-3.24339E-01-2.42434E+00
 -1      1617-1.83052E+01 3.54872E-01-5.98111E-01 5.09092E-02-2.29211E-01-2.50175E+00
 -1      1618-1.97285E+01 5.26542E-01 2.90306E-01 2.43026E-01-1.84685E-01-2.42023E+00
 -1      1619-1.63151E+01 1.74117E-01 1.28346E-02 9.16941E-02-1.17169E-01-2.05332E+00
 -1      1620-1.96176E+01 5.55629E-02 2.22032E-01-7.78628E-02-5.92227E-02 1.12320E+00
 -1      1621-1.93136E+01 8.27631E-02 4.02402E-01-1.42681E-01-9.18073E-02 1.48484E+00
 -1      1622-1.98617E+01 2.85899E-02 9.60492E-02-3.58643E-02-4.08606E-02 6.65094E-01
 -1      1623-1.96107E+01 5.54095E-02 1.78970E-01-4.43586E-02-4.55486E-02 8.99667E-01
 -1      1624-1.56758E+01 2.79304E-02 1.86604E-01-2.44605E-02-6.83611E-02 1.03081E+00
 -1      1625-1.93386E+01 1.53806E-01 4.02211E-01 1.28918E-01-6.91946E-02-1.39628E+00
 -1      1626-1.96153E+01 1.38818E-01 2.43876E-01 1.51390E-01-8.18809E-02-1.11294E+00
 -1      1627-1.95502E+01 5.75935E-02 1.98355E-01 5.88356E-02-5.79082E-02-9.07993E-01
 -1      1628-1.98592E+01 1.61445E-02 9.33986E-02 3.62311E-02-3.02332E-02-6.64096E-01
 -1      1629-1.56160E+01 3.92879E-02 2.10612E-01 4.05996E-02-7.80100E-02-1.04190E+00
 -1      1630-2.05938E+01 1.80264E-02 2.71426E-02-2.62782E-02-3.62937E-02 9.72137E-02
 -1      1631-2.03594E+01-7.19477E-05 1.55820E-02-2.23368E-02-4.26551E-02 2.25750E-01
 -1      1632-2.02000E+01 3.79051E-03 1.42172E-02-3.62786E-02-5.58653E-02 3.72490E-01
 -1      1633-2.00378E+01 2.74646E-02 3.92158E-02-2.71866E-02-3.67435E-02 5.15295E-01
 -1      1634-1.62151E+01 3.68084E-04 1.12626E-02-3.21897E-02-6.28810E-02 3.29674E-01
 -1      1635-2.00045E+01 2.44452E-02 2.75089E-02 4.66459E-02-2.83985E-02-5.07264E-01
 -1      1636-2.01970E+01 3.40519E-02 2.27698E-02 3.90525E-02-4.74555E-02-3.57672E-01
 -1      1637-2.03975E+01 2.12105E-02 3.09787E-02 1.13191E-02-3.18182E-02-2.31842E-01
 -1      1638-2.06174E+01 9.03692E-03 3.61899E-02 3.03744E-02-4.40492E-02-1.02638E-01
 -1      1639-1.62326E+01 5.15412E-03 9.12133E-03 2.51350E-02-4.91998E-02-3.38138E-01
 -1      1640-2.13945E+01 5.60913E-04 8.37957E-01-1.90097E-02-4.70613E-02-8.24738E-01
 -1      1641-2.10082E+01-2.55056E-02 4.12998E-01-1.61470E-03-4.66199E-02-3.46833E-01
 -1      1642-2.07923E+01 2.03529E-02 1.83559E-01-1.69537E-02-4.63240E-02-2.14058E-01
 -1      1643-2.07412E+01 1.16213E-02 7.81250E-02-2.87659E-03-3.29154E-02-1.92183E-02
 -1      1644-1.67987E+01-1.31435E-02 3.27175E-01-2.25911E-02-4.52813E-02-1.37086E-01
 -1      1645-2.13271E+01-9.91272E-03 3.95336E-01-1.26241E-02-3.56222E-02 3.49620E-01
 -1      1646-2.16370E+01 4.56371E-02 7.63274E-01-1.07336E-04-6.48947E-02 8.25857E-01
 -1      1647-2.07741E+01 8.48121E-03 9.51345E-02 1.55121E-02-3.51117E-02 1.26979E-02
 -1      1648-2.10000E+01 1.79831E-02 1.93872E-01 2.30323E-02-3.71160E-02 2.06783E-01
 -1      1649-1.69969E+01 2.81779E-03 3.66697E-01 1.56098E-02-2.92130E-02 1.37428E-01
 -1      1650-1.48028E+01 4.93158E-01-8.50870E-01 1.15892E-01-3.02058E-01 2.77254E+00
 -1      1651-1.11117E+01 2.39101E-01-6.55417E-01 5.95846E-02-2.87915E-01 2.70384E+00
 -1      1652-1.25195E+01 3.35244E-01-1.58593E-02-8.71109E-02-2.00843E-01 2.20186E+00
 -1      1653-1.48377E+01 5.18365E-01-8.64179E-01-1.28041E-01-3.28347E-01-2.78229E+00
 -1      1654-1.11457E+01 2.59188E-01-6.82639E-01-3.06100E-03-2.64059E-01-2.67347E+00
 -1      1655-1.27455E+01 2.40150E-01-6.56024E-02 1.56499E-02-2.07085E-01-2.15898E+00
 -1      1656-9.28375E+00-3.46287E-01 6.65800E-01 2.55320E-01-1.71495E-02-2.01493E+00
 -1      1657-1.65261E+01-2.97014E-01 2.21809E+00 1.56529E-01-3.94309E-01 1.74638E+00
 -1      1658-9.04643E+00-1.57488E-01 5.95385E-01-2.93634E-02-9.69088E-02 2.39167E+00
 -1      1659-1.66141E+01-3.42916E-01 1.81500E+00 1.65418E-01-1.27309E-01-1.20761E+00
 -1      1660 1.25851E+00 3.03126E+00-9.58999E-02-9.34099E-02-4.21098E-02 1.36413E-01
 -1      1661 2.54700E+00 1.14118E+00 2.54587E-01 6.11751E-02-2.28969E-02-3.84954E-02
 -1      1662 5.14143E-01 1.76691E-01 8.28918E-03 6.17420E-01 2.57924E-02-1.64141E-02
 -1      1663 4.77949E-01 1.56083E-01 1.42603E-02-4.99157E-01-1.22395E-02-2.69823E-02
 -1      1664 2.19673E+00 9.07521E-01 1.63988E-01-1.06333E-01 3.70147E-02 5.27623E-02
 -1      1665 1.51001E+00 2.86582E+00 5.97899E-02 3.35353E-01 2.21437E-02 3.33861E-02
 -1      1666 4.11403E-01 1.32836E-01-4.31083E-03 2.25150E-01 1.50814E-02-1.26845E-02
 -1      1667 4.77152E-01 2.23100E-01 1.82038E-02-7.68252E-01-3.11105E-02-1.10996E-03
 -1      1668 3.50015E-01 2.89250E-01-5.35675E-03 7.60168E-01 9.02786E-02-2.13264E-01
 -1      1669 4.30169E-01 1.19336E-01-2.22482E-03-2.99350E-02-1.00579E-02-7.15293E-03
 -1      1670 1.24474E+00 6.90083E-01 3.16447E-01 1.18663E-01-6.58734E-02-5.00379E-03
 -1      1671 2.02627E+00 2.24999E+00-2.20052E-01-6.33284E-01 1.50948E-01 2.37137E-01
 -1      1672 2.18463E-01 4.68004E-01 1.83924E-01-5.66371E-01-1.03677E-01-2.47611E-01
 -1      1673 1.04781E+00 1.87594E-01-6.52721E-02-1.94503E-01 2.51995E-02 5.91253E-02
 -1      1674-1.52123E-01 4.46392E-01 4.56375E-01-1.18319E-01 1.02067E-01 1.53880E-01
 -1      1675 2.06646E+00 1.08767E+00-1.44313E-01 5.88509E-01-1.69718E-01 1.93661E-01
 -1      1676 1.28462E+00 8.34486E-01 3.53718E-01-1.40877E-01 7.84831E-02-6.95188E-02
 -1      1677 1.25113E+00 1.14248E+00 1.29991E-01 1.21801E-01 7.01493E-02-2.81381E-01
 -1      1678 1.64723E+00 1.32745E+00 8.30216E-02 4.70853E-02 7.85530E-03-2.58706E-01
 -1      1679 5.14792E-01 1.28714E+00 1.77404E-02 2.62687E-01 1.56085E-02-5.49336E-02
 -1      1680 7.43627E-01 1.42793E+00 2.47821E-02 7.28933E-02 1.02228E-02-1.70372E-01
 -1      1681 5.41561E-02 1.38874E+00-1.31617E-02 2.62378E-01 2.59811E-02-2.92158E-02
 -1      1682 4.53418E-02 1.42014E+00 1.86626E-03 5.90171E-03-5.74054E-03-7.78225E-02
 -1      1683-2.23923E-01 1.45752E+00 7.07099E-03 1.26269E-01-2.59181E-03-6.62524E-03
 -1      1684-1.75891E-01 1.42837E+00-5.36059E-03-1.07160E-01-1.97272E-02-4.47916E-02
 -1      1685-2.52544E-01 1.49305E+00-7.03839E-03 1.55411E-02-6.15800E-03-2.78307E-02
 -1      1686-2.00522E-01 1.38370E+00-5.31908E-03 2.33652E-01 1.98561E-03-1.91640E-02
 -1      1687-2.10490E-01 1.38822E+00 1.75822E-03-2.17815E-01-4.99741E-03-3.28980E-02
 -1      1688 3.02276E-02 1.35987E+00-1.01291E-02-2.27835E-01-2.19808E-02-5.98566E-02
 -1      1689-2.26463E-01 1.50548E+00-2.03287E-02-7.25208E-02-7.71084E-03-3.66824E-02
 -1      1690-1.29794E-01 1.32567E+00-5.15206E-03-2.17749E-01-1.44042E-02-1.40561E-02
 -1      1691-6.78474E-02 1.14837E+00-1.46798E-02-4.17072E-01-2.24949E-02-1.46529E-02
 -1      1692 3.18177E-02 1.18604E+00-2.36560E-02 4.56979E-01 2.84873E-02-2.97724E-02
 -1      1693-1.63930E-01 1.58359E+00-2.39795E-02-4.62798E-02 5.07333E-03-1.37375E-02
 -1      1694-2.22456E-01 1.68218E+00-3.15733E-03 7.29401E-03 2.26219E-03-5.30926E-03
 -1      1695 1.43784E-02 1.25073E+00-1.11776E-02-8.87723E-02-1.61145E-02 6.94395E-03
 -1      1696-8.48349E-03 1.97790E+00-4.26207E-02 4.43015E-02 3.75184E-03 2.36607E-02
 -1      1697 2.80513E-02 1.94394E+00-7.94951E-02-3.34128E-02 1.34228E-02 7.99870E-02
 -1      1698-1.40957E-01 1.54717E+00-1.29013E-02 4.66192E-02 7.41076E-03-6.65958E-03
 -1      1699 6.99278E-02 1.69470E+00 1.51743E-02-1.24829E-01 4.26242E-03 5.94969E-02
 -1      1700 4.71290E-02 1.24101E+00-3.95921E-02 7.75808E-02 2.78981E-02-3.37508E-04
 -1      1701 3.90033E-01 1.22667E+00-5.29835E-02-2.08970E-01 1.24415E-02 3.85479E-02
 -1      1702 3.00416E-01 6.34954E-01-3.10703E-02 1.33573E-01 2.33908E-02 2.29816E-03
 -1      1703 8.44079E-02 9.51234E-01-1.48625E-02 3.69021E-01 1.41183E-02 3.73882E-04
 -1      1704 1.83044E+00 1.40092E+00 1.13317E-01-1.38670E-02 1.98477E-02-2.59394E-01
 -1      1705 5.64095E-01 8.93703E-01 1.70063E-01 3.40862E-01 1.27709E-01-2.98896E-01
 -1      1706-1.15975E-01 1.29432E+00-1.47161E-02 2.11220E-01 1.71367E-02-3.08297E-02
 -1      1707-6.90147E-02 1.10825E+00-8.07348E-03 4.45344E-01 1.29980E-02-8.24869E-03
 -1      1708 1.89225E-01 6.03170E-01-2.27851E-05 5.66147E-01 3.22368E-02-1.53825E-02
 -1      1709-1.86583E-03 9.50573E-01 4.35005E-03 6.10801E-01 3.22356E-02-1.28037E-02
 -1      1710 1.82249E+00 2.23291E+00 2.66216E-02 7.24946E-01-2.30630E-02 1.07138E-01
 -1      1711 8.25025E-01 9.09374E-01-6.70079E-02 3.14330E-01-3.51053E-02 8.61795E-02
 -1      1712 5.86093E-01 1.83786E+00-1.82830E-02 3.28904E-01 9.75542E-03 7.20199E-02
 -1      1713 2.05437E+00 9.79465E-01 3.01627E-01 1.13393E-01-3.56766E-02 1.55193E-02
 -1      1714 1.26834E+00 1.08306E+00 3.92853E-02-1.04129E-01-5.75284E-02-2.31158E-01
 -1      1715 6.70324E-01 9.05268E-01 2.24908E-01-2.48326E-01-1.04884E-01-3.05145E-01
 -1      1716 2.89431E-01 1.02890E+00 1.11265E-02-4.65059E-01-7.04960E-02-1.03271E-01
 -1      1717 2.45583E-01 6.50650E-01 5.97418E-03-6.86457E-01-7.73340E-02-1.05561E-01
 -1      1718 1.30272E-01 7.62646E-01-7.59492E-03-7.44522E-01-3.88523E-02-5.36883E-02
 -1      1719 2.79085E-01 5.01929E-01-9.58989E-03-6.93897E-01-3.97343E-02 2.33051E-02
 -1      1720-6.10432E-04 9.30950E-01 8.92795E-03-6.40130E-01-3.19264E-02-1.15022E-02
 -1      1721 1.76127E-01 6.99222E-01 1.95039E-03-5.56047E-01-2.82517E-02-1.65483E-02
 -1      1722 2.91458E-01 4.94643E-01-2.29880E-02-3.70477E-01-2.44925E-02-1.26958E-02
 -1      1723 4.16119E-02 1.13412E+00-2.13090E-02-4.74431E-01-4.71924E-02-7.68913E-02
 -1      1724 5.68322E-01 1.26360E+00 3.03365E-02-2.56116E-01-3.19673E-02-1.93082E-01
 -1      1725 1.74469E+00 2.77098E+00-1.90389E-01-3.75592E-01-1.71526E-02 1.51979E-01
 -1      1726 3.59070E-01 1.05666E+00 5.73374E-03 4.67118E-01 6.01263E-02-1.03601E-01
 -1      1727 7.59384E-02 9.43662E-01-4.18361E-03-3.63541E-01-1.78648E-02-6.64459E-04
 -1      1728 1.57787E+00 2.93817E+00-1.97536E-01 1.10322E-01 2.23276E-02 4.85603E-04
 -1      1729-1.19968E-01 1.26813E+00-1.59781E-02 3.83748E-01 1.24014E-02-4.13202E-02
 -1      1730 1.74637E+00 1.37465E+00 1.64140E-01-6.20438E-02-3.82094E-02-2.80698E-01
 -1      1731 2.61774E+00 1.25880E+00 2.64743E-01-4.89319E-02 2.58342E-02-1.37090E-01
 -1      1732 6.16619E-01 1.32545E+00 1.68276E-02-6.80478E-02-1.86221E-02-1.58062E-01
 -1      1733 1.09547E-01 7.59707E-01-1.88581E-02 7.37253E-01 2.98615E-02-7.93672E-02
 -1      1734-2.26205E-01 1.51663E+00-1.80547E-02 7.01146E-02 1.12335E-02-2.43941E-02
 -1      1735 3.91510E-01 2.40837E-01 1.58837E-02 8.10477E-01 5.35242E-02-1.03240E-01
 -1      1736 4.69289E-01 1.60549E-01 2.63605E-02 4.43620E-01 1.65072E-02-9.18996E-03
 -1      1737 4.21882E-01 1.11088E-01 1.50572E-02 3.72409E-02 1.76442E-02-3.45791E-03
 -1      1738-1.36199E-01 1.25683E+00-9.41745E-03-4.00020E-01 1.08047E-03-3.08568E-02
 -1      1739-6.51373E-02 4.16463E-01 4.15755E-01 6.04510E-02-7.93614E-02 4.75198E-02
 -1      1740 1.82615E+00 1.04392E+00-9.31450E-02-6.60720E-01 5.41310E-02 2.13282E-02
 -1      1741 1.49342E-01 4.15290E-01 1.90033E-01 5.18700E-01 1.14768E-01-1.72075E-01
 -1      1742 1.13642E+00 1.64035E-01-4.35451E-02 2.06653E-01-3.35238E-04 1.71141E-02
 -1      1743 3.00305E-01 6.43595E-01-3.26286E-02-1.30788E-01-2.08302E-02-8.27471E-03
 -1      1744 7.90375E-01 6.30800E-01-1.14108E-01-2.07475E-01 3.73244E-02 7.10501E-02
 -1      1745 2.60945E-01 4.97998E-01-2.96021E-03 4.10910E-01 2.15392E-02-1.88943E-04
 -1      1746 3.98142E-01 1.11473E-01 1.82849E-02-2.45230E-01-1.07493E-02-1.83577E-02
 -1      1747 4.78662E-01 1.61587E-01 3.08107E-02-6.72451E-01-5.20582E-02-7.95329E-02
 -1      1748 2.28979E-01 6.88316E-01 1.95905E-02 6.72562E-01 5.07778E-02-1.05603E-01
 -1      1749 2.09252E-01 5.86447E-01-1.28549E-02 7.16855E-01 2.91076E-02-1.46033E-02
 -1      1750 7.43959E-02 1.66807E+00-8.47294E-02 9.16336E-02-4.95967E-03 2.69624E-02
 -1      1751 6.42843E-01 9.25572E-02-1.69081E-03-5.33015E-01 3.56153E-03-5.94939E-03
 -1      1752 3.36956E-01 1.12662E+00-4.65970E-02 9.22273E-02-2.56827E-02-1.45374E-02
 -1      1753 7.92303E-01 1.90906E+00-9.51664E-02-4.07936E-01-6.14344E-03 1.55981E-01
 -1      1754 6.75343E-01 2.31414E+00-7.24468E-02-1.88147E-01 1.73457E-02 1.97124E-01
 -1      1755-2.06331E+00 4.28122E-01 4.92015E-01 9.40022E-03 1.39127E-01 1.23272E-01
 -1      1756 1.75997E+00-1.71128E-02-3.21387E-01 2.37442E-01 1.17438E-01-1.33389E-01
 -1      1757 5.96034E-01 2.44606E+00-9.26649E-02-1.85554E-02-8.41570E-03 1.98623E-01
 -1      1758 5.70188E-01 2.23744E+00-6.19754E-02 1.98958E-01 8.39464E-03 2.21703E-01
 -1      1759-2.14398E+00 3.85111E-01 4.57440E-01-1.04224E-02-1.37256E-01 1.43081E-01
 -1      1760 1.92801E+00 3.54760E-02-2.11380E-01-2.34473E-01-5.23257E-02-5.98530E-02
 -1      1761 1.16063E+00 1.35789E+00 9.51114E-02-4.72141E-01 4.13778E-03-1.95731E-02
 -1      1762-6.89079E+00-1.27863E+00-1.07918E+00-3.83845E-01 1.52306E-01 2.01774E+00
 -1      1763-1.05203E+00 3.41207E-01 1.52513E-01 5.32965E-01 7.44750E-02-1.17878E-01
 -1      1764-4.59454E+00-1.11360E+00-8.80226E-01-1.68193E-01 1.01289E-01 1.88603E+00
 -1      1765 1.90539E+00-5.65356E-02 2.49859E-02-1.45433E-01 1.19922E-02 8.53644E-03
 -1      1766 2.02739E+00-1.30435E-01 1.16372E-02-5.00872E-02-1.68866E-01-3.81607E-01
 -1      1767 2.20781E+00 1.82844E-01-2.77325E-01-3.73174E-01 1.47435E-01-5.15106E-01
 -1      1768 1.81205E+00 1.11197E-01-9.60360E-02 4.13149E-01-3.05536E-01-3.88772E-01
 -1      1769 2.03974E+00-1.09276E-01 4.29444E-02 9.24830E-02 1.79577E-01-3.66785E-01
 -1      1770 1.82818E+00-4.84875E-02 3.06731E-02 1.72378E-01 3.98290E-03-1.51919E-02
 -1      1771-1.07582E+00 3.21374E-01 1.48837E-01-5.38736E-01-5.49154E-02-9.79908E-02
 -1      1772-6.96367E+00-1.32672E+00-1.11568E+00 4.11539E-01-1.54713E-01 2.04983E+00
 -1      1773-4.70583E+00-1.16638E+00-9.00041E-01 1.73396E-01-1.05073E-01 1.91780E+00
 -1      1774-8.09450E-02 2.23786E-01 7.90350E-02 5.68697E-01 5.59545E-02 8.13213E-03
 -1      1775 5.01963E-01 1.92173E-01 1.05095E-01 5.13644E-01-1.35232E-02-1.46760E-01
 -1      1776-2.10586E-01 6.08225E-01 2.98987E-01 3.66260E-01 7.33582E-02-4.25071E-02
 -1      1777 4.84863E-01 7.44933E-02-4.44855E-02 5.82639E-01 3.62883E-02-6.92296E-02
 -1      1778 6.71401E-01 1.11537E-01 3.89681E-02 5.45099E-01 5.67789E-03-6.61319E-02
 -1      1779 2.74544E-01 3.11706E-01 3.31588E-02 5.98945E-01 1.32027E-01-1.68282E-01
 -1      1780 6.66383E-01 8.80507E-02 1.57319E-02 5.63243E-01 2.07025E-02-2.78008E-02
 -1      1781 5.60064E-01 7.76321E-02 9.52009E-04 5.08569E-01-1.53667E-03 4.39733E-02
 -1      1782 4.22992E-01 2.79439E-01 1.21063E-02 7.74877E-01 6.39696E-02-1.53048E-01
 -1      1783 7.12440E-01 7.62390E-02-6.02008E-03 4.22271E-01-1.02440E-02 6.06405E-02
 -1      1784 5.97982E-01 5.63630E-02 5.39678E-03 3.71789E-01 8.63366E-03 4.02173E-03
 -1      1785 4.95810E-01 2.18334E-01 8.19426E-03 7.49054E-01 2.83662E-02-1.54363E-02
 -1      1786 6.40170E-01 7.62490E-02 3.72220E-02 2.96726E-01 5.09064E-05 1.68605E-02
 -1      1787 4.94848E-01 6.19531E-02 1.24296E-02 2.50991E-01-1.04303E-02 1.59322E-02
 -1      1788 5.06110E-01 1.82025E-01 2.14586E-02 5.36633E-01 1.75239E-02-1.90440E-02
 -1      1789 4.53695E-01 6.64172E-02-2.62327E-03 1.55619E-01-1.83057E-02 1.51634E-02
 -1      1790 3.36421E-01 5.27067E-02 9.36322E-03 1.13151E-01 5.18807E-03-1.16914E-02
 -1      1791 4.22846E-01 1.40234E-01 4.52981E-03 3.54208E-01 2.67691E-03-4.87791E-03
 -1      1792 3.32238E-01 3.92211E-02 6.57736E-03 3.48995E-02-6.80576E-04-6.84173E-03
 -1      1793 3.77220E-01 3.03455E-02 1.00562E-03 1.84182E-02-1.17818E-02 1.17421E-02
 -1      1794 3.77347E-01 9.94239E-02-2.11386E-02 1.26440E-01 2.68146E-02-1.50353E-02
 -1      1795 6.37848E-01 3.61675E-02-6.87630E-02-9.61012E-02-3.65844E-02 4.44485E-02
 -1      1796 1.17570E+00 4.73653E-02-6.19108E-02-1.21822E-01 1.35390E-02 6.12178E-02
 -1      1797 6.12687E-01 1.20246E-01-1.19501E-02-7.29539E-02 1.34737E-02 4.67150E-02
 -1      1798 1.53097E+00 1.55557E-01-1.22757E-01-2.87201E-01 2.33024E-02 3.80200E-02
 -1      1799 2.04618E+00 7.46464E-01-3.55046E-01-5.90321E-01 2.30806E-01-3.10966E-01
 -1      1800 1.73870E+00 1.53144E+00 5.13462E-02-6.89719E-01 1.49104E-01-3.71539E-01
 -1      1801 1.85807E+00 6.81074E-01-8.55570E-02-5.12940E-01 2.78811E-02-4.33645E-02
 -1      1802 1.66543E+00 2.35046E+00 3.46739E-03-5.23448E-01 1.78804E-01-2.66778E-01
 -1      1803 2.10010E+00 2.72368E+00-2.10104E-01-3.82887E-01 2.54793E-02-1.71592E-01
 -1      1804 1.84839E+00 1.63788E+00-1.00852E-01-6.92249E-01 3.83260E-02 3.78615E-02
 -1      1805 2.35227E+00 3.17665E+00 2.65115E-01-4.85695E-01 3.08076E-02-8.65494E-02
 -1      1806 1.84911E+00 3.18756E+00-2.08768E-02-1.68480E-01-1.75297E-01 2.06694E-01
 -1      1807 2.00085E+00 2.54733E+00-2.43487E-01-4.97888E-01 6.98613E-02 9.86679E-02
 -1      1808 1.70598E+00 3.28002E+00-2.74211E-02-2.03417E-01 1.95062E-02 2.06154E-01
 -1      1809 1.74008E+00 3.37771E+00 1.14979E-01-1.12972E-02-1.57546E-02 1.24793E-01
 -1      1810 1.63789E+00 3.10395E+00 2.46129E-01-2.50756E-01-5.28463E-02 1.45743E-01
 -1      1811 1.76282E+00 3.25033E+00 4.86514E-02-5.96813E-02 5.63204E-02 9.40088E-02
 -1      1812 1.69001E+00 3.28594E+00-8.96954E-02 1.98070E-01 1.08335E-01-1.36993E-01
 -1      1813 1.41095E+00 3.06045E+00-1.98711E-03 4.11487E-03-3.07977E-02 7.88226E-02
 -1      1814 1.59725E+00 3.14469E+00-3.19005E-01 2.38111E-01-5.82990E-02-1.31497E-01
 -1      1815 2.01492E+00 3.06292E+00-3.33354E-02 3.97905E-01-6.11535E-02-1.63000E-01
 -1      1816 1.43116E+00 2.90250E+00-1.08557E-01 2.54732E-01 4.26141E-02-6.45828E-02
 -1      1817 2.15957E+00 2.78441E+00-4.13024E-02 5.49703E-01-6.14792E-02-8.81717E-02
 -1      1818 2.43774E+00 2.22669E+00-4.02460E-02 7.23343E-01-1.72591E-01-9.13083E-02
 -1      1819 1.66677E+00 2.56255E+00 3.06391E-02 5.39201E-01-9.26429E-04 1.02646E-01
 -1      1820 2.34672E+00 1.61788E+00-2.68692E-01 5.52983E-01-1.81332E-01-1.07749E-01
 -1      1821 1.66509E+00 7.21600E-01-2.15502E-01 4.80551E-01-2.87736E-01-2.90259E-01
 -1      1822 1.87412E+00 1.55199E+00-3.60662E-02 7.48037E-01-6.71824E-02 7.81015E-02
 -1      1823 1.90076E+00 6.73037E-01-1.47957E-01 4.80153E-01-1.24928E-02-2.94940E-02
 -1      1824 1.17831E+00 1.27225E-02-5.34191E-02 1.20527E-01 2.89177E-03 4.93083E-02
 -1      1825 6.90246E-01-4.35678E-04-9.98786E-02 1.00243E-01 4.01005E-02 2.53525E-02
 -1      1826 1.51364E+00 2.04001E-01-6.39429E-02 2.67252E-01 5.16856E-02-3.95024E-02
 -1      1827 3.96360E-01 3.54437E-02-1.53042E-02-6.83540E-03 1.16940E-02 6.15983E-04
 -1      1828 3.31543E-01 3.92033E-02-2.45661E-02-2.65659E-02 1.83576E-02-6.86282E-03
 -1      1829 6.12267E-01 5.77285E-02-8.48592E-02 9.44012E-02-3.27697E-02 2.72108E-02
 -1      1830 3.45538E-01 4.74728E-02 5.93891E-03-1.18550E-01 1.31036E-02-1.12567E-02
 -1      1831 4.30222E-01 3.27145E-02 9.15793E-03-1.54149E-01-3.21775E-03-6.49016E-03
 -1      1832 3.67033E-01 9.31966E-02-5.81182E-03-1.40328E-01-7.18779E-03-5.89753E-03
 -1      1833 5.30753E-01 7.02844E-02 2.84172E-02-2.65584E-01 8.64600E-03-2.23827E-02
 -1      1834 5.99649E-01 5.04940E-02 1.34788E-02-3.25060E-01-5.62623E-03-3.95946E-03
 -1      1835 4.54333E-01 1.44787E-01 1.54483E-02-3.59872E-01-7.27696E-03-2.07347E-02
 -1      1836 6.72439E-01 2.13113E-02-9.17259E-03-3.12154E-01 2.26837E-02 2.22283E-02
 -1      1837 7.44629E-01 5.30664E-02-2.10886E-02-3.54635E-01 2.59799E-02 9.18759E-02
 -1      1838 5.43037E-01 1.07411E-01 2.59636E-03-5.19059E-01-1.18160E-02-3.43376E-02
 -1      1839 6.18506E-01 6.31518E-02 2.42886E-03-4.75874E-01 1.04362E-02 7.25075E-02
 -1      1840 7.89921E-01 9.47534E-02 4.08723E-02-5.33415E-01-6.66336E-03 1.23317E-02
 -1      1841 5.39734E-01 1.32464E-01-6.11015E-03-6.72912E-01-8.64490E-03 4.28575E-02
 -1      1842 6.38058E-01 3.02552E-02-5.71675E-03-4.38483E-01-2.43910E-03 1.63620E-02
 -1      1843 6.18771E-01 1.34935E-01-4.85834E-03-4.98315E-01 1.12696E-02 1.12629E-01
 -1      1844 5.26859E-01 1.91795E-01 2.01670E-02-7.65893E-01-5.32469E-02-7.43483E-02
 -1      1845 3.45662E-01 1.85035E-01 6.46383E-02-4.56774E-01-2.29430E-02-1.08751E-02
 -1      1846 2.03674E-02 2.44986E-01 1.28701E-01-5.24705E-01-3.99721E-02-2.27569E-02
 -1      1847 4.29668E-01 2.82427E-01-5.34487E-03-7.09337E-01-5.90886E-02-4.28620E-02
 -1      1848-2.63584E-01 5.64991E-01 2.60179E-01-3.51995E-01-9.08495E-02-1.11838E-01
 -1      1849-3.20492E+00-1.11417E+00-7.15215E-01 5.34344E-02-1.07187E-01 1.59575E+00
 -1      1850-1.47800E+00-3.03181E-01-2.74975E-01 2.66429E-02-1.20402E-01 1.19339E+00
 -1      1851-9.71405E-01 3.39527E-01 4.16201E-01-4.88501E-02-5.28344E-02 2.30242E-01
 -1      1852-6.46839E-01-2.19293E-01-2.72280E-01 1.73101E-01 1.90984E-02 1.08544E+00
 -1      1853 2.11509E-01 1.98588E-01-6.06628E-02 8.36013E-02-9.82916E-02 8.74971E-01
 -1      1854 9.01457E-01 6.27625E-01 2.38011E-01 1.14856E-01-5.12904E-02 9.93959E-02
 -1      1855 6.91409E-01 3.03994E-01-9.11103E-02 1.44088E-01 7.90533E-02 9.06674E-01
 -1      1856 1.14087E+00 5.59036E-01 2.97111E-01 1.36939E-01 1.46826E-02 7.85715E-01
 -1      1857 2.09881E+00 9.94125E-01 1.95767E-01 1.22175E-01-3.38702E-02 7.09492E-02
 -1      1858 1.37159E+00 5.63953E-01 1.52650E-01 5.37971E-02 3.86893E-03 7.16576E-01
 -1      1859 1.57652E+00 7.16097E-01 3.26970E-01 3.76562E-02 1.31418E-02 7.33356E-01
 -1      1860 2.35318E+00 1.09649E+00 2.46944E-01 9.08894E-02-1.52553E-02-4.60116E-03
 -1      1861 1.40709E+00 6.12284E-01 1.55302E-01-1.14454E-02 1.51076E-02 6.22111E-01
 -1      1862 1.32030E+00 6.46301E-01 2.50599E-01-7.85084E-02 3.14565E-02 7.34485E-01
 -1      1863 2.60235E+00 1.23442E+00 2.46408E-01 5.72479E-02-1.89686E-02-9.09070E-02
 -1      1864 1.29762E+00 5.39246E-01 2.32337E-01-9.34131E-02 3.78364E-02 7.43490E-01
 -1      1865 8.11902E-01 3.21467E-01 3.63296E-02-1.39694E-01 4.30041E-03 8.78535E-01
 -1      1866 2.51284E+00 1.18061E+00 2.60100E-01-1.42609E-01 6.43209E-02-4.22385E-02
 -1      1867 1.34362E-01 2.34536E-01 5.61279E-02-1.31609E-01 4.51577E-02 9.47702E-01
 -1      1868-7.34308E-01-2.20210E-01-2.97516E-01-1.31591E-01 5.72487E-02 1.05234E+00
 -1      1869 1.85214E+00 9.08753E-01 3.46624E-01-9.42067E-02 1.07321E-02 4.14366E-03
 -1      1870-1.58368E+00-3.46768E-01-2.33629E-01-1.74148E-01 8.38365E-02 1.32950E+00
 -1      1871-3.14605E+00-1.06486E+00-7.01822E-01-5.47005E-02 6.33952E-02 1.63641E+00
 -1      1872 5.22376E-01 6.12360E-01 2.80579E-01-1.36195E-01 7.51612E-02 1.25415E-01
 -1      1873-8.83572E-01 3.24164E-01 4.79297E-01 2.87101E-02 4.12208E-02 2.39665E-01
 -1      1874 1.08719E+00 2.60298E+00-3.19572E-02-2.63391E-01 7.27040E-02 2.47085E-01
 -1      1875 8.68686E-01 2.65815E+00-2.73466E-02-1.67642E-01-2.26159E-02 1.61726E-02
 -1      1876 8.16775E-01 2.70355E+00-4.98081E-02-2.78320E-02-3.96071E-02 1.39749E-02
 -1      1877 9.04898E-01 2.66478E+00-2.22588E-01-2.51578E-02-7.40244E-02 1.47908E-01
 -1      1878 6.78674E-01 2.38927E+00-7.20729E-02-7.11120E-02 3.71938E-03 2.52426E-01
 -1      1879 2.38593E+00 1.33260E+00 1.82275E-01-2.86931E-02-1.79598E-02-2.04410E-01
 -1      1880 1.75830E+00 1.38186E+00 1.26017E-01-4.36306E-02 3.78789E-04-2.69447E-01
 -1      1881 2.50076E+00 1.35793E+00 1.61838E-01 3.90916E-02-3.34988E-02-1.91652E-01
 -1      1882 2.59055E+00 1.41026E+00 5.63823E-02-3.63868E-02 6.47451E-03-1.73025E-01
 -1      1883 2.24523E+00 1.30944E+00 2.98015E-01 3.71214E-02-5.55110E-02-1.95780E-01
 -1      1884 3.45453E-01 4.06798E-01 1.43884E-02 5.33818E-01 2.72469E-02-2.07742E-02
 -1      1885 3.56561E-01 4.16348E-01 1.03352E-02 6.50710E-01 1.49620E-02-2.56929E-03
 -1      1886 3.20870E-01 3.66111E-01-1.91737E-02 7.11894E-01 2.73721E-02-2.04473E-02
 -1      1887 2.07499E-01 6.00967E-01-2.94646E-03 6.74057E-01 3.19930E-02-1.16229E-02
 -1      1888 3.26001E-01 4.39399E-01 3.19051E-02 8.05920E-01 1.10397E-02-4.73797E-02
 -1      1889 3.35313E-01 4.39876E-01 3.04485E-03-5.58580E-01-2.36298E-02-4.51274E-03
 -1      1890 2.44497E-01 6.25087E-01-5.63890E-03-6.21098E-01-3.93927E-02-4.25149E-03
 -1      1891 3.71555E-01 3.00895E-01-1.43350E-02-6.20279E-01-1.96287E-02 1.50071E-02
 -1      1892 4.62161E-01 2.75662E-01-1.35378E-02-6.81816E-01-2.36558E-02 1.27255E-02
 -1      1893 3.84363E-01 3.25620E-01 1.95994E-04-4.51173E-01 4.83885E-03-2.49279E-03
 -1      1894 2.19116E-01 5.71941E-01-2.10306E-03-4.74619E-01-2.42626E-02-7.32525E-03
 -1      1895 3.55268E-01 2.89828E-01-4.43555E-03-3.18436E-01-1.27626E-02-1.54911E-02
 -1      1896 1.86037E+00 1.11519E+00 1.78863E-01 1.81594E-02 6.78999E-02-1.45545E-01
 -1      1897 1.71142E+00 1.13467E+00 3.17253E-01 8.80129E-03 8.15442E-02-2.65406E-01
 -1      1898 2.12427E+00 1.19862E+00 5.58723E-02-3.58719E-02 3.71674E-02-1.30582E-01
 -1      1899 1.45624E+00 1.22955E+00 1.10417E-01 9.85915E-02 2.57917E-02-2.71453E-01
 -1      1900 2.50379E+00 1.38706E+00 5.55584E-02 1.75798E-02 2.26225E-02-1.70056E-01
 -1      1901 1.01306E+00 2.26775E+00-7.28826E-02 3.76801E-01 1.84601E-02 4.81918E-02
 -1      1902 1.11732E+00 2.02179E+00-2.54387E-02 5.25600E-01 4.58082E-03 7.23696E-02
 -1      1903 9.73194E-01 2.49726E+00-3.00397E-02 2.66095E-01 2.54189E-02 2.76154E-02
 -1      1904 6.14405E-01 2.05160E+00 6.33849E-03 2.20446E-01 1.76223E-02 1.18158E-01
 -1      1905 9.35625E-01 2.57542E+00-2.26446E-01 2.89644E-01 6.14062E-02 1.02909E-01
 -1      1906 3.70328E-01 3.82705E-01-1.86915E-02 6.76471E-02 9.25943E-03-1.86162E-02
 -1      1907 3.48247E-01 3.71079E-01-2.62723E-02 1.99520E-01 1.81420E-02-4.76814E-03
 -1      1908 3.28162E-01 3.05570E-01 5.41104E-03 3.38104E-01 8.58226E-03-1.59053E-02
 -1      1909 2.41456E-01 5.47878E-01-1.73787E-02 2.84976E-01 1.90968E-02-5.63568E-03
 -1      1910 3.85925E-01 3.27003E-01 1.35834E-02 4.42953E-01 1.11925E-02-2.50144E-03
 -1      1911 3.59106E-01 4.97902E-01 1.71324E-02-7.90107E-01-4.72945E-02-2.01290E-02
 -1      1912 1.91736E-01 7.21606E-01 5.46217E-03-7.06561E-01-6.58205E-02-8.14894E-02
 -1      1913 2.88898E-01 3.94870E-01-4.67836E-02-7.83986E-01-3.26885E-02-1.07309E-02
 -1      1914 3.90840E-01 4.06244E-01 5.79320E-03-8.00263E-01-7.67549E-02-5.37373E-02
 -1      1915 3.69535E-01 3.41764E-01 6.18804E-03-7.86313E-01-2.74479E-02 2.80934E-03
 -1      1916 1.94505E-01 6.16781E-01-1.74344E-03-7.38693E-01-2.37053E-02-7.21449E-03
 -1      1917 2.54594E-01 6.48517E-01 1.39666E-01 4.55400E-01 1.45953E-01-1.96266E-01
 -1      1918 4.99194E-01 6.46984E-01 3.58792E-02 6.24501E-01 7.75512E-02-1.86693E-01
 -1      1919 5.17194E-01 8.11237E-01 5.31908E-02 5.47483E-01 7.35316E-02-1.68254E-01
 -1      1920 2.90605E-01 5.04313E-01 4.74754E-03 7.92183E-01 4.86311E-02-9.09607E-02
 -1      1921 2.93695E-01 4.44205E-01 9.85714E-04 8.16946E-01 2.66822E-02-1.03101E-01
 -1      1922 9.88800E-01 5.85418E-01-3.74024E-03 2.99758E-01-5.93016E-02 7.58354E-02
 -1      1923 5.42811E-01 4.68466E-01-4.90009E-02 1.38348E-01-1.02618E-02 3.88739E-02
 -1      1924 3.93923E-01 7.04869E-01-1.07393E-01 9.69196E-02-1.57538E-02 2.66603E-02
 -1      1925 4.03450E-01 3.92531E-01-1.93328E-02-7.50066E-02-1.73651E-02-2.06648E-02
 -1      1926 3.39484E-01 3.52014E-01-1.51774E-02-2.00115E-01-8.44457E-03-1.47645E-02
 -1      1927 1.67462E+00 1.08174E+00 2.07739E-01-3.51753E-02 3.96249E-03-1.03187E-01
 -1      1928 2.02021E+00 1.21844E+00 2.09984E-01-7.53172E-03-8.25435E-02-1.43840E-01
 -1      1929 1.23190E+00 1.03102E+00 4.03856E-01-6.22678E-02-8.50011E-02-1.53582E-01
 -1      1930 1.12545E+00 1.06587E+00 1.28690E-01-2.33341E-01-1.99591E-02-2.13148E-01
 -1      1931 8.08151E-01 8.86546E-01 4.28184E-01-8.42640E-02-2.67431E-02-1.97662E-01
 -1      1932 1.44460E+00 2.06138E+00-2.39005E-01-5.40143E-01 1.07675E-01 2.43513E-01
 -1      1933 1.16948E+00 2.27870E+00-2.35769E-01-4.37921E-01-5.98455E-02 2.31077E-01
 -1      1934 1.59312E+00 1.22507E+00 5.34703E-02-5.35018E-01 1.45376E-02-1.13981E-02
 -1      1935 1.70631E+00 1.81168E+00 7.66241E-02-5.69687E-01 8.66998E-02 7.79869E-02
 -1      1936 9.14173E-01 1.67219E+00-1.58079E-02-4.77774E-01-1.36146E-02 9.83786E-02
 -1      1937 4.05792E-01 6.34960E-01 2.20916E-02-7.09040E-01-7.00169E-02-1.31953E-01
 -1      1938 5.26623E-01 7.28153E-01 2.08480E-02-4.63813E-01-7.86893E-02-1.66417E-01
 -1      1939 4.86418E-01 7.45341E-01 1.68047E-01-4.55204E-01-1.18418E-01-2.65144E-01
 -1      1940 3.56764E-01 6.19766E-01 2.66052E-01-3.46101E-01-2.27282E-02-1.54118E-01
 -1      1941 4.99064E-01 2.97381E-01-4.83901E-02-8.63667E-02 1.12517E-02 1.17629E-02
 -1      1942 9.70950E-01 4.00186E-01-7.07871E-02-1.68541E-01 3.11411E-02 2.98954E-02
 -1      1943 1.10479E+00 6.90000E-01-2.21522E-01-4.71958E-01 6.03981E-02 2.97526E-02
 -1      1944 1.39311E+00 5.58706E-01-1.29115E-01-4.15465E-01 3.99618E-02 1.35839E-02
 -1      1945 1.29172E+00 1.00926E+00 3.16152E-01 1.44445E-01 5.04375E-02-2.27952E-01
 -1      1946 7.31098E-01 8.98466E-01 3.76005E-01 9.66640E-02 7.90633E-02-1.66818E-01
 -1      1947 3.84485E-01 5.83596E-01 2.84216E-01 3.32645E-01 2.53818E-02-1.05832E-01
 -1      1948 1.23678E+00 1.47796E+00-2.67935E-02 5.60860E-01-5.13258E-03 9.67693E-04
 -1      1949 1.43337E+00 9.59749E-01-2.00817E-01 4.72932E-01-1.33707E-01 1.80962E-01
 -1      1950 1.68261E+00 6.00701E-01-1.19760E-02 3.87999E-01-6.55021E-02 9.51153E-02
 -1      1951 9.16140E-01 1.03680E+00 1.44627E-01 2.56711E-01 9.80725E-02-2.51308E-01
 -1      1952 1.15989E+00 1.33580E+00 4.96681E-02 1.42770E-01-5.18911E-03-1.41673E-01
 -1      1953 1.02322E+00 1.26049E+00 4.14132E-02 2.09586E-01 3.19902E-02-1.33255E-01
 -1      1954 4.32376E-01 1.14365E+00-5.52667E-03 3.65521E-01 2.99612E-02-5.71793E-02
 -1      1955 8.49301E-01 1.09200E+00 2.06665E-02 2.76410E-01 5.24327E-02-1.69304E-01
 -1      1956 6.28235E-01 1.02878E+00 4.12586E-02 4.70464E-01 7.66303E-02-1.55977E-01
 -1      1957 1.20079E+00 1.38876E+00 4.99069E-02 6.67178E-02-1.79476E-02-1.76225E-01
 -1      1958 5.96797E-01 1.35322E+00 1.14907E-02 1.53597E-01 2.74767E-03-7.91106E-02
 -1      1959 1.77286E+00 1.38824E+00 8.30799E-02 1.17251E-02 1.14883E-02-2.29237E-01
 -1      1960 1.24040E+00 1.40342E+00 3.73587E-02 2.63960E-02 2.78667E-02-1.82550E-01
 -1      1961 3.74987E-01 1.41501E+00-9.32605E-03 1.69299E-01 1.81725E-02-8.66015E-02
 -1      1962 2.45844E-01 1.32996E+00-1.45710E-02 2.66732E-01 2.23746E-02-2.33496E-02
 -1      1963 4.19955E-02 1.28807E+00-1.99932E-02 3.63469E-01 3.29183E-02-1.62537E-02
 -1      1964 2.09755E-01 1.21832E+00-3.90522E-02 3.79833E-01 1.01649E-02-4.67379E-04
 -1      1965 2.03624E-01 1.14208E+00-1.74384E-03 4.73946E-01 3.87871E-02-6.40016E-02
 -1      1966 3.46112E-01 1.42439E+00-2.05741E-02 3.33464E-02-5.22515E-05-1.12309E-01
 -1      1967 4.03979E-02 1.40152E+00-1.74025E-02 1.18381E-01 1.39016E-02-5.41048E-02
 -1      1968 7.07262E-01 1.39932E+00 9.11968E-03 2.62614E-02-1.49818E-02-1.52294E-01
 -1      1969 3.24682E-01 1.39358E+00 2.74230E-02-3.52270E-02-3.13816E-02-1.21829E-01
 -1      1970 1.24671E+00 1.39670E+00 1.86899E-02-2.04455E-02 2.59382E-02-1.71323E-01
 -1      1971-1.02810E-01 1.45181E+00 2.17992E-02 5.50099E-02-1.83468E-02-4.07361E-02
 -1      1972-1.27220E-01 1.41413E+00-6.13366E-03 1.87092E-01 5.02150E-03-2.71955E-02
 -1      1973-2.07111E-01 1.36879E+00-5.40226E-03 2.58916E-01 1.49626E-02-1.45369E-02
 -1      1974-1.06205E-01 1.32098E+00-2.71848E-02 3.25597E-01 1.94195E-02-2.26281E-02
 -1      1975-9.45199E-02 1.19467E+00-3.06218E-02 4.43097E-01 2.04781E-02-3.39729E-02
 -1      1976-1.21003E-01 1.40659E+00-1.88437E-02-5.15294E-02-9.27061E-03-4.70178E-02
 -1      1977-2.26143E-01 1.44134E+00-6.60884E-03 3.27819E-03-1.85264E-02-3.00369E-03
 -1      1978 2.48066E-02 1.41999E+00 3.90183E-03-1.08912E-01-1.36550E-02-6.68295E-02
 -1      1979-9.75468E-02 1.41940E+00-8.89171E-03-1.72518E-01-1.75414E-02-5.21309E-02
 -1      1980 3.05096E-01 1.35969E+00 2.47761E-02-1.43773E-01-2.76386E-03-1.07566E-01
 -1      1981-2.23670E-01 1.47440E+00-2.18773E-04-4.05960E-02-2.27464E-02-4.10541E-02
 -1      1982-2.53506E-01 1.47559E+00-1.92792E-02 6.04947E-02 2.76467E-03-1.52278E-03
 -1      1983-2.21564E-01 1.47197E+00-2.72118E-03 1.20857E-01-2.64619E-03-1.95554E-02
 -1      1984-2.20845E-01 1.43584E+00-2.83362E-03 1.83953E-01-9.97780E-04-2.64243E-04
 -1      1985-1.65959E-01 1.34160E+00-6.68195E-03 2.96134E-01 7.42444E-03-2.81886E-02
 -1      1986-2.19103E-01 1.43191E+00 1.65291E-03-1.76832E-01-3.39548E-03-3.80526E-02
 -1      1987-2.39636E-01 1.48526E+00 1.31916E-02-1.08952E-01-9.27739E-04-2.86196E-02
 -1      1988-1.89545E-01 1.40878E+00 1.98058E-03-2.58920E-01-1.70590E-03-3.00199E-02
 -1      1989-2.12306E-01 1.34800E+00-4.36391E-03-3.05353E-01-6.33856E-03-2.73030E-02
 -1      1990-8.32629E-02 1.34410E+00 8.72184E-03-3.11824E-01-7.69492E-03-4.63798E-02
 -1      1991-2.76877E-01 1.48500E+00-1.61466E-02 3.94486E-02-1.80658E-03-2.15541E-02
 -1      1992-2.38630E-01 1.46581E+00-2.97024E-03 1.51298E-01 6.03157E-05-2.48383E-02
 -1      1993-2.36819E-01 1.47668E+00 1.09471E-03-1.50001E-01-3.30242E-03-2.82626E-02
 -1      1994-2.79285E-01 1.50652E+00-6.77481E-03-3.65498E-02 2.14785E-03-2.43716E-02
 -1      1995-2.21620E-01 1.54202E+00-1.31942E-02-2.27037E-03 4.33895E-03-2.83633E-02
 -1      1996-1.34799E-01 1.21179E+00-9.40639E-03 3.26858E-01 7.90414E-03-2.11946E-02
 -1      1997-1.49210E-01 1.27779E+00 7.31643E-03 3.35981E-01 4.70062E-03-2.18127E-02
 -1      1998-2.11688E-01 1.32289E+00-1.67672E-02 2.37159E-01 4.75607E-03-1.80102E-02
 -1      1999-2.10903E-01 1.42638E+00-6.19129E-03 1.56151E-01 1.01149E-02-1.54517E-02
 -1      2000-1.00985E-01 1.17846E+00-7.49646E-03 4.22776E-01 4.12276E-03-2.62248E-02
 -1      2001-1.86864E-01 1.34675E+00-1.21489E-02-2.18425E-01-5.47262E-03-1.85479E-02
 -1      2002-1.80957E-01 1.45301E+00-5.25177E-03-1.44092E-01-8.00522E-03-2.44706E-02
 -1      2003-1.35317E-01 1.28143E+00-4.37651E-03-3.16428E-01-1.63777E-02-2.74551E-02
 -1      2004-9.88898E-02 1.23560E+00-9.09948E-03-3.16010E-01-2.13140E-02-2.71745E-02
 -1      2005-1.51570E-01 1.19100E+00-2.56529E-02-4.16847E-01 2.77944E-03-1.13068E-02
 -1      2006 3.04629E-01 1.35162E+00 1.16416E-02-2.57641E-01-1.08697E-02-1.12192E-01
 -1      2007 2.68070E-01 1.22166E+00-1.31992E-03-3.90966E-01-4.17422E-02-1.00419E-01
 -1      2008-9.39264E-04 1.24117E+00-1.27294E-02-3.63999E-01-5.05499E-02-5.05600E-02
 -1      2009-7.75736E-02 1.16979E+00-8.33072E-03-4.38479E-01-2.10016E-02-4.04311E-02
 -1      2010 6.23827E-01 1.35288E+00 2.46304E-02-1.93968E-01-5.23250E-03-1.53172E-01
 -1      2011-1.86118E-01 1.45116E+00-1.84578E-02-1.18295E-01-2.51654E-03-1.90863E-02
 -1      2012-2.20401E-01 1.53666E+00-2.89421E-02-6.51348E-02 1.04123E-03-3.45484E-02
 -1      2013-2.27955E-01 1.65179E+00-1.56955E-02-2.69890E-02 2.81333E-03-2.47623E-02
 -1      2014-2.17524E-01 1.59551E+00-1.13993E-02-2.04639E-02-1.18767E-03-2.32756E-02
 -1      2015-2.42146E-01 1.58736E+00-2.56951E-02 3.19541E-02 5.39043E-03-1.86489E-02
 -1      2016 1.93076E-02 1.04982E+00-2.70344E-04-4.08190E-01-2.19852E-02-8.37709E-03
 -1      2017-3.78029E-02 1.14344E+00-4.64759E-03-2.86957E-01-1.04612E-02-1.72485E-02
 -1      2018-8.56015E-02 1.26604E+00-1.46103E-02-1.55600E-01-5.62474E-03-1.29465E-03
 -1      2019-6.19953E-02 1.44305E+00-1.44238E-02-6.17735E-02-6.79229E-03-1.33073E-03
 -1      2020 1.63784E-02 1.07269E+00-1.01938E-02-2.12452E-01-4.93152E-03-6.09965E-03
 -1      2021 7.95004E-02 7.96769E-01-1.17952E-02-6.14666E-01-2.28165E-02 1.27917E-02
 -1      2022 3.71446E-02 9.19820E-01-7.20443E-03-5.07343E-01-2.27570E-02 1.00861E-03
 -1      2023-4.92290E-02 1.04266E+00 4.01283E-04-5.34704E-01-1.83509E-02-1.77999E-02
 -1      2024-5.08773E-02 1.10619E+00 1.28898E-05-5.18881E-01-1.95283E-02-2.80094E-02
 -1      2025 1.20039E-01 8.13979E-01-2.21081E-04-4.61742E-01-2.64892E-02-3.98818E-04
 -1      2026-6.83934E-02 1.12614E+00-1.35254E-02 5.03111E-01 3.05004E-02-2.22623E-02
 -1      2027-4.28256E-02 1.05059E+00-2.25602E-02 5.67062E-01 1.41911E-02-1.97146E-02
 -1      2028 6.14381E-02 8.74409E-01-2.30492E-03 7.07298E-01 1.42016E-02-2.35538E-02
 -1      2029 3.90239E-02 9.85147E-01-6.55868E-03 6.41028E-01 3.18191E-02-3.88373E-02
 -1      2030 1.57121E-01 9.08062E-01 3.67914E-03 6.37120E-01 3.93896E-02-6.06447E-02
 -1      2031-1.55189E-01 1.75097E+00-4.29627E-02 1.52024E-02 1.17634E-02-3.95991E-03
 -1      2032-2.19804E-01 1.78212E+00-4.98983E-02 1.03553E-02 1.61801E-02-1.50341E-03
 -1      2033-2.37570E-02 1.44000E+00-5.30616E-02 2.03503E-02-4.45528E-03 1.69361E-03
 -1      2034-1.18714E-01 1.58855E+00-8.01023E-02 1.68703E-02 2.65017E-03 8.24662E-04
 -1      2035 1.27385E-02 1.83021E+00-2.85338E-02 8.27866E-02-1.50703E-03 3.09499E-02
 -1      2036 2.29833E-02 1.97774E+00-6.13142E-02 3.90058E-03 2.21799E-02 3.91909E-02
 -1      2037-1.93226E-01 1.78301E+00-2.05779E-02 8.85411E-04 1.09330E-02 2.90851E-02
 -1      2038-1.34202E-01 1.73983E+00-3.35931E-02-2.76233E-02-1.47091E-02 2.50689E-02
 -1      2039-2.16517E-01 1.65695E+00-1.20059E-02 2.53324E-02 2.05799E-03-1.63603E-02
 -1      2040-1.89736E-01 1.55265E+00-1.03911E-02 7.60735E-02 1.20177E-02-8.77676E-03
 -1      2041 1.47791E-01 7.94273E-01-1.89743E-02-2.48643E-01-7.56714E-03-4.28947E-03
 -1      2042 1.14706E-01 9.54797E-01-3.72839E-03-1.23693E-01-2.11474E-02 6.46926E-04
 -1      2043 2.58705E-01 8.76510E-01-4.12007E-02-2.70263E-02-1.19216E-02-1.77476E-03
 -1      2044 1.19787E-01 1.16461E+00-2.87567E-02-2.55893E-02-3.65325E-02 2.01057E-02
 -1      2045 1.02393E-01 1.36639E+00-6.17739E-02 1.03967E-01-1.85419E-02 2.10028E-02
 -1      2046 2.08954E-01 2.19623E+00-9.63018E-02-2.53416E-02 1.37495E-02 6.93520E-02
 -1      2047 1.97755E-01 2.11614E+00-1.88547E-01-1.84848E-02 2.24342E-02 1.04327E-01
 -1      2048 2.46453E-01 1.90373E+00-1.04287E-01 1.17532E-01-4.51058E-03 1.17433E-01
 -1      2049 2.43853E-01 2.13943E+00-1.01025E-02 1.43777E-01-3.87069E-02 1.13436E-01
 -1      2050 4.34841E-01 2.40300E+00-4.74832E-02 8.66103E-02-5.20006E-03 1.45960E-01
 -1      2051 1.43374E-02 1.87078E+00-2.43502E-02-1.01071E-01-1.01782E-02 4.86310E-02
 -1      2052-6.85488E-02 1.61337E+00-9.20446E-03-4.05237E-02 1.51502E-03 3.94376E-03
 -1      2053 2.64073E-01 2.06555E+00-1.36073E-01-1.23626E-01 1.42046E-02 1.17479E-01
 -1      2054 2.72448E-01 2.00000E+00-2.21779E-02-1.31916E-01-8.27855E-03 9.45650E-02
 -1      2055-6.87939E-03 1.41544E+00-6.68139E-02-3.19358E-02 1.27740E-02 1.28288E-02
 -1      2056-2.76087E-02 1.41310E+00-1.22796E-02 6.53679E-02 2.54325E-02 4.08828E-03
 -1      2057-7.40388E-02 1.22586E+00-3.16007E-02 1.51682E-01 1.69546E-02-1.72004E-02
 -1      2058-1.45262E-01 1.40522E+00-2.49900E-02 1.26963E-01 1.43364E-02-2.20619E-02
 -1      2059 2.23832E-01 1.47971E+00-4.76796E-03-1.66310E-01 2.08283E-02 6.57792E-02
 -1      2060 1.06445E-01 1.17093E+00-8.67395E-02-5.52496E-02 1.92576E-02 7.23530E-03
 -1      2061 2.96755E-01 1.78384E+00-3.79885E-02-2.55267E-01 2.33090E-02 1.06400E-01
 -1      2062 4.58577E-01 1.50211E+00-1.23843E-01-3.31470E-01-7.79404E-03 7.96443E-02
 -1      2063 6.42767E-01 2.17810E+00 6.97135E-03-2.79026E-01 1.06897E-02 1.40883E-01
 -1      2064 2.70815E-01 8.71427E-01-7.96909E-02-5.01256E-02 1.05902E-02-7.99058E-03
 -1      2065 1.60817E-01 9.43156E-01-2.80951E-02 1.09422E-01 3.12614E-02-6.85603E-04
 -1      2066 1.59452E-01 7.89304E-01-1.49155E-02 2.52214E-01 1.03148E-02 3.41870E-03
 -1      2067 1.64341E-02 1.05930E+00-1.61107E-02 2.20955E-01 5.67827E-03-1.35849E-02
 -1      2068-1.19418E-02 1.13807E+00-6.53170E-03 2.91063E-01 1.19253E-02-1.19461E-02
 -1      2069 5.24965E-01 9.21217E-01-4.57846E-02-2.23856E-01 3.27604E-02 4.84606E-02
 -1      2070 3.73198E-01 5.83764E-01-1.14966E-01-4.22440E-02 1.19661E-02 7.69777E-03
 -1      2071 5.85924E-01 1.20388E+00-1.06700E-01-3.52442E-01-1.01075E-02 5.44211E-02
 -1      2072 7.75457E-01 9.05821E-01-8.57381E-02-3.65268E-01 3.08251E-02 4.63128E-02
 -1      2073 1.72107E-01 7.19338E-01-7.37151E-03 3.93543E-01 1.77148E-02 6.02638E-03
 -1      2074-7.59568E-03 1.02447E+00-2.79497E-02 4.11324E-01 1.50889E-02 4.43862E-03
 -1      2075 1.28252E-01 7.82071E-01-1.68358E-03 4.71809E-01 2.54446E-02 5.29859E-04
 -1      2076 4.37875E-02 8.63301E-01-1.23962E-02 5.31219E-01 1.92750E-02-2.27622E-03
 -1      2077 2.22438E-01 5.36685E-01-5.00759E-03 4.75241E-01 3.29615E-02-4.40437E-03
 -1      2078 1.24942E+00 1.40239E+00 1.17584E-02-8.18373E-02-1.61401E-02-1.83814E-01
 -1      2079 2.83715E-01 8.66869E-01 1.19189E-02 6.03037E-01 5.64382E-02-7.05258E-02
 -1      2080 8.18585E-02 7.81616E-01 5.21539E-04 6.28415E-01 1.24614E-02-5.22778E-03
 -1      2081-3.66393E-02 1.02925E+00-1.24913E-04 5.27570E-01 2.37308E-02-1.62243E-02
 -1      2082 1.23615E-01 7.71166E-01 2.41495E-03 6.82689E-01 2.62377E-02 1.32114E-03
 -1      2083 1.54120E-01 6.74097E-01-6.45196E-03 7.34006E-01 5.41774E-03-3.43630E-02
 -1      2084 6.33775E-01 1.39383E+00-1.66276E-03 3.63018E-01-1.40529E-02 8.95189E-04
 -1      2085 4.38391E-01 1.46128E+00-5.24736E-02 2.58147E-01-2.37012E-02-1.10282E-02
 -1      2086 5.51404E-01 1.02750E+00-1.80737E-02 1.92096E-01-3.20133E-02 1.29190E-03
 -1      2087 2.96724E-01 1.72164E+00-1.67320E-02 1.85082E-01-6.43610E-03 7.98484E-02
 -1      2088 1.49203E+00 1.24460E+00 1.09996E-01-5.01415E-02-8.00775E-02-2.43121E-01
 -1      2089 7.14888E-01 1.03062E+00 2.60976E-02-4.45308E-01-5.74001E-02-1.52687E-01
 -1      2090 8.24049E-01 1.12245E+00 3.18445E-02-2.95507E-01-1.42983E-02-1.64109E-01
 -1      2091 4.15323E-01 1.15699E+00 2.72175E-02-3.20069E-01-5.54083E-02-1.39625E-01
 -1      2092 9.38955E-01 1.16882E+00 2.05634E-02-1.88839E-01-4.88489E-02-2.21879E-01
 -1      2093 1.15792E+00 1.30882E+00-8.28002E-03-1.78169E-01-2.69836E-02-1.68906E-01
 -1      2094 2.87569E-01 8.22660E-01 1.15634E-02-6.20993E-01-7.06361E-02-8.22598E-02
 -1      2095 1.65042E-01 9.00964E-01-1.40914E-02-6.50761E-01-4.39575E-02-5.38733E-02
 -1      2096 6.85191E-02 1.01944E+00 5.72609E-03-6.36585E-01-2.88750E-02-5.56814E-02
 -1      2097 1.75761E-01 1.10678E+00-1.93729E-02-4.71832E-01-6.46204E-02-8.40341E-02
 -1      2098 1.17459E-01 6.87576E-01-3.46276E-03-6.83485E-01-3.21303E-02 2.34752E-02
 -1      2099 6.42290E-02 8.61342E-01 7.26903E-03-7.19403E-01-1.77481E-02-2.17944E-02
 -1      2100-1.65156E-02 1.05682E+00 1.16655E-03-5.61155E-01-1.40411E-02-4.02622E-02
 -1      2101 1.74945E-01 7.17740E-01-4.32778E-03-3.85839E-01-2.61192E-02 3.50499E-03
 -1      2102 2.49997E-01 5.54028E-01-4.12389E-02-2.56285E-01-1.98871E-02-2.27424E-02
 -1      2103 1.59082E-01 7.02725E-01-1.00410E-02 7.00675E-01 4.64904E-02-1.01867E-01
 -1      2104 2.78519E-01 5.42747E-01 2.42192E-02 8.06682E-01 2.85271E-02-8.92436E-02
 -1      2105-2.21443E+01-9.31176E+00-9.25327E+00 2.40995E+00 7.31881E-02 1.78548E+00
 -1      2106-2.24942E+01-9.41639E+00-8.88361E+00 4.63944E-01 1.86686E-03 2.24901E+00
 -1      2107-2.26063E+01-9.50928E+00-8.93641E+00-1.24612E+00-1.15692E-03 2.38083E+00
 -1      2108-8.11591E+00-3.34421E+00-3.35044E+00-1.40259E+00-7.76001E-02-2.62112E+00
 -1      2109-6.68962E+00-2.85995E+00-2.77971E+00-1.56302E-01 3.07991E-02-1.85739E+00
 -1      2110-6.89539E+00-2.91418E+00-2.80735E+00 4.67573E-01 5.40090E-02-1.88155E+00
 -1      2111-8.13899E+00-3.35935E+00-3.34497E+00 1.39801E+00 8.40649E-02-2.63075E+00
 -1      2112-1.88381E+01-8.05945E+00-8.12600E+00-5.06775E+00-9.20207E-03-9.89082E-01
 -1      2113-1.95988E+01-8.28738E+00-7.98132E+00 4.90379E+00 3.68526E-02-1.30020E+00
 -1      2114-7.26279E+00-3.03919E+00-3.01603E+00-8.47006E-01-6.75641E-02-2.16897E+00
 -1      2115-1.53738E+01-6.33933E+00-6.17186E+00-2.04473E+00-1.28469E-01-9.67842E-01
 -1      2116-6.80855E+00-2.85544E+00-2.72842E+00-4.71534E-01-5.78142E-02-1.89523E+00
 -1      2117-7.15648E+00-2.99839E+00-2.97788E+00 8.02557E-01 5.14253E-02-2.20279E+00
 -1      2118-2.23991E+01-9.41443E+00-8.96411E+00 1.20209E+00 5.41658E-02 2.23346E+00
 -1      2119-2.18115E+01-9.41619E+00-9.34726E+00-4.26044E-01-3.20573E-02 2.18135E+00
 -1      2120-6.78586E+00-2.88679E+00-2.74878E+00 1.54977E-01 7.60414E-03-1.83291E+00
 -1      2121-1.27522E+01-5.19870E+00-5.50841E+00-3.48014E+00 3.95705E-03-2.92666E+00
 -1      2122-1.48428E+01-6.25701E+00-5.96734E+00-1.22204E+00-1.59909E-02-6.72025E-01
 -1      2123-1.26524E+01-5.12540E+00-5.37661E+00 3.35922E+00-4.44635E-02-2.92688E+00
 -1      2124-2.21489E+01-9.34018E+00-9.00316E+00 3.77928E+00 1.59937E-02 1.62661E+00
 -1      2125-2.25654E+01-9.48741E+00-9.30568E+00-2.40311E+00-5.74654E-03 1.90105E+00
 -1      2126-1.49952E+01-6.20133E+00-6.08944E+00 2.03266E+00 1.35133E-01-1.05250E+00
 -1      2127-1.44522E+01-6.15530E+00-5.99017E+00-5.84220E-01-7.59912E-02-5.84971E-01
 -1      2128-2.29439E+01-9.65169E+00-9.19599E+00-3.77175E+00-5.23320E-02 1.92067E+00
 -1      2129-1.46219E+01-6.20687E+00-5.82289E+00 1.22125E+00 2.94598E-02-6.07515E-01
 -1      2130-1.44842E+01-6.08644E+00-5.79657E+00 3.09055E-03 1.66364E-02-5.21198E-01
 -1      2131-1.46388E+01-6.18369E+00-6.06585E+00 5.81287E-01 2.30316E-02-6.16645E-01
 -1      2132-1.55940E+01-6.47232E+00-6.16505E+00-2.96948E+00-1.53421E-02-1.31640E+00
 -1      2133-7.54477E+00-3.26242E+00-3.29623E+00-1.68315E+00-5.97253E-02-3.68795E+00
 -1      2134-1.54835E+01-6.42070E+00-6.16509E+00 2.98450E+00 2.81484E-02-1.39389E+00
 -1      2135-2.59091E+01-1.10051E+01-1.04851E+01-6.65450E+00-1.54279E-01 1.93980E+00
 -1      2136-7.51474E+00-3.26036E+00-3.29519E+00 1.68520E+00 5.85764E-02-3.68439E+00
 -1      2137-2.61803E+01-1.05936E+01-1.00361E+01 6.76256E+00-6.01675E-02 1.82789E+00
 -1      2138-9.43329E+00-3.64801E+00-3.86017E+00 1.61188E+00 1.61224E-01-4.43647E+00
 -1      2139-1.15910E+01-4.96761E+00-4.96759E+00 3.07719E+00 1.45629E-05-4.46953E+00
 -1      2140-7.52431E+00-3.22472E+00-3.22476E+00 8.93033E-01-1.92889E-06-3.68678E+00
 -1      2141-3.33208E+01-1.39394E+01-1.36696E+01 9.50768E+00 2.34246E-01-1.96450E-01
 -1      2142-3.65620E+01-1.42290E+01-1.41715E+01 9.15693E+00-7.90855E-01 4.09520E+00
 -1      2143-3.12526E+01-1.33940E+01-1.33941E+01 6.43589E+00-1.21235E-05 5.44435E+00
 -1      2144-3.65112E+01-1.43159E+01-1.41769E+01-9.07509E+00 7.51424E-01 4.17577E+00
 -1      2145-3.19324E+01-1.36854E+01-1.36854E+01-9.12906E+00-5.41406E-06 3.57006E-01
 -1      2146-3.15172E+01-1.35074E+01-1.35075E+01-6.43658E+00 1.27824E-05 5.52899E+00
 -1      2147-1.15826E+01-4.96403E+00-4.96400E+00-3.08919E+00-1.46513E-05-4.48244E+00
 -1      2148-9.41084E+00-3.63912E+00-3.85620E+00-1.60735E+00-1.59332E-01-4.43483E+00
 -1      2149-7.52945E+00-3.22693E+00-3.22697E+00-8.74536E-01 2.16105E-06-3.69180E+00
 -1      2150-1.47784E+01-6.14993E+00-6.40623E+00 4.21349E+00 8.91201E-02-4.26775E+00
 -1      2151-2.00773E+01-8.51915E+00-8.53064E+00 5.81131E+00-5.30576E-02-3.61870E+00
 -1      2152-1.04530E+01-4.34275E+00-4.43673E+00 2.53311E+00 1.37109E-02-3.39032E+00
 -1      2153-2.31096E+01-9.90423E+00-9.90416E+00 6.58197E+00 2.02106E-05-2.75638E+00
 -1      2154-2.83354E+01-1.21439E+01-1.21438E+01 7.96265E+00 9.35333E-06-1.49906E+00
 -1      2155-1.60987E+01-6.74185E+00-6.84754E+00 4.08937E+00 6.43484E-02-2.38825E+00
 -1      2156-2.38094E+01-9.82130E+00-1.00694E+01 5.88708E+00-8.64659E-02-1.03428E-01
 -1      2157-2.88654E+01-1.22995E+01-1.21570E+01-8.38116E+00 4.77033E-02-1.17967E+00
 -1      2158-2.27431E+01-9.74716E+00-9.74708E+00-6.65270E+00-1.99023E-05-2.67289E+00
 -1      2159-2.26512E+01-9.64099E+00-9.71496E+00-5.90535E+00-7.46420E-02 2.02628E-01
 -1      2160-2.01030E+01-8.55119E+00-8.55457E+00-5.92498E+00 4.05025E-02-3.72637E+00
 -1      2161-1.48520E+01-6.17408E+00-6.47284E+00-4.24514E+00-8.92234E-02-4.32119E+00
 -1      2162-1.53963E+01-6.58627E+00-6.59892E+00-4.32397E+00 3.20565E-02-2.10755E+00
 -1      2163-1.05223E+01-4.35010E+00-4.46201E+00-2.53436E+00-3.43712E-03-3.38659E+00
 -1      2164-2.92365E+01-1.25227E+01-1.24856E+01 4.99595E+00-3.02300E-02 5.36707E+00
 -1      2165-2.88443E+01-1.19519E+01-1.11639E+01 3.60576E+00 6.57392E-01 4.38423E+00
 -1      2166-2.47203E+01-1.03469E+01-9.73184E+00 5.00081E+00-8.64054E-02 1.80901E+00
 -1      2167-2.89228E+01-1.20627E+01-1.12709E+01 3.39783E+00-6.68834E-01 4.33216E+00
 -1      2168-2.96797E+01-1.27199E+01-1.27200E+01 2.46261E+00-4.53624E-06 5.53835E+00
 -1      2169-2.27356E+01-9.74385E+00-9.74383E+00 3.08462E+00-2.17958E-06 1.43501E+00
 -1      2170-3.10052E+01-1.32288E+01-1.30740E+01 1.83405E+00-1.29773E-01 6.18888E+00
 -1      2171-3.00198E+01-1.24744E+01-1.15606E+01 8.69101E-01 7.91179E-01 4.91052E+00
 -1      2172-2.24340E+01-9.42194E+00-8.97065E+00 1.79759E+00 1.84132E-02 2.07332E+00
 -1      2173-3.02119E+01-1.25826E+01-1.16838E+01 1.10080E+00-7.66106E-01 4.96819E+00
 -1      2174-3.15419E+01-1.34129E+01-1.32266E+01 2.04067E-01 1.77151E-01 6.34252E+00
 -1      2175-2.30357E+01-9.87245E+00-9.87242E+00 8.60214E-01-3.32294E-07 1.84175E+00
 -1      2176-3.02169E+01-1.29501E+01-1.29503E+01-3.76759E-01-6.04279E-07 5.72268E+00
 -1      2177-2.96932E+01-1.24690E+01-1.15060E+01-1.18212E+00 7.32108E-01 4.68080E+00
 -1      2178-2.19100E+01-9.27750E+00-9.01555E+00-3.01268E-02 1.04134E-02 2.36935E+00
 -1      2179-3.02106E+01-1.25739E+01-1.18409E+01-9.75018E-01-6.44457E-01 5.15556E+00
 -1      2180-3.12727E+01-1.33430E+01-1.31708E+01-1.87178E+00 1.38751E-01 6.24139E+00
 -1      2181-2.29631E+01-9.84133E+00-9.84131E+00-9.04416E-01 3.06193E-06 2.02554E+00
 -1      2182-3.01947E+01-1.29407E+01-1.29408E+01-2.47145E+00 5.28893E-06 5.64700E+00
 -1      2183-2.90578E+01-1.21100E+01-1.10578E+01-3.44176E+00 8.11312E-01 4.17616E+00
 -1      2184-2.27894E+01-9.55705E+00-9.06184E+00-1.79883E+00-1.74723E-02 2.18675E+00
 -1      2185-2.94491E+01-1.21562E+01-1.14710E+01-3.62711E+00-6.28137E-01 4.53224E+00
 -1      2186-3.00146E+01-1.28827E+01-1.27818E+01-5.04094E+00 4.41549E-02 5.63119E+00
 -1      2187-2.33857E+01-1.00224E+01-1.00224E+01-3.03217E+00 2.37404E-06 1.51694E+00
 -1      2188-2.49346E+01-1.04194E+01-9.75647E+00-5.04041E+00 6.35114E-02 2.04087E+00
 -1      2189-7.58880E+00-3.13112E+00-3.19169E+00-7.84670E-01-3.86305E-02-3.16291E+00
 -1      2190-5.94829E+00-2.54929E+00-2.54935E+00-6.23246E-01 3.59166E-06-2.71205E+00
 -1      2191-7.72042E+00-3.27531E+00-3.34560E+00-1.53305E+00-4.64973E-02-3.20118E+00
 -1      2192-5.34724E+00-2.27868E+00-2.26921E+00-5.02165E-01-1.40705E-02-2.37587E+00
 -1      2193-4.41256E+00-1.89113E+00-1.89119E+00-4.12140E-01 2.72196E-06-2.19983E+00
 -1      2194-7.76850E+00-3.30719E+00-3.25266E+00-1.08408E+00-4.63224E-02-2.36222E+00
 -1      2195-4.35018E+00-1.85234E+00-1.83251E+00-3.28501E-01-1.94370E-02-2.03550E+00
 -1      2196-3.97486E+00-1.70743E+00-1.70104E+00-2.04653E-01 1.31515E-03-1.94351E+00
 -1      2197-6.98023E+00-2.95604E+00-2.87142E+00-6.31653E-01-1.75707E-02-2.01172E+00
 -1      2198-3.55788E+00-1.52483E+00-1.52490E+00-1.31740E-01 9.28575E-08-1.90858E+00
 -1      2199-2.89187E+00-1.22653E+00-1.27151E+00-8.28760E-04-1.89022E-02-1.93125E+00
 -1      2200-6.72572E+00-2.84438E+00-2.75857E+00-3.00968E-01-1.80887E-02-1.91061E+00
 -1      2201-2.91978E+00-1.24057E+00-1.26846E+00-3.61483E-02 9.94292E-03-1.95088E+00
 -1      2202-3.84882E+00-1.65109E+00-1.63495E+00 1.64127E-01 8.77168E-03-1.89235E+00
 -1      2203-6.69608E+00-2.86977E+00-2.86981E+00 7.42623E-03 3.22859E-07-1.82216E+00
 -1      2204-3.79817E+00-1.62782E+00-1.62788E+00 2.30168E-01-1.91166E-06-1.96079E+00
 -1      2205-4.36860E+00-1.85849E+00-1.86422E+00 3.00556E-01 5.19447E-03-2.01777E+00
 -1      2206-6.82675E+00-2.89038E+00-2.80783E+00 3.07371E-01 4.94689E-03-1.86264E+00
 -1      2207-4.34479E+00-1.86208E+00-1.86213E+00 4.00483E-01-2.34164E-06-2.21465E+00
 -1      2208-5.34655E+00-2.26869E+00-2.26741E+00 4.89245E-01 1.48761E-02-2.40954E+00
 -1      2209-6.97093E+00-2.94911E+00-2.86195E+00 6.16222E-01 1.38920E-02-2.02133E+00
 -1      2210-5.94930E+00-2.54973E+00-2.54980E+00 6.33825E-01-3.96590E-06-2.72928E+00
 -1      2211-7.58234E+00-3.14481E+00-3.20043E+00 7.93992E-01 3.12065E-02-3.16232E+00
 -1      2212-7.77850E+00-3.30876E+00-3.24464E+00 1.06792E+00 4.18200E-02-2.38752E+00
 -1      2213-7.70351E+00-3.27393E+00-3.34522E+00 1.53003E+00 4.19469E-02-3.20172E+00
 -1      2214-1.89677E+01-8.12441E+00-8.22240E+00 1.89209E+00 5.20385E-02 3.71351E-01
 -1      2215-1.90499E+01-8.18993E+00-8.20129E+00 1.16305E+00-2.16059E-02 5.03462E-01
 -1      2216-1.85512E+01-7.95052E+00-7.95050E+00 2.91946E+00 1.71418E-06 9.78636E-02
 -1      2217-1.85133E+01-7.93425E+00-7.93423E+00 2.25622E+00 4.01314E-06 2.78208E-01
 -1      2218-1.47217E+01-6.22258E+00-6.02045E+00 1.56785E+00 9.11717E-03-8.91850E-01
 -1      2219-1.84960E+01-7.92685E+00-7.92682E+00 9.36890E-01 4.94361E-07 5.93449E-01
 -1      2220-1.85536E+01-7.95153E+00-7.95150E+00 5.43773E-01 1.24337E-06 6.20975E-01
 -1      2221-1.90368E+01-8.18391E+00-8.20715E+00 2.26539E-01 2.77407E-02 5.89009E-01
 -1      2222-1.82740E+01-7.83171E+00-7.83169E+00-2.28759E-01-1.26092E-06 6.91827E-01
 -1      2223-1.46018E+01-6.13269E+00-5.84069E+00 2.95048E-01 1.37239E-02-4.98585E-01
 -1      2224-1.83136E+01-7.84866E+00-7.84863E+00-5.69644E-01 1.26258E-07 6.71310E-01
 -1      2225-1.88879E+01-8.10430E+00-8.05906E+00-9.07002E-01 1.94714E-02 7.03482E-01
 -1      2226-1.91049E+01-8.17699E+00-8.23661E+00-1.84519E+00-2.81718E-02 4.23497E-01
 -1      2227-1.93228E+01-8.28119E+00-8.28115E+00-1.30682E+00-3.09484E-06 5.19173E-01
 -1      2228-1.46697E+01-6.16001E+00-5.85950E+00-8.91032E-01-4.73637E-02-5.98476E-01
 -1      2229-1.19889E+01-5.05119E+00-5.09183E+00-1.73304E+00-3.08306E-02-1.88684E+00
 -1      2230-1.17956E+01-5.05528E+00-5.05532E+00-1.37600E+00-1.36996E-05-1.74452E+00
 -1      2231-1.23360E+01-5.28687E+00-5.28689E+00-2.15525E+00-1.45991E-05-2.23380E+00
 -1      2232-1.56460E+01-6.58010E+00-6.28825E+00-2.48956E+00-6.85070E-03-1.10972E+00
 -1      2233-1.43670E+01-5.99758E+00-5.98514E+00-3.13295E+00-9.43628E-02-2.23897E+00
 -1      2234-1.10380E+01-4.73057E+00-4.73059E+00-2.23065E+00-1.51743E-05-2.81831E+00
 -1      2235-1.07876E+01-4.62329E+00-4.62332E+00-5.49132E-01-2.32938E-06-1.37758E+00
 -1      2236-1.07873E+01-4.62315E+00-4.62318E+00-3.58796E-01-3.44034E-06-1.34103E+00
 -1      2237-1.08661E+01-4.63814E+00-4.63178E+00-8.57901E-02-1.47866E-02-1.35008E+00
 -1      2238-1.08857E+01-4.66532E+00-4.66535E+00 1.05173E-01 9.95107E-07-1.39164E+00
 -1      2239-1.44310E+01-6.13725E+00-6.02643E+00-3.09097E-01-2.19386E-03-6.24927E-01
 -1      2240-1.10868E+01-4.75497E+00-4.77004E+00 8.20081E-01 1.02243E-02-1.38867E+00
 -1      2241-1.12612E+01-4.82624E+00-4.82627E+00 1.02640E+00 7.39957E-06-1.57637E+00
 -1      2242-1.08915E+01-4.66329E+00-4.73097E+00 3.29093E-01 3.40881E-02-1.34462E+00
 -1      2243-1.09164E+01-4.67846E+00-4.67849E+00 5.33124E-01 2.13518E-06-1.36711E+00
 -1      2244-1.45885E+01-6.18324E+00-6.02252E+00 9.02615E-01 4.36908E-02-6.38674E-01
 -1      2245-1.14927E+01-4.92545E+00-4.92548E+00 1.36317E+00 1.01302E-05-1.78130E+00
 -1      2246-1.17807E+01-4.96589E+00-4.98089E+00 1.72026E+00 4.03659E-02-1.91697E+00
 -1      2247-1.21659E+01-5.21398E+00-5.21399E+00 2.14825E+00 1.50635E-05-2.22754E+00
 -1      2248-1.49019E+01-6.38657E+00-6.38658E+00 2.96858E+00 1.76967E-05-2.44485E+00
 -1      2249-1.09559E+01-4.69541E+00-4.69542E+00 2.23783E+00 1.58796E-05-2.83399E+00
 -1      2250-1.53660E+01-6.48385E+00-6.24612E+00 2.50483E+00 2.89889E-02-1.18474E+00
 -1      2251-1.77857E+01-7.62244E+00-7.62241E+00-3.88000E+00-1.32249E-05-1.17479E+00
 -1      2252-1.93744E+01-8.20303E+00-8.27024E+00-3.35363E+00-1.30573E-02 6.88969E-02
 -1      2253-2.22632E+01-9.54139E+00-9.54136E+00-4.34215E+00-3.94991E-06 2.59245E-01
 -1      2254-1.81058E+01-7.76382E+00-7.28295E+00 3.76827E+00-4.41618E-02-1.43240E+00
 -1      2255-1.89118E+01-7.98507E+00-8.07580E+00 3.41240E+00-2.45023E-03-6.69482E-02
 -1      2256-2.20133E+01-9.43431E+00-9.43428E+00 4.37326E+00 5.91033E-06 8.88522E-02
 -1      2257-1.50758E+01-6.34859E+00-6.08392E+00-1.58498E+00-1.76993E-02-8.44347E-01
 -1      2258-1.14954E+01-4.92664E+00-4.92669E+00-1.05759E+00-9.84750E-06-1.57779E+00
 -1      2259-1.10812E+01-4.72602E+00-4.75491E+00-8.13448E-01-2.28100E-03-1.40506E+00
 -1      2260-1.89596E+01-8.12554E+00-8.12552E+00-2.23680E+00-3.58658E-06 3.21457E-01
 -1      2261-1.92266E+01-8.23996E+00-8.23994E+00-2.88084E+00-1.47602E-06 2.12505E-01
 -1      2262 2.60166E+00 1.13068E+00 2.21858E-01 5.06177E-02 1.26105E-03 8.89756E-03
 -1      2263 1.40018E+00 2.98629E+00 1.40203E-02-1.00402E-01 3.94453E-02-1.70865E-01
 -1      2264 4.75576E-01 1.26516E-01 1.60893E-02-4.40307E-01 1.37689E-02 1.85113E-02
 -1      2265 5.16243E-01 1.72479E-01 2.13269E-02 6.06729E-01-3.12667E-02 7.40300E-03
 -1      2266 1.73193E+00 2.75876E+00-1.17591E-01 3.38435E-01 1.33646E-02 3.40740E-02
 -1      2267 2.20704E+00 9.08905E-01 1.78554E-01-8.48423E-02-2.97193E-02-4.85258E-02
 -1      2268 4.62077E-01 2.00667E-01 1.98275E-02-7.33212E-01 5.24905E-02 3.62819E-02
 -1      2269 3.91100E-01 1.50478E-01 1.65600E-03 2.45241E-01-1.24974E-02 8.88775E-03
 -1      2270 4.56250E-01 1.18413E-01-2.86804E-02-1.44430E-02 9.52156E-03 1.70216E-02
 -1      2271 4.19683E-01 2.75947E-01 9.40782E-03 7.92223E-01-5.85754E-02 1.21487E-01
 -1      2272 1.79044E+00 2.13746E+00-1.24742E-01-6.53845E-01-4.82509E-02-9.92716E-03
 -1      2273 1.21547E+00 7.50158E-01 3.14972E-01 1.38108E-01 7.25985E-02-2.09432E-02
 -1      2274 9.84927E-01 1.81967E-01 7.51650E-03-2.01575E-01-4.46407E-02-4.43323E-02
 -1      2275 8.98143E-03 3.84224E-01 1.36535E-01-5.26191E-01 1.30296E-01 2.03425E-01
 -1      2276 2.20522E+00 1.12242E+00-1.65854E-01 6.01214E-01 1.34932E-01-6.59716E-02
 -1      2277-4.19792E-02 4.53679E-01 4.64169E-01-1.22755E-01-9.83441E-02-9.37058E-02
 -1      2278 1.78623E+00 2.19003E+00-8.40253E-02 6.32761E-01 8.55628E-02-3.50201E-01
 -1      2279 5.46311E-01 1.70502E+00-9.80457E-03 2.93831E-01 6.86692E-03-1.48535E-01
 -1      2280 2.84327E-01 2.07513E+00-4.78474E-02 1.40859E-01 2.51433E-02-1.62730E-01
 -1      2281-7.83970E-02 1.50652E+00-7.86706E-03 1.43813E-02-3.06929E-03 1.21151E-02
 -1      2282-2.17481E-01 1.75829E+00-1.12889E-02 5.43532E-03 3.70121E-03 3.27469E-03
 -1      2283-1.65898E-01 1.46025E+00-1.08084E-02-1.08896E-01 1.05931E-02 1.29936E-02
 -1      2284-2.30493E-01 1.57091E+00-3.14128E-02-6.04805E-03-7.41666E-03 2.99228E-02
 -1      2285-2.50233E-01 1.47747E+00 6.76924E-05-1.00049E-01 7.85504E-03 2.16971E-02
 -1      2286-2.34141E-01 1.48707E+00-9.30898E-03 1.00570E-01-7.02807E-03 9.77068E-03
 -1      2287-2.37028E-01 1.46338E+00 4.80697E-03-5.09126E-03 1.37017E-02 3.26480E-02
 -1      2288-1.82693E-01 1.35990E+00-7.72482E-03-2.58038E-01 4.85543E-03 4.07673E-02
 -1      2289-2.13318E-01 1.39217E+00 2.12330E-03 2.44787E-01 6.57631E-03 1.57279E-02
 -1      2290-1.97324E-01 1.47529E+00-9.24983E-03 1.12049E-01-9.52093E-03 1.09226E-02
 -1      2291-8.51587E-02 1.44351E+00-1.62243E-02 1.18913E-01-9.24216E-03 3.81779E-02
 -1      2292-7.09903E-02 1.25470E+00 1.02379E-02 3.61678E-01-2.93469E-02 6.44474E-02
 -1      2293-9.30560E-02 1.12746E+00-2.00253E-02 4.88791E-01-1.47633E-02 1.77973E-02
 -1      2294-1.28067E-02 1.18115E+00-4.82744E-02-2.09302E-01 2.12235E-02 2.33939E-02
 -1      2295 3.66972E-01 1.44267E+00-1.14603E-02 1.73758E-01-2.81635E-02 1.16312E-01
 -1      2296 3.40666E-01 1.37779E+00 9.97119E-03 4.80901E-03 1.54006E-02 1.14023E-01
 -1      2297 2.17994E-01 1.15131E+00 1.04322E-02 4.15626E-01-2.83025E-02 1.07062E-01
 -1      2298 1.22654E+00 1.37866E+00 8.06689E-02 6.92600E-02-3.06369E-03 2.53732E-01
 -1      2299 1.27360E+00 1.40925E+00 1.19105E-01-4.94746E-02 2.36433E-02 2.63313E-01
 -1      2300 3.17183E-01 1.38102E+00 9.87834E-03-1.65283E-01 3.52020E-02 1.38910E-01
 -1      2301 1.00587E+00 1.21367E+00 5.34796E-02-1.44194E-01 4.21739E-02 2.37167E-01
 -1      2302 2.11070E-01 1.13709E+00 8.86179E-03-4.39282E-01 4.67837E-02 1.28476E-01
 -1      2303 7.08582E-01 1.08845E+00 1.16489E-01-3.61773E-01 7.24794E-02 1.84691E-01
 -1      2304 1.95848E-01 7.69635E-01-7.34147E-03-6.89363E-01 6.95511E-02 1.05200E-01
 -1      2305 9.42135E-03 9.71302E-01-5.30256E-03-6.26511E-01 4.90660E-02 6.60457E-02
 -1      2306 2.99895E-01 2.20554E+00-1.23333E-01-5.75561E-02-5.42949E-03-9.91979E-02
 -1      2307 7.39559E-01 8.75935E-01-3.46049E-02 2.50607E-01 6.57631E-03-4.33860E-02
 -1      2308-9.32005E-02 1.25366E+00 1.25893E-02-3.80072E-01 2.09942E-02 5.44875E-02
 -1      2309-9.55114E-02 1.12322E+00-4.67855E-04-4.79771E-01 3.29789E-02 3.35472E-02
 -1      2310 9.05355E-02 7.42703E-01 7.41617E-03-6.39419E-01 2.41597E-02 1.18440E-02
 -1      2311 2.10069E-02 9.33874E-01-3.26320E-03-4.51121E-01 2.33423E-02 1.04779E-02
 -1      2312 1.33051E+00 8.63346E-01 3.57408E-01-1.28918E-01-8.14822E-02 7.39742E-02
 -1      2313 5.61475E-01 8.36557E-01 1.14769E-01 3.02996E-01-1.18875E-01 3.20750E-01
 -1      2314 1.51546E+00 1.17903E+00 3.22944E-02 7.92438E-02-5.33718E-02 1.97936E-01
 -1      2315 1.85524E-01 1.07513E+00-1.33955E-02-1.92891E-02 2.48680E-02-1.22100E-02
 -1      2316 1.64296E+00 2.79694E+00-1.18557E-01-3.71581E-01-7.07091E-02-3.42950E-01
 -1      2317 6.42844E-01 1.72212E+00-7.22496E-02-3.35623E-01-2.13840E-02-9.55258E-02
 -1      2318 8.03739E-01 9.91804E-01-8.27470E-03-3.71511E-01-1.55636E-02-6.84483E-02
 -1      2319 2.49414E-01 1.03395E+00-3.98549E-02-1.55248E-02-1.87558E-02-5.37487E-03
 -1      2320 4.86222E-01 5.04942E-01-5.60681E-02 2.00725E-02-1.72784E-02-1.65839E-03
 -1      2321 2.25942E-01 6.44886E-01-3.39760E-02 2.88238E-01-1.34080E-02 2.29330E-02
 -1      2322 3.11552E-01 4.62180E-01-1.16235E-03 5.26372E-01-1.78946E-02 1.50368E-03
 -1      2323 5.69807E-02 9.03598E-01-5.80488E-03 4.66934E-01-2.90184E-02 6.98504E-03
 -1      2324 1.28535E-01 6.91458E-01 2.22402E-03 6.50991E-01-3.26534E-02 1.92034E-02
 -1      2325 2.41630E-01 5.37120E-01-5.67400E-03 7.65070E-01-3.15401E-02 2.61962E-02
 -1      2326-2.20657E-02 1.15808E+00-2.58417E-02 2.02402E-01-1.30233E-02 2.21483E-02
 -1      2327-6.29669E-02 1.52739E+00-7.73638E-03-8.82430E-03 6.47314E-03 1.13430E-03
 -1      2328 2.05355E+00 9.59257E-01 3.19797E-01 9.10421E-02 3.94818E-02-5.06337E-02
 -1      2329-2.23212E-02 1.00536E+00-1.39686E-02 5.74460E-01-6.20704E-02 3.64573E-02
 -1      2330 2.41978E+00 1.13242E+00 2.88078E-01-4.08036E-02-7.98061E-03-7.13638E-03
 -1      2331-1.36399E-01 1.26079E+00-6.05020E-03-3.06599E-01 7.65308E-03 2.27527E-02
 -1      2332 3.44067E-01 2.08708E+00-8.66561E-02-1.09965E-01 3.21639E-03-1.47960E-01
 -1      2333 1.70105E+00 2.95001E+00-2.16708E-01 1.01868E-01-1.39006E-02-2.98019E-01
 -1      2334-1.93496E-01 1.73499E+00-8.45202E-03-8.24861E-03-2.07388E-03 7.11512E-03
 -1      2335 1.96646E-01 6.87636E-01-1.93068E-02-2.92421E-01 2.70840E-02 1.64082E-02
 -1      2336-8.77791E-02 1.41277E+00-1.63313E-02-1.24538E-01 6.65193E-03 5.33943E-02
 -1      2337 3.57637E-01 2.19221E-01 8.25089E-03-2.76421E-01 2.13586E-02 5.86244E-03
 -1      2338 5.82972E-01 1.34925E-01 4.68708E-03-6.08372E-01 6.63955E-03 2.32090E-02
 -1      2339 4.05521E-01 2.59852E-01 2.22527E-02-7.87574E-01 4.27977E-02 1.28490E-01
 -1      2340-1.48794E-01 1.28916E+00-1.89038E-03 3.00235E-01-8.25265E-03 9.55193E-03
 -1      2341 2.20585E+00 1.09847E+00-2.94499E-01-5.96107E-01-5.10937E-02 5.86486E-03
 -1      2342 1.58544E-01 6.35973E-01 5.42114E-01 8.28816E-02 1.05110E-01 6.26105E-02
 -1      2343 1.11071E+00 1.17629E-01-2.21315E-02 1.71821E-01-1.65186E-02 1.85369E-02
 -1      2344-4.90638E-03 4.02015E-01 1.39068E-01 5.09766E-01-1.60441E-01 1.68048E-01
 -1      2345 1.97420E-01 7.74949E-01 1.83638E-02 7.04657E-01-6.89413E-02 1.12022E-01
 -1      2346 3.77891E-01 8.81696E-01 1.37453E-01-4.91186E-01 1.17795E-01 2.27419E-01
 -1      2347 2.00425E-01 5.49782E-01-1.91064E-02-7.72723E-01 2.79571E-02 1.58195E-03
 -1      2348 4.99029E-01 2.21960E-01 8.50884E-03 6.96469E-01-4.72993E-02-1.98743E-02
 -1      2349 4.35216E-01 4.38890E-02-8.92559E-03 4.22442E-02 5.85183E-03 2.02983E-02
 -1      2350 3.47638E-01 5.22882E-01-4.65248E-02-4.70342E-02 1.45853E-02 7.11127E-03
 -1      2351 2.44792E-01 5.17027E-01-5.18609E-03-5.00684E-01 5.46634E-03 7.23746E-03
 -1      2352 8.23540E-01 1.24396E+00 4.40250E-02 1.84142E-01-5.07673E-02 1.26743E-01
 -1      2353 5.31501E-01 7.50182E-02 2.64795E-02 3.95370E-01-2.59346E-03-3.45658E-03
 -1      2354 5.38915E-01 1.14605E+00 3.84639E-02 4.00344E-01-5.58000E-02 1.43823E-01
 -1      2355 1.60212E+00 1.16367E+00 1.42266E-01-1.36114E-02 5.56835E-02 2.42472E-01
 -1      2356 2.15842E+00 1.35611E+00 1.35043E-01-4.89175E-03 1.43496E-02 2.69734E-01
 -1      2357 2.19631E+00 1.35621E+00 1.48737E-01 2.31798E-02 3.01554E-02 2.43051E-01
 -1      2358 1.74485E+00 2.34782E-02-2.02685E-01 2.79706E-01-1.11524E-01 7.81620E-02
 -1      2359-2.05722E+00 4.29157E-01 4.77085E-01-6.55828E-03-1.29674E-01-1.18124E-01
 -1      2360 2.04484E+00 1.29613E+00 6.64574E-02 4.02763E-03 2.43533E-02 2.18671E-01
 -1      2361 2.09409E+00 4.95496E-02-3.38595E-01-2.60542E-01-2.54360E-02 5.51811E-02
 -1      2362-2.16648E+00 3.88608E-01 4.44769E-01 2.04795E-03 1.26842E-01-1.55660E-01
 -1      2363 1.26388E+00 9.77594E-01 2.13651E-01-1.66920E-01 2.68963E-02 3.52593E-01
 -1      2364 3.09104E-01 4.13562E-01-1.88383E-02-6.29441E-01 2.22563E-02-6.58541E-03
 -1      2365 1.82711E+00-2.26686E-01-6.66094E-03-1.77738E-01 4.05464E-02 1.25859E-01
 -1      2366 2.13494E+00 2.02949E-01-3.92185E-01-2.24999E-01-4.35872E-01 2.50538E-01
 -1      2367 1.81894E+00-3.37134E-02-8.12871E-02-1.63187E-01-2.65535E-02-4.33783E-02
 -1      2368 1.81396E+00 1.61777E-01-1.55409E-01 4.04521E-01 1.29387E-01 4.41924E-01
 -1      2369 1.84788E+00-1.99409E-01 1.10369E-01 1.52624E-01-7.83707E-02 1.36164E-01
 -1      2370 1.69704E+00-8.22022E-02-3.14493E-04 1.81711E-01-3.30747E-03-4.47560E-02
 -1      2371-1.11523E+00 3.19842E-01 1.45025E-01-5.32064E-01 5.67285E-02 1.11901E-01
 -1      2372-6.98588E+00-1.32732E+00-1.10242E+00 3.94699E-01 1.48175E-01-2.04602E+00
 -1      2373-4.68645E+00-1.17075E+00-9.39149E-01 1.62705E-01 7.86228E-02-1.91965E+00
 -1      2374-6.87491E+00-1.27829E+00-1.08183E+00-3.89763E-01-1.47853E-01-2.01251E+00
 -1      2375-1.04532E+00 3.34245E-01 1.41412E-01 5.23522E-01-6.64982E-02 1.29652E-01
 -1      2376-4.58756E+00-1.10736E+00-8.82090E-01-1.69704E-01-9.58398E-02-1.88245E+00
 -1      2377 2.03099E+00 6.73330E-01-6.52564E-01-5.63202E-01-2.46284E-01 3.82780E-01
 -1      2378 1.76232E+00 1.46256E+00-7.87689E-02-6.88793E-01-1.95403E-01 3.41110E-01
 -1      2379 2.33705E+00 7.28545E-01-2.57806E-01-4.50625E-01-2.89433E-02 2.15179E-02
 -1      2380 1.68877E+00 2.19447E+00 3.50462E-02-6.56831E-01-1.60579E-01 2.75001E-01
 -1      2381 1.85557E+00 2.59707E+00-2.58428E-01-5.08747E-01-1.72218E-01 2.83612E-01
 -1      2382 1.97620E+00 1.58110E+00-1.43687E-01-7.03857E-01-9.54255E-02-2.33849E-02
 -1      2383 1.84246E+00 3.06290E+00-9.73741E-02-2.96854E-01-9.29889E-02 1.62603E-02
 -1      2384 2.10888E+00 3.18080E+00-1.07712E-01-2.14123E-01-2.36294E-04-1.59489E-01
 -1      2385 1.47022E+00 2.47651E+00-1.26956E-01-4.87946E-01-1.15222E-02-6.74705E-02
 -1      2386 2.00778E+00 3.27454E+00 5.38748E-02-3.46833E-01-1.20910E-02-2.05808E-01
 -1      2387 1.90927E+00 3.36823E+00 2.33840E-02 8.71485E-02-3.00066E-02-1.39561E-01
 -1      2388 1.48170E+00 2.87501E+00-4.65387E-02-2.62180E-01-4.38051E-02-2.40813E-01
 -1      2389 1.95324E+00 3.21441E+00-3.85304E-02-3.52618E-02-3.92234E-02-1.87736E-01
 -1      2390 2.07059E+00 3.39501E+00-3.20366E-02 1.26194E-01-8.39738E-02-1.14484E-01
 -1      2391 1.46690E+00 3.01836E+00-7.85247E-02 3.86083E-02 3.49751E-02-1.94104E-01
 -1      2392 2.04566E+00 3.20553E+00-1.31638E-02 2.27742E-02-6.21999E-02-1.12327E-01
 -1      2393 1.99994E+00 3.14865E+00 1.59595E-01 4.29304E-01-1.43629E-02 1.10929E-01
 -1      2394 1.65080E+00 2.93105E+00-2.20258E-01 1.72863E-01 1.92559E-03-2.21220E-01
 -1      2395 1.67975E+00 2.61259E+00-3.57293E-01 5.86089E-01 1.23961E-01 2.78812E-02
 -1      2396 1.82009E+00 2.01810E+00-4.18301E-01 6.41292E-01 2.64640E-01-1.51907E-02
 -1      2397 1.46715E+00 2.38525E+00-1.79941E-01 6.20255E-01 2.72516E-02-8.55658E-02
 -1      2398 2.04588E+00 1.55260E+00-4.77960E-01 5.41009E-01 1.97649E-01 1.95977E-01
 -1      2399 1.78909E+00 8.05798E-01-8.99949E-02 5.69573E-01 2.25204E-01 3.74695E-01
 -1      2400 2.25406E+00 1.74426E+00-1.12029E-01 5.46833E-01 1.31410E-01-1.99298E-01
 -1      2401 1.83880E+00 6.60953E-01-1.17197E-01 5.26990E-01-4.52400E-02 1.13358E-01
 -1      2402 1.17619E+00 2.53521E-02-1.52943E-03 6.53049E-02-1.90630E-02-5.40867E-02
 -1      2403 5.61667E-01-3.16538E-02-3.22372E-02 7.54351E-02-1.20918E-02 6.01924E-03
 -1      2404 1.40443E+00 1.26626E-01 3.20323E-03 2.86724E-01-1.16484E-01 1.13092E-01
 -1      2405 3.80756E-01 3.88871E-02-4.38461E-03-8.33226E-03 2.00204E-04 1.89525E-02
 -1      2406 2.91784E-01 2.61803E-02-3.89093E-02-2.01819E-02-2.68047E-02 8.35094E-03
 -1      2407 5.63035E-01 1.24758E-02-1.32384E-01 1.19490E-01 2.45399E-02 9.48593E-03
 -1      2408 3.04136E-01 7.29831E-02-8.04917E-04-1.45144E-01-4.79495E-03 1.26792E-03
 -1      2409 4.42787E-01 8.84770E-02 2.58197E-02-1.92407E-01 1.57473E-03-3.72248E-03
 -1      2410 3.00145E-01 1.36854E-01-2.69384E-02-1.49513E-01 1.24663E-02 6.49409E-03
 -1      2411 4.73636E-01 4.70903E-02 2.14209E-02-2.36830E-01 4.52950E-03-5.02371E-03
 -1      2412 5.92698E-01 4.38130E-02 1.93022E-02-2.93597E-01 2.28597E-03-5.13717E-03
 -1      2413 4.18940E-01 1.65837E-01 2.59462E-03-3.64333E-01 5.67782E-03 1.58702E-02
 -1      2414 6.29555E-01 4.01037E-02-2.57839E-03-3.51835E-01-1.66349E-02-6.53304E-03
 -1      2415 7.21242E-01 6.94062E-02-1.51211E-03-3.89907E-01-1.98602E-02-7.52742E-02
 -1      2416 5.28528E-01 1.25198E-01 6.01628E-03-5.31419E-01 1.34069E-02 4.01890E-02
 -1      2417 6.20829E-01 6.89344E-02 2.29726E-02-4.62450E-01-3.08846E-03-5.68524E-02
 -1      2418 6.95889E-01 6.58240E-02 5.68086E-03-5.18749E-01 1.26061E-02-1.40809E-03
 -1      2419 4.90278E-01 1.45603E-01-1.03179E-02-7.05058E-01 2.53452E-02-2.34919E-02
 -1      2420 6.46177E-01 6.92699E-02 1.93778E-02-5.47184E-01-1.52101E-02 4.59631E-02
 -1      2421 6.03691E-01 1.01891E-01 1.70557E-02-5.79523E-01-3.28471E-03 2.14517E-02
 -1      2422 4.14949E-01 2.02607E-01-2.24253E-02-7.69023E-01 4.82081E-02 9.49389E-02
 -1      2423 2.88986E-01 1.32520E-01 3.45548E-02-4.65183E-01 3.21838E-02 1.09693E-01
 -1      2424-1.31926E-01 2.36433E-01 1.02006E-01-5.52536E-01 5.76556E-02 1.95409E-02
 -1      2425 3.49834E-01 3.46448E-01 1.97821E-02-6.79532E-01 1.08285E-01 1.18891E-01
 -1      2426-3.20617E-01 5.91924E-01 2.80128E-01-3.44783E-01 8.92099E-02 5.94014E-02
 -1      2427-1.21376E-01 2.58057E-01 9.97000E-02 5.57303E-01-7.43651E-02 1.18202E-02
 -1      2428 2.90282E-01 1.51861E-01 3.63225E-02 4.64094E-01-4.58366E-02 1.09807E-01
 -1      2429-2.36240E-01 6.34722E-01 3.07426E-01 3.49348E-01-9.74986E-02 4.20101E-02
 -1      2430 6.19826E-01 1.04641E-01 1.24915E-02 5.82624E-01-3.28671E-03 2.18893E-02
 -1      2431 6.73468E-01 7.80315E-02 2.08703E-02 5.47700E-01 5.44163E-03 5.17220E-02
 -1      2432 3.52598E-01 3.75941E-01 2.35183E-02 6.80704E-01-1.28625E-01 1.01080E-01
 -1      2433 7.16529E-01 3.47691E-02-1.04319E-02 4.97553E-01-2.09304E-03-1.00572E-02
 -1      2434 6.58445E-01 3.36325E-02 1.08226E-02 4.64754E-01-5.13639E-03-1.24565E-02
 -1      2435 4.95908E-01 2.05140E-01-8.94657E-03 7.41741E-01-4.60632E-02 7.52845E-02
 -1      2436 7.14817E-01 7.87352E-02 3.11005E-02 4.43065E-01 7.76611E-03-1.47940E-02
 -1      2437 6.22366E-01 6.99374E-02 2.23736E-02 3.67481E-01-1.65021E-02 1.96552E-03
 -1      2438 4.95178E-01 1.74096E-01 8.48757E-03 6.81101E-01-2.85898E-02-4.20259E-03
 -1      2439 6.50153E-01 3.77120E-02 2.93646E-02 2.48536E-01 6.39520E-03-2.78087E-02
 -1      2440 5.21650E-01 3.49246E-02 7.27464E-03 2.22387E-01 2.03175E-02-1.86469E-02
 -1      2441 5.26550E-01 1.07560E-01 2.70845E-02 4.89512E-01-2.97510E-02-2.78576E-03
 -1      2442 4.49899E-01 7.18971E-02 9.92074E-04 1.64647E-01 1.06284E-02-1.34829E-02
 -1      2443 3.32224E-01 5.74913E-02 7.88892E-03 1.20391E-01 3.32195E-03 1.31047E-02
 -1      2444 4.36039E-01 1.00127E-01-8.20305E-03 3.33232E-01 9.20273E-03-7.77799E-04
 -1      2445 3.16153E-01-1.10225E-02-3.73392E-03 2.79952E-02 1.29444E-02 1.33633E-02
 -1      2446 3.88510E-01 8.82140E-03-1.08579E-02 2.66057E-02 2.01251E-02 2.43555E-02
 -1      2447 3.64209E-01 9.11672E-02-1.00572E-02 1.38426E-01-2.13391E-02 4.14703E-03
 -1      2448 5.48433E-01-7.35329E-03-3.92589E-02-8.51252E-02-4.21896E-03-4.61008E-03
 -1      2449 1.24750E+00 8.77116E-02 1.27131E-02-8.14882E-02-1.37511E-02-3.83801E-02
 -1      2450 5.76368E-01 6.99318E-02-5.68887E-03-9.88543E-02 3.48556E-03-1.72304E-02
 -1      2451 1.39515E+00 6.03924E-02-1.24482E-01-3.31757E-01-1.94844E-02-3.03548E-02
 -1      2452-1.55801E+00-3.53773E-01-2.22218E-01-1.85635E-01-6.97970E-02-1.29482E+00
 -1      2453-3.12787E+00-1.06685E+00-7.09213E-01-5.82967E-02-3.52153E-02-1.63142E+00
 -1      2454-8.63194E-01 3.16087E-01 4.64925E-01 1.85633E-02-2.16022E-02-2.26401E-01
 -1      2455 3.20783E-02 1.94781E-01 4.24828E-02-1.35187E-01-5.73701E-02-9.42395E-01
 -1      2456-8.19346E-01-2.53743E-01-3.10400E-01-1.41797E-01-5.59800E-02-1.05059E+00
 -1      2457 5.91729E-01 6.53412E-01 2.88426E-01-1.68547E-01-1.01680E-01-7.98965E-02
 -1      2458 1.19793E+00 5.04768E-01 1.94772E-01-6.09712E-02-5.93912E-02-7.62106E-01
 -1      2459 6.68331E-01 2.61280E-01-2.70772E-02-1.32435E-01-3.15804E-02-8.96576E-01
 -1      2460 1.86115E+00 9.08326E-01 2.85093E-01-6.29195E-02-1.00184E-02-1.21802E-02
 -1      2461 1.36494E+00 5.89065E-01 2.69532E-02 1.44355E-02-6.79891E-02-7.61553E-01
 -1      2462 1.28277E+00 5.94407E-01 2.64047E-01-3.60899E-02-4.88803E-02-7.80430E-01
 -1      2463 2.34854E+00 1.12675E+00 2.92236E-01-7.32682E-02-5.49508E-02-2.92673E-02
 -1      2464 1.39368E+00 5.49282E-01 1.60710E-01 4.89380E-02 3.12356E-02-7.07040E-01
 -1      2465 1.51623E+00 6.47630E-01 2.65637E-02-1.60157E-02 8.66052E-02-7.62916E-01
 -1      2466 2.93310E+00 1.23453E+00 2.06356E-01 2.89597E-02 1.50396E-02-5.68389E-02
 -1      2467 5.47849E-01 2.19818E-01-9.84913E-03 9.35480E-02 4.06763E-02-8.87115E-01
 -1      2468 1.09147E+00 5.30638E-01 2.52353E-01 1.06970E-01 2.79694E-02-8.56668E-01
 -1      2469 2.34497E+00 1.11379E+00 2.49895E-01 4.48172E-02-6.38871E-03-2.88196E-02
 -1      2470-9.41933E-01-3.24280E-01-3.50740E-01 1.44651E-01 5.90836E-02-1.11911E+00
 -1      2471-1.13966E-01 1.13945E-01-2.95819E-02 1.32280E-01 4.53539E-02-1.01318E+00
 -1      2472 1.78378E+00 8.64629E-01 3.29403E-01 8.64398E-02 2.51584E-02-4.35794E-02
 -1      2473-2.88615E+00-9.22977E-01-6.44037E-01 3.57172E-02 4.40644E-02-1.49605E+00
 -1      2474-1.33513E+00-2.14197E-01-1.30007E-01 1.87248E-01 1.06860E-01-1.17501E+00
 -1      2475 6.35799E-01 6.64740E-01 3.61153E-01 1.56390E-01 9.36969E-02-3.09944E-02
 -1      2476-7.86335E-01 4.08746E-01 4.89213E-01-5.09874E-02 3.99260E-02-1.63067E-01
 -1      2477 2.37491E+00 1.22709E+00 1.73253E-01 3.45527E-02 9.14336E-03 1.39550E-01
 -1      2478 2.58045E+00 1.35116E+00 2.39790E-01 5.40024E-03-2.15315E-02 1.56053E-01
 -1      2479 2.66268E+00 1.37782E+00 2.53649E-01 3.47820E-02-1.81911E-02 1.41630E-01
 -1      2480 2.70182E+00 1.39008E+00 3.02151E-01-4.17405E-03 5.56128E-02 1.66905E-01
 -1      2481 2.22511E+00 1.41564E+00 1.80218E-01-1.10468E-02 1.93887E-02 2.60923E-01
 -1      2482 7.02951E-01 2.42590E+00-1.86931E-01-1.63805E-01 8.59581E-03-3.20044E-02
 -1      2483 2.77757E-01 2.13863E+00-1.41126E-01-7.52163E-02-1.52631E-03-6.73434E-02
 -1      2484 7.58284E-01 2.54598E+00-1.04452E-01-4.08404E-02 2.62276E-02-2.64342E-02
 -1      2485 8.36716E-01 2.54827E+00-2.28906E-01 7.20406E-03 8.03236E-02-2.81795E-01
 -1      2486 9.35973E-01 2.39901E+00-2.23496E-01-2.32596E-01-8.92538E-02-2.81557E-01
 -1      2487 3.27883E-01 3.79214E-01 6.01973E-03-3.91846E-01-2.94935E-03 7.31561E-03
 -1      2488 3.62434E-01 3.06773E-01-3.64094E-03-4.96377E-01 1.13429E-02-5.85402E-03
 -1      2489 3.74716E-01 2.49844E-01-1.37777E-02-5.61225E-01 1.37719E-02-5.18777E-03
 -1      2490 4.51131E-01 2.68787E-01-5.22664E-03-6.59115E-01 6.03616E-03-2.38517E-03
 -1      2491 2.64438E-01 4.60676E-01-2.65762E-02-5.59202E-01 1.37653E-02 3.08546E-03
 -1      2492 3.17256E-01 4.30700E-01-7.38027E-03 6.80993E-01-2.71035E-02 6.12104E-03
 -1      2493 2.26376E-01 5.78372E-01-2.80367E-03 5.89735E-01-2.44284E-02 2.62678E-03
 -1      2494 4.12503E-01 3.20528E-01 2.49557E-03 5.91196E-01-2.45449E-02-4.33322E-03
 -1      2495 4.32509E-01 2.56637E-01 1.14733E-02 4.96742E-01-1.61615E-02-7.49625E-03
 -1      2496 3.50592E-01 3.45514E-01-1.79338E-02 7.25239E-01-1.12341E-02 8.03542E-03
 -1      2497 1.83961E-01 6.15871E-01-4.19146E-03 7.27724E-01-2.10249E-02 3.43474E-02
 -1      2498 3.54692E-01 3.95483E-01-2.32149E-02 7.37655E-01-2.74374E-02-3.76169E-02
 -1      2499 8.66001E-01 2.11934E+00-2.09461E-01 4.61394E-01-4.71469E-02-3.97797E-02
 -1      2500 1.21463E+00 1.98352E+00 5.81916E-02 4.99656E-01-4.96642E-04-1.49168E-01
 -1      2501 7.07182E-01 2.32148E+00-1.73939E-01 2.12213E-01 4.17925E-02-9.85719E-02
 -1      2502 3.48121E-01 1.96022E+00-3.24417E-02 2.03270E-01 3.61672E-02-1.30934E-01
 -1      2503 8.62307E-01 2.49237E+00-7.96213E-02 1.65208E-01 3.12645E-03-2.66178E-01
 -1      2504 1.97268E+00 1.07465E+00 3.18559E-02-2.68920E-02-1.13457E-02 6.03045E-02
 -1      2505 1.82891E+00 1.09907E+00 9.59793E-02-8.42199E-03-2.67422E-02 1.51888E-01
 -1      2506 2.25840E+00 1.17274E+00 9.29843E-02-1.16008E-02 1.10817E-02 7.19984E-02
 -1      2507 1.87121E+00 1.28173E+00 4.97253E-02 3.44742E-02-6.15587E-03 1.72686E-01
 -1      2508 2.61994E+00 1.36185E+00 2.29137E-01-3.78658E-02 1.29160E-03 1.64192E-01
 -1      2509 2.64477E-01 5.18190E-01-1.50736E-02-7.99458E-01 3.87273E-02 8.55468E-02
 -1      2510 2.76225E-01 4.75153E-01-1.32328E-02-8.02069E-01 5.82628E-02 6.25608E-02
 -1      2511 3.61294E-01 3.71995E-01 3.63450E-03-7.90959E-01 3.53619E-02-1.55683E-02
 -1      2512 1.96219E-01 6.31647E-01 1.10171E-03-7.64452E-01 5.68874E-02 5.13125E-02
 -1      2513 3.55655E-01 3.15824E-01-1.86040E-02-7.45721E-01 2.04005E-02 1.41115E-02
 -1      2514 3.14206E-01 3.93362E-01-3.07157E-02 2.78474E-01-1.91679E-02 2.18613E-02
 -1      2515 2.58564E-01 5.53689E-01-5.75512E-02 1.52549E-01 3.27815E-03 2.54537E-02
 -1      2516 3.39909E-01 2.79992E-01-6.36825E-02 1.34931E-01-9.78622E-04 2.30354E-02
 -1      2517 3.70226E-01 2.32225E-01-5.22860E-02 2.98730E-02-5.83861E-03 5.59835E-03
 -1      2518 3.58780E-01 2.88274E-01 4.96816E-03 3.92894E-01 2.24149E-03 1.49717E-03
 -1      2519 2.27716E-01 5.16416E-01-2.31690E-02 3.99946E-01-1.23030E-02 1.65936E-02
 -1      2520 8.64616E-01 5.58295E-01-3.53195E-02 3.18420E-01 5.59951E-02-5.56163E-02
 -1      2521 4.88145E-01 4.66880E-01-6.61569E-02 1.37456E-01 7.45426E-03-1.12412E-02
 -1      2522 3.61653E-01 6.24325E-01-9.89797E-02 1.17923E-01 1.81901E-02-4.45047E-03
 -1      2523 4.03245E-01 3.29655E-01-4.68773E-02-4.80040E-02 1.26325E-02 1.00400E-02
 -1      2524 3.06322E-01 3.57865E-01-2.19815E-02-1.58636E-01 5.21923E-03 1.81580E-02
 -1      2525 2.61935E-01 6.47234E-01 1.22126E-01 4.65967E-01-1.35330E-01 2.26387E-01
 -1      2526 4.63801E-01 6.40436E-01 2.63473E-02 5.93531E-01-5.57136E-02 2.03960E-01
 -1      2527 4.38408E-01 7.75431E-01 4.74988E-02 5.18995E-01-8.02658E-02 1.94974E-01
 -1      2528 2.67437E-01 5.45443E-01 1.37353E-02 7.79235E-01-5.02795E-02 1.02428E-01
 -1      2529 2.58504E-01 4.65380E-01-1.43943E-02 7.55445E-01-5.60718E-02 2.53160E-02
 -1      2530 1.14878E+00 1.97201E+00-1.10189E-01-4.02350E-01 1.99464E-02-3.09137E-02
 -1      2531 1.11582E+00 2.19275E+00-1.71066E-01-4.25332E-01-1.08071E-02-2.32666E-01
 -1      2532 1.19640E+00 1.46746E+00-1.05487E-01-5.89072E-01-3.51970E-02-8.48477E-02
 -1      2533 5.80125E-01 1.36185E+00-2.30101E-02-3.74234E-01 1.10694E-02-3.20422E-02
 -1      2534 1.32790E+00 9.89224E-01-1.91839E-01-4.78707E-01-6.98380E-02-8.15658E-02
 -1      2535 1.88859E+00 1.08205E+00 2.00442E-01 5.60153E-02 5.46809E-02 1.77882E-01
 -1      2536 2.09571E+00 1.11280E+00 2.26634E-01 2.32993E-02 1.49864E-02 1.43870E-01
 -1      2537 1.08682E+00 9.37890E-01 3.47843E-01 4.54453E-03 3.62307E-02 2.19457E-01
 -1      2538 1.45197E+00 8.93169E-01 1.10490E-01-3.81258E-02 4.82205E-03 1.65274E-01
 -1      2539 1.49225E+00 1.14974E+00 1.78527E-01-1.21658E-01 5.64905E-02 2.97821E-01
 -1      2540 6.97148E-01 3.62638E-01-3.61276E-02-6.92321E-02-6.02913E-02-4.94699E-02
 -1      2541 5.55684E-01 6.91124E-01-1.18964E-01-1.76818E-01-9.11839E-03-1.34181E-03
 -1      2542 8.71957E-01 5.92252E-01-5.13331E-02-2.95403E-01-3.61051E-02-8.48943E-02
 -1      2543 1.41457E+00 5.52530E-01-1.88911E-01-4.37517E-01-7.75713E-02-4.65433E-02
 -1      2544 4.27659E-01 5.91711E-01 3.77436E-02-7.03620E-01 4.47773E-02 1.62670E-01
 -1      2545 2.11411E-01 6.12386E-01 1.07267E-01-6.06654E-01 1.16123E-01 1.80365E-01
 -1      2546 6.07584E-01 8.41447E-01 2.58433E-01-2.76100E-01 1.11382E-01 2.67958E-01
 -1      2547 4.92556E-01 6.47247E-01 3.26724E-01-3.72520E-01 5.01185E-02 1.98500E-01
 -1      2548 1.17234E+00 1.53571E+00-1.19812E-01 3.96653E-01-1.57099E-02-2.07962E-01
 -1      2549 1.32124E+00 9.22266E-01-2.46057E-01 4.58873E-01 1.69313E-01-1.67776E-01
 -1      2550 1.62570E+00 5.20419E-01-3.64426E-02 4.36028E-01 3.75310E-02-2.80070E-02
 -1      2551 1.31028E+00 9.40651E-01 7.97778E-02 1.49850E-01-3.71996E-02 1.53628E-01
 -1      2552 7.55449E-01 8.46305E-01 2.37173E-01 7.87411E-02-1.13872E-01 1.70674E-01
 -1      2553 3.77288E-01 5.62436E-01 2.82634E-01 3.57709E-01-3.36751E-02 1.00819E-01
 -1      2554 7.72623E-01 1.32148E+00 7.79532E-02 2.73959E-01 1.49007E-02-4.09471E-02
 -1      2555 4.87301E-02 1.78365E+00 8.96839E-03 7.21941E-02 6.09152E-03-6.27514E-02
 -1      2556 1.51392E-01 1.61334E+00 2.18249E-02 1.75411E-01 1.52102E-02-4.78113E-02
 -1      2557 5.28960E-02 1.28636E+00-1.59270E-02 7.87238E-03 4.91715E-03 6.02395E-03
 -1      2558 2.68301E-01 1.34049E+00-1.33296E-02 1.59227E-01 2.55360E-02-6.57384E-02
 -1      2559 3.42966E-01 9.12436E-01-1.23385E-02 1.05654E-01 6.95309E-03-1.79633E-02
 -1      2560-1.26410E-02 1.90724E+00 5.21389E-03 7.38650E-02 1.44145E-02-7.77129E-02
 -1      2561-1.59963E-01 1.64741E+00-5.47684E-03 1.22648E-02 4.61894E-03 4.16396E-03
 -1      2562 2.55073E-01 2.17392E+00-1.10975E-01 7.31224E-02-4.54667E-03-1.73224E-01
 -1      2563-8.10604E-02 1.97877E+00-2.78458E-02-1.41343E-04-8.75648E-03-4.48610E-02
 -1      2564-2.18601E-01 1.60007E+00-2.73631E-02-4.42269E-02 2.28742E-03 1.92091E-02
 -1      2565-1.49095E-01 1.47642E+00-2.26248E-02-5.90624E-02 6.89135E-03 1.43474E-02
 -1      2566-1.03725E-01 1.33096E+00-1.76917E-02-1.70295E-01 2.13816E-02 1.55101E-02
 -1      2567-3.42315E-02 1.33502E+00-2.44727E-02-9.59237E-02 1.04697E-02 1.19859E-02
 -1      2568 9.81408E-02 1.12116E+00-4.06229E-02-1.25747E-01 3.49599E-02-8.75875E-03
 -1      2569-2.45307E-01 1.64704E+00-3.35555E-02-1.29338E-02-2.66477E-03 2.67433E-02
 -1      2570-1.87449E-01 1.55323E+00-1.70903E-02-5.74663E-02-4.27647E-03 1.98225E-02
 -1      2571-2.15586E-01 1.77398E+00-7.02340E-03-8.93402E-03-2.71748E-03 1.17135E-02
 -1      2572-2.34252E-01 1.63940E+00-3.09481E-02-7.59200E-04 6.47621E-03 2.45665E-02
 -1      2573-7.59398E-02 1.93812E+00-1.80919E-02-2.50833E-02-1.32089E-02-3.46529E-02
 -1      2574-2.80500E-01 1.50275E+00-2.00392E-02-5.56423E-02 2.14257E-03 2.64938E-02
 -1      2575-2.35759E-01 1.47370E+00 4.92138E-04-1.09721E-01-1.30135E-03 1.37115E-02
 -1      2576-2.08554E-01 1.40630E+00 5.68447E-03-2.08269E-01 1.36864E-02 2.28294E-02
 -1      2577-1.83289E-01 1.36833E+00-1.91559E-03-2.13559E-01 7.89728E-03 1.53641E-02
 -1      2578-1.37614E-01 1.21362E+00-4.05999E-02-2.75774E-01 1.04520E-02 2.70466E-02
 -1      2579-2.77280E-01 1.53167E+00-1.11403E-02 3.62803E-02-4.48477E-03 2.13866E-02
 -1      2580-2.45961E-01 1.49454E+00-6.71198E-03-1.08202E-02 3.41293E-03 1.55625E-02
 -1      2581-2.19798E-01 1.55678E+00-1.25071E-02 5.20556E-02-3.06031E-04 1.85426E-02
 -1      2582-2.42948E-01 1.45632E+00-1.10736E-02 1.05639E-01-2.92021E-03 8.34820E-03
 -1      2583-2.30019E-01 1.58905E+00-3.01460E-02 4.64137E-02 8.34113E-04 1.15184E-02
 -1      2584-2.36116E-01 1.48494E+00-2.74389E-03 5.03813E-02 2.33153E-03 2.01729E-02
 -1      2585-2.51187E-01 1.48906E+00 2.52592E-03-5.13162E-02 1.43819E-03 1.74398E-02
 -1      2586-2.40475E-01 1.46014E+00-1.04952E-03-1.26818E-01 1.04644E-02 2.38316E-02
 -1      2587-2.22887E-01 1.45204E+00 4.31149E-03-1.70159E-01 8.60257E-03 3.05869E-02
 -1      2588-1.93287E-01 1.30901E+00-7.87787E-03-2.90364E-01 5.66723E-03 2.85168E-02
 -1      2589-2.32720E-01 1.43698E+00-1.00100E-03 1.71912E-01 5.65221E-03 6.71854E-03
 -1      2590-2.53535E-01 1.42842E+00-1.19288E-02 1.11722E-01 7.91225E-03 6.10744E-03
 -1      2591-1.88099E-01 1.41374E+00-1.42276E-03 2.02418E-01 3.74186E-03 8.63451E-03
 -1      2592-1.89724E-01 1.34457E+00 2.86744E-03 2.75541E-01 1.00567E-02 1.05733E-02
 -1      2593-1.87753E-01 1.38366E+00-3.85483E-04 2.03716E-01-2.99067E-03 1.26396E-02
 -1      2594-2.10838E-01 1.43555E+00 7.23100E-04-6.91014E-02 1.34711E-02 3.74974E-02
 -1      2595-1.87322E-01 1.40952E+00-7.45957E-03-2.05568E-01 7.35420E-03 3.83558E-02
 -1      2596-1.89970E-01 1.42191E+00-9.76769E-03 1.85118E-01-1.59879E-03 1.76239E-02
 -1      2597-2.23039E-01 1.45070E+00-1.16747E-02 4.02043E-02 8.55408E-03 2.20985E-02
 -1      2598-1.14202E-01 1.43742E+00-1.40460E-02 6.79504E-03 7.02248E-03 4.38518E-02
 -1      2599-1.26792E-01 1.19828E+00-4.06628E-03-4.38767E-01 1.10195E-03 4.80286E-02
 -1      2600-1.40829E-01 1.26078E+00-4.81112E-03-3.66873E-01 1.71673E-02 3.50044E-02
 -1      2601-1.66683E-01 1.28600E+00-1.00366E-02-3.32981E-01 1.08568E-02 4.75244E-02
 -1      2602-9.71210E-02 1.35317E+00-3.21312E-03-2.63708E-01 2.62709E-02 4.40316E-02
 -1      2603-1.30314E-01 1.17813E+00-4.95967E-03-3.92765E-01 1.81044E-02 3.44532E-02
 -1      2604-1.19427E-01 1.34721E+00 1.29120E-02 3.07561E-01-1.26716E-02 4.29161E-02
 -1      2605-1.07716E-01 1.37122E+00-7.70028E-03 2.52742E-01-2.86095E-02 3.91886E-02
 -1      2606-1.65714E-01 1.28406E+00 5.64138E-04 3.65474E-01-6.99183E-03 1.72333E-02
 -1      2607-8.41074E-02 1.21036E+00 3.54343E-03 4.28123E-01-1.72289E-02 3.83450E-02
 -1      2608-1.35227E-01 1.21000E+00-4.13750E-03 3.97600E-01-5.86153E-03 1.94337E-02
 -1      2609-1.67642E-01 1.47797E+00-2.74148E-02 6.11339E-02-8.50073E-03 1.98202E-03
 -1      2610-5.02856E-02 1.33929E+00-3.93092E-02 8.42098E-02-7.41806E-03 1.72330E-02
 -1      2611-1.24518E-01 1.33322E+00-1.37219E-02 1.63749E-01-1.82193E-02 9.58132E-03
 -1      2612-1.08909E-01 1.22430E+00-1.22393E-02 2.70368E-01-7.60460E-03 6.91359E-03
 -1      2613-1.34405E-01 1.64186E+00-1.29612E-02-6.31872E-03-1.64986E-03 1.83001E-03
 -1      2614 3.73001E-02 1.32780E+00-2.02496E-02 2.84944E-01-2.45319E-02 6.46327E-02
 -1      2615 8.61129E-02 1.40859E+00-2.73975E-02 1.53150E-01-7.99548E-03 5.97463E-02
 -1      2616 3.51942E-01 1.39808E+00-7.31574E-03 9.29851E-02 1.77753E-02 1.02905E-01
 -1      2617 1.07165E-01 1.39392E+00-1.39428E-02 5.33889E-02 7.37038E-03 7.47661E-02
 -1      2618 1.06468E-01 1.42556E+00-5.69752E-03-6.43820E-02 5.24565E-03 8.38693E-02
 -1      2619-7.82463E-02 1.03825E+00-1.92355E-02 5.43205E-01-3.59451E-02 1.82460E-02
 -1      2620-1.73789E-02 1.13425E+00 7.06265E-03 4.63343E-01-4.43106E-02 5.46654E-02
 -1      2621 1.49798E-02 1.20286E+00-1.08235E-02 4.31375E-01-3.28919E-02 6.55550E-02
 -1      2622 2.33287E-01 1.28733E+00-2.37946E-04 3.13169E-01-3.38032E-02 9.47148E-02
 -1      2623 6.30759E-02 1.06380E+00 1.17401E-03 5.18094E-01-3.21594E-02 5.64094E-02
 -1      2624 8.97771E-02 8.01260E-01-4.19226E-03 5.78874E-01-2.68800E-02 7.34268E-03
 -1      2625 4.81849E-03 9.19132E-01-1.55900E-02 5.89644E-01-2.84522E-02 1.00491E-02
 -1      2626-3.35189E-02 1.01970E+00-6.46440E-05 4.92193E-01-1.38062E-02 1.12194E-02
 -1      2627-6.75836E-02 1.10577E+00-6.75218E-03 3.86086E-01-2.67230E-02 4.70742E-03
 -1      2628 1.93248E-02 8.53899E-01-1.88733E-02 6.68687E-01-2.39102E-02 1.28218E-02
 -1      2629-5.14638E-02 1.11487E+00-8.18499E-04-3.75246E-01 1.48375E-02 2.42116E-02
 -1      2630-3.53358E-02 1.03875E+00-3.37913E-02-3.32098E-01 1.50360E-02 2.97345E-02
 -1      2631 9.15857E-02 8.19385E-01-1.33096E-02-3.86275E-01 2.73056E-02 3.76318E-03
 -1      2632 6.61413E-02 9.40132E-01-2.99729E-02-2.58849E-01 2.19778E-02 1.40781E-02
 -1      2633 1.80997E-01 8.73607E-01-1.76531E-02-1.51425E-01 1.70232E-02 6.91474E-03
 -1      2634 7.66662E-01 1.40114E+00-4.40810E-04 1.02841E-01-1.60083E-02 1.90261E-01
 -1      2635 7.56056E-01 1.41141E+00 2.44505E-02 6.07267E-02 3.34628E-03 1.66577E-01
 -1      2636 4.76779E-01 1.20000E+00 4.67324E-03 3.09724E-01-3.57508E-02 8.63227E-02
 -1      2637 6.20573E-01 1.34178E+00 2.91749E-02 1.51915E-01-5.74144E-02 1.17013E-01
 -1      2638 9.78980E-01 1.29593E+00 1.59908E-02 7.98549E-02-1.67800E-02 1.55720E-01
 -1      2639 1.29440E+00 1.43226E+00 6.40484E-02 5.00560E-03-1.39573E-03 2.44045E-01
 -1      2640 7.85380E-01 1.41331E+00 2.26535E-02-7.40721E-02-1.76487E-03 1.54538E-01
 -1      2641 7.38372E-01 1.34436E+00-5.42612E-03-1.09399E-01 1.37083E-02 1.96127E-01
 -1      2642 3.52606E-01 1.38033E+00 1.07695E-02-9.28586E-02 1.71406E-02 1.19216E-01
 -1      2643 9.05228E-02 1.35670E+00-1.80678E-02-1.66400E-01 2.06465E-02 8.16564E-02
 -1      2644 1.16605E-01 9.16535E-01 1.10606E-02 6.92696E-01-6.49722E-02 6.93721E-02
 -1      2645 2.28872E-01 9.60756E-01 5.75361E-03 5.83472E-01-4.49573E-02 1.06537E-01
 -1      2646 3.50722E-01 9.32528E-01-3.58863E-02 6.25769E-01-2.99995E-02 9.61790E-02
 -1      2647 3.89141E-01 1.15757E+00 2.32304E-03 3.89053E-01-3.68805E-02 1.21614E-01
 -1      2648 6.45937E-01 1.17956E+00 2.66063E-02 3.05569E-01-3.98713E-02 9.65902E-02
 -1      2649 1.68592E+00 1.36872E+00 8.90476E-02 3.24377E-02-2.04444E-02 2.20306E-01
 -1      2650 1.70842E+00 1.40947E+00 1.09124E-01-2.13060E-03 2.75267E-02 2.21974E-01
 -1      2651 1.44408E+00 1.27855E+00 2.13097E-02 7.86196E-02-1.21035E-02 1.44807E-01
 -1      2652 1.56671E+00 1.32504E+00 7.34208E-02 1.93989E-02 1.43556E-02 2.13700E-01
 -1      2653 2.21261E+00 1.38377E+00 1.54824E-01-5.05235E-03 1.68728E-02 2.68325E-01
 -1      2654 1.16062E+00 1.31662E+00 1.15351E-01-8.89495E-02 2.15910E-02 2.58902E-01
 -1      2655 6.90387E-01 1.33083E+00 4.91329E-02-1.97511E-01 6.36219E-02 2.02285E-01
 -1      2656 1.69257E+00 1.41567E+00 1.50142E-01-1.20510E-02 2.80170E-02 2.58530E-01
 -1      2657 1.57650E+00 1.29687E+00 1.13572E-01-9.15060E-02 4.41319E-03 2.27234E-01
 -1      2658 5.62008E-01 1.20943E+00 1.40456E-02-2.81441E-01 4.86520E-02 1.66693E-01
 -1      2659 2.75889E-01 1.30475E+00 2.03902E-02-3.22013E-01 4.28472E-02 1.13571E-01
 -1      2660 4.41922E-02 1.21815E+00 4.11402E-03-4.42512E-01 2.25036E-02 6.00592E-02
 -1      2661 4.89173E-02 1.33351E+00-4.78571E-03-2.82784E-01 1.90268E-02 7.95040E-02
 -1      2662 9.25797E-01 1.16430E+00 5.67773E-02-2.39318E-01 5.24964E-02 2.05071E-01
 -1      2663 4.19127E-01 1.09371E+00 3.23220E-02-3.94795E-01 4.70855E-02 1.51805E-01
 -1      2664 1.39888E+00 1.25475E+00 1.28162E-01-1.18872E-01 1.45632E-02 1.97187E-01
 -1      2665 1.12296E+00 1.13494E+00 1.16387E-01-1.68751E-01 8.71167E-02 1.96865E-01
 -1      2666 1.94599E+00 1.24932E+00 1.48894E-01-2.57512E-02 1.27884E-02 2.58489E-01
 -1      2667 4.29707E-01 9.45896E-01 9.97132E-03-5.60900E-01 3.21447E-02 8.83679E-02
 -1      2668 2.15243E-01 9.55517E-01-5.65229E-04-5.60082E-01 6.34843E-02 1.09250E-01
 -1      2669 1.12641E-01 8.44375E-01 2.23493E-02-6.67742E-01 6.31047E-02 9.84726E-02
 -1      2670 3.13552E-02 1.04287E+00-5.63812E-02-5.35073E-01 3.54814E-02 6.85640E-02
 -1      2671 2.01392E-03 1.15153E+00 5.32031E-03-5.10987E-01 2.10009E-02 5.78057E-02
 -1      2672 4.57766E-01 9.06935E-01 8.16992E-02-4.27079E-01 9.15832E-02 1.30370E-01
 -1      2673 3.84230E-01 8.30172E-01 4.45719E-02-6.13482E-01 6.05775E-02 1.44895E-01
 -1      2674 1.10526E+00 1.10490E+00 2.28668E-01-3.14482E-01 4.99941E-02 2.85807E-01
 -1      2675 8.72585E-01 9.86716E-01 2.37685E-01-3.34931E-01 5.68229E-02 3.18207E-01
 -1      2676 3.66728E-02 7.35832E-01-1.90154E-02-6.93232E-01 3.65417E-02 2.48581E-02
 -1      2677-5.36150E-02 1.06431E+00 4.16443E-03-5.78502E-01 3.16407E-02 4.64172E-02
 -1      2678 3.17429E-02 8.43778E-01-1.29195E-02-6.57725E-01 3.26095E-02 1.16920E-02
 -1      2679 2.26169E-02 9.64355E-01 1.29076E-02-5.77229E-01 3.60269E-02 2.39711E-02
 -1      2680 1.35638E-01 6.48454E-01 2.19328E-04-6.94606E-01 7.28429E-03 4.59720E-03
 -1      2681 1.39627E-02 1.89615E+00 1.27619E-02-5.20329E-02-3.68448E-03-7.49365E-02
 -1      2682 2.40501E-01 8.27649E-01-7.27032E-03-4.61663E-02 2.86936E-02 6.23607E-03
 -1      2683 6.12843E-02 8.47465E-01-1.35537E-04-5.60355E-01 2.31239E-02 1.46337E-02
 -1      2684-3.94228E-02 1.03435E+00 7.05590E-03-4.79877E-01 1.55021E-02 2.25412E-02
 -1      2685 1.79108E-01 6.27178E-01-2.07127E-03-5.75262E-01 1.50429E-02-3.21033E-03
 -1      2686 1.39040E-01 7.38119E-01 1.98911E-03-4.90413E-01 2.13423E-02 1.93785E-03
 -1      2687 2.61847E-01 4.61823E-01-2.76208E-03-7.26872E-01 1.45218E-02 6.12146E-03
 -1      2688 1.72370E-01 5.66458E-01-8.45123E-03-6.37005E-01 2.50534E-02 2.86470E-04
 -1      2689 1.83533E-01 5.84539E-01-4.06374E-03-4.06183E-01 5.27366E-03 1.81950E-02
 -1      2690 1.11699E+00 1.01835E+00 7.49645E-02 2.37330E-01-6.46074E-02 2.24888E-01
 -1      2691 9.18453E-01 1.11523E+00 4.01344E-03 2.48420E-01-6.67086E-02 1.49681E-01
 -1      2692 5.84912E-01 9.97629E-01 5.09576E-02 4.29114E-01-6.30359E-02 1.63648E-01
 -1      2693 1.21645E+00 1.25734E+00 4.06704E-02 1.67686E-01-3.47998E-02 1.37073E-01
 -1      2694 2.00646E-01 5.64047E-01-5.70922E-02-1.60089E-01 2.02374E-02 2.22472E-02
 -1      2695 4.32097E-01 1.94699E+00-1.02536E-01-2.28670E-01-2.47534E-02-1.84942E-01
 -1      2696 4.20136E-01 9.88538E-01-2.48424E-02-1.92902E-01-5.07323E-03 1.10604E-02
 -1      2697 3.07101E-01 1.30011E+00-9.48605E-02-1.99624E-01 1.02383E-02-1.49432E-02
 -1      2698 2.88006E-02 1.29553E+00-3.65125E-02-1.34385E-02-2.89543E-02 8.87487E-03
 -1      2699 1.66616E-01 1.61187E+00-1.94424E-02-1.58500E-01-2.55175E-02-7.38981E-02
 -1      2700 7.54203E-02 1.79479E+00 4.05951E-02-8.40360E-02 2.49357E-02-8.68043E-02
 -1      2701 3.54488E-01 7.67069E-01-3.21567E-02 1.40179E-02-3.70644E-02-9.09383E-03
 -1      2702 2.04695E-01 8.46014E-01 1.04952E-02 1.43261E-01-1.22303E-02 2.01959E-03
 -1      2703 8.69976E-02 9.32413E-01-1.03242E-02 2.61542E-01-1.60528E-02 1.40371E-02
 -1      2704 5.95115E-02 1.07204E+00-3.78100E-02 1.08741E-01-2.67701E-02-1.06143E-03
 -1      2705 1.79436E-01 6.56120E-01-3.44720E-03 5.01217E-01-2.42684E-02-1.00807E-02
 -1      2706 1.15478E-01 7.68546E-01-2.03017E-02 3.92090E-01-1.93440E-02 3.81347E-03
 -1      2707 1.11491E-02 1.02827E+00-1.68647E-02 3.37936E-01-1.19280E-02 2.17053E-02
 -1      2708 9.09973E-02 7.90260E-01 7.61005E-03 7.37393E-01-5.95494E-02 1.91561E-02
 -1      2709 1.86993E-01 6.34325E-01 7.60170E-03 7.68032E-01-5.97518E-02 2.99985E-02
 -1      2710 3.01565E-01 4.61663E-01-6.83950E-03-2.86362E-01 2.19069E-02 1.20773E-02
 -1      2711-7.36487E+00-3.20175E+00-3.05585E+00 7.79419E-01-3.41455E-03 2.11922E+00
 -1      2712-6.75803E+00-2.84220E+00-2.73572E+00 1.41137E-01-5.76168E-03 1.78453E+00
 -1      2713-6.97625E+00-2.94061E+00-2.75003E+00-4.56141E-01 4.42015E-02 1.81051E+00
 -1      2714-8.04271E+00-3.34467E+00-3.35071E+00-1.39289E+00 6.28201E-02 2.64730E+00
 -1      2715-2.22671E+01-9.53470E+00-9.08853E+00-2.26657E+00 1.07683E-01-2.25350E+00
 -1      2716-2.23416E+01-9.42122E+00-8.99254E+00 3.79118E+00-3.55328E-02-1.52852E+00
 -1      2717-2.23752E+01-9.36647E+00-8.93369E+00 1.39297E+00 1.10181E-02-2.31178E+00
 -1      2718-2.25048E+01-9.50786E+00-8.98823E+00-3.53654E-01 4.28124E-02-2.34488E+00
 -1      2719-1.87642E+01-8.21797E+00-8.09491E+00-4.92969E+00 4.94318E-03 1.11813E+00
 -1      2720-1.24079E+01-5.23732E+00-5.46101E+00 3.37915E+00-4.95298E-02 2.96957E+00
 -1      2721-7.20722E+00-3.01939E+00-3.00282E+00-8.14829E-01 5.91008E-02 2.20782E+00
 -1      2722-2.28411E+01-9.48217E+00-8.66049E+00-1.28170E+00 1.13471E-01-2.10571E+00
 -1      2723-2.23606E+01-9.49734E+00-8.69104E+00 2.34650E+00-4.33649E-02-2.49317E+00
 -1      2724-6.92603E+00-2.96826E+00-2.85585E+00 4.40737E-01-3.96411E-02 1.88422E+00
 -1      2725-6.68105E+00-2.84605E+00-2.87836E+00-1.81014E-01-5.15623E-03 1.81778E+00
 -1      2726-2.27608E+01-9.38478E+00-8.46095E+00 4.59505E-01 2.54226E-02-2.11677E+00
 -1      2727-2.23192E+01-9.44328E+00-9.06015E+00-3.80889E+00 5.82471E-02-1.53546E+00
 -1      2728-1.48934E+01-6.22397E+00-5.88159E+00-2.02065E+00 6.61301E-02 8.35501E-01
 -1      2729-1.26947E+01-5.17926E+00-5.49178E+00-3.47815E+00 3.00167E-03 2.94832E+00
 -1      2730-1.89473E+01-8.04447E+00-8.16871E+00 5.15568E+00-1.57732E-02 1.19390E+00
 -1      2731-8.08844E+00-3.42115E+00-3.36793E+00 1.41907E+00-5.11466E-02 2.67594E+00
 -1      2732-1.47139E+01-6.33281E+00-6.02989E+00 1.96830E+00-2.26093E-02 9.18032E-01
 -1      2733-1.45882E+01-6.12930E+00-5.96230E+00-1.23105E+00-1.89929E-02 6.68016E-01
 -1      2734-1.47200E+01-6.20860E+00-5.93056E+00-5.28046E-01 3.08613E-02 5.68685E-01
 -1      2735-1.46053E+01-6.14508E+00-5.88477E+00 1.24579E+00-7.15062E-02 6.65684E-01
 -1      2736-1.45626E+01-6.14437E+00-6.10093E+00 5.66517E-01-1.85029E-02 6.86217E-01
 -1      2737-1.46969E+01-6.19123E+00-5.92100E+00-3.86200E-02 3.27105E-02 6.24016E-01
 -1      2738-1.56181E+01-6.50933E+00-6.26729E+00-3.00345E+00 2.70374E-02 1.48538E+00
 -1      2739-7.54655E+00-3.26266E+00-3.29594E+00-1.68285E+00 5.89949E-02 3.69760E+00
 -1      2740-1.55411E+01-6.40445E+00-6.40809E+00 2.84877E+00-9.36758E-03 1.63370E+00
 -1      2741-2.60028E+01-1.05759E+01-1.00940E+01-6.77679E+00-3.62848E-02-1.82244E+00
 -1      2742-2.56896E+01-1.09556E+01-1.04248E+01 6.62930E+00-1.58422E-01-1.79158E+00
 -1      2743-7.44985E+00-3.09810E+00-3.34384E+00 1.81491E+00-4.23206E-02 3.66537E+00
 -1      2744-3.65660E+01-1.42486E+01-1.41947E+01-9.18042E+00-7.80371E-01-4.11775E+00
 -1      2745-3.32881E+01-1.39261E+01-1.36881E+01-9.50573E+00 2.38526E-01 1.34860E-01
 -1      2746-3.12317E+01-1.33851E+01-1.33851E+01-6.47504E+00-1.21418E-05-5.45193E+00
 -1      2747-1.15928E+01-4.96837E+00-4.96835E+00-3.09207E+00 1.50102E-05 4.49171E+00
 -1      2748-9.42981E+00-3.64688E+00-3.86351E+00-1.61010E+00 1.59900E-01 4.44410E+00
 -1      2749-7.54685E+00-3.23439E+00-3.23443E+00-8.77016E-01-2.25191E-06 3.70357E+00
 -1      2750-9.46680E+00-3.60032E+00-3.88257E+00 1.70885E+00-1.78480E-01 4.47297E+00
 -1      2751-1.20534E+01-5.19968E+00-5.27487E+00 3.47895E+00-1.56273E-02 4.55809E+00
 -1      2752-7.54294E+00-3.23271E+00-3.23275E+00 9.11667E-01 1.90729E-06 3.69665E+00
 -1      2753-3.19103E+01-1.36760E+01-1.36759E+01 9.09865E+00-5.97405E-06-2.81851E-01
 -1      2754-3.63930E+01-1.42706E+01-1.41551E+01 9.06778E+00 7.43409E-01-4.08950E+00
 -1      2755-3.12852E+01-1.34080E+01-1.34081E+01 6.46343E+00 1.27153E-05-5.42514E+00
 -1      2756-2.79452E+01-1.19767E+01-1.19766E+01-7.85949E+00 9.63533E-06 1.39379E+00
 -1      2757-2.27404E+01-9.74598E+00-9.74591E+00-6.49945E+00 2.01119E-05 2.66731E+00
 -1      2758-2.33123E+01-9.72031E+00-9.90414E+00-5.89141E+00-3.05297E-02 5.20451E-02
 -1      2759-2.01595E+01-8.54271E+00-8.52694E+00-5.91878E+00-6.08553E-02 3.71387E+00
 -1      2760-1.48683E+01-6.18143E+00-6.48072E+00-4.24988E+00 9.00705E-02 4.33370E+00
 -1      2761-1.51428E+01-6.61992E+00-6.53006E+00-4.29465E+00-1.78807E-02 2.18684E+00
 -1      2762-1.05081E+01-4.34088E+00-4.45463E+00-2.53156E+00 4.94668E-03 3.40258E+00
 -1      2763-1.43619E+01-6.15519E+00-6.15515E+00 4.22739E+00-2.81213E-05 4.25551E+00
 -1      2764-1.99350E+01-8.54066E+00-8.51309E+00 5.83209E+00 2.09381E-03 3.70465E+00
 -1      2765-9.81981E+00-4.05330E+00-4.16523E+00 2.61885E+00 6.17445E-03 3.42955E+00
 -1      2766-2.30232E+01-9.86722E+00-9.86714E+00 6.74889E+00-2.12483E-05 2.75524E+00
 -1      2767-2.92692E+01-1.24728E+01-1.23522E+01 8.45878E+00 5.08664E-02 1.28245E+00
 -1      2768-1.53205E+01-6.53889E+00-6.55629E+00 4.34187E+00 2.06370E-02 2.23049E+00
 -1      2769-2.25513E+01-9.56250E+00-9.65003E+00 5.92989E+00-7.52309E-02-5.28971E-02
 -1      2770-4.98404E+00-2.16815E+00-2.12200E+00 6.39202E-01 5.28760E-03 2.73577E+00
 -1      2771-7.54114E+00-3.16258E+00-3.17883E+00 8.34474E-01-3.46817E-02 3.20568E+00
 -1      2772-7.73426E+00-3.30154E+00-3.37375E+00 1.53494E+00-2.82332E-02 3.22619E+00
 -1      2773-3.70880E+00-1.63728E+00-1.60049E+00 3.18784E-01-7.61642E-03 2.23610E+00
 -1      2774-4.39424E+00-1.83954E+00-1.84898E+00 5.93777E-01-2.14685E-02 2.46419E+00
 -1      2775-7.71659E+00-3.30712E+00-3.30715E+00 1.09315E+00-5.54903E-06 2.36769E+00
 -1      2776-3.80633E+00-1.63132E+00-1.63139E+00 1.97779E-01 2.26404E-06 1.94733E+00
 -1      2777-3.39538E+00-1.40577E+00-1.46278E+00 3.93821E-01 3.37246E-03 2.10300E+00
 -1      2778-7.08794E+00-3.03771E+00-3.03776E+00 6.39291E-01-3.13779E-06 1.96946E+00
 -1      2779-3.54331E+00-1.51859E+00-1.51867E+00 3.59554E-02 1.88918E-06 1.85867E+00
 -1      2780-3.83409E+00-1.62773E+00-1.64641E+00 1.21749E-01 1.50213E-03 1.84744E+00
 -1      2781-6.81765E+00-2.88467E+00-2.79790E+00 3.00947E-01-1.66961E-02 1.83982E+00
 -1      2782-3.49821E+00-1.49926E+00-1.49934E+00-1.17790E-01-3.73924E-07 1.89005E+00
 -1      2783-3.57003E+00-1.53259E+00-1.54375E+00-3.99461E-02 8.20386E-03 1.80985E+00
 -1      2784-6.77256E+00-2.85262E+00-2.73615E+00 1.51188E-03 2.32634E-03 1.78306E+00
 -1      2785-4.48674E+00-1.89821E+00-1.90533E+00-3.00566E-01 1.11637E-02 2.04309E+00
 -1      2786-4.03315E+00-1.73622E+00-1.71948E+00-1.69126E-01-5.32749E-03 1.90319E+00
 -1      2787-6.83899E+00-2.87801E+00-2.75437E+00-3.09232E-01 3.60515E-02 1.85145E+00
 -1      2788-5.40990E+00-2.29727E+00-2.28574E+00-4.92141E-01 2.02373E-02 2.41930E+00
 -1      2789-4.43299E+00-1.89988E+00-1.89995E+00-3.99768E-01-2.74306E-06 2.24143E+00
 -1      2790-7.03706E+00-2.97734E+00-2.88862E+00-5.96405E-01 8.09038E-03 2.02104E+00
 -1      2791-7.57226E+00-3.13885E+00-3.19460E+00-7.92239E-01 3.21726E-02 3.17268E+00
 -1      2792-5.89241E+00-2.52535E+00-2.52540E+00-6.46914E-01-3.30067E-06 2.72283E+00
 -1      2793-7.64287E+00-3.26323E+00-3.23089E+00-1.07500E+00 3.32038E-02 2.39287E+00
 -1      2794-7.70867E+00-3.27635E+00-3.34324E+00-1.52947E+00 4.08156E-02 3.21259E+00
 -1      2795-2.93995E+01-1.26498E+01-1.25903E+01 5.07729E+00 7.57638E-03-5.31244E+00
 -1      2796-2.91773E+01-1.25046E+01-1.25047E+01 3.95519E+00 1.00489E-05-5.32337E+00
 -1      2797-2.44942E+01-1.02581E+01-9.61166E+00 5.02757E+00 6.99663E-02-1.69742E+00
 -1      2798-3.02078E+01-1.29814E+01-1.27160E+01 3.17250E+00 1.35702E-01-6.10462E+00
 -1      2799-3.09147E+01-1.32279E+01-1.29314E+01 2.28876E+00-1.81529E-01-6.34464E+00
 -1      2800-2.26175E+01-9.47266E+00-8.96443E+00 2.97746E+00-4.94507E-02-1.97483E+00
 -1      2801-3.00459E+01-1.28769E+01-1.28770E+01 1.80475E+00 7.54542E-06-5.93047E+00
 -1      2802-3.14128E+01-1.34555E+01-1.32943E+01 1.19556E+00-1.01268E-01-6.25171E+00
 -1      2803-2.23854E+01-9.40018E+00-8.94265E+00 1.89707E+00-2.47220E-02-2.31840E+00
 -1      2804-3.08113E+01-1.32049E+01-1.32050E+01 7.61824E-01 5.98454E-06-6.04718E+00
 -1      2805-3.18552E+01-1.36568E+01-1.34882E+01 2.04538E-01-9.84445E-02-6.19034E+00
 -1      2806-2.26847E+01-9.46027E+00-8.84951E+00 8.67522E-01-2.32796E-02-2.31673E+00
 -1      2807-3.09538E+01-1.32660E+01-1.32661E+01-2.15086E-01 2.70785E-06-5.85531E+00
 -1      2808-3.16508E+01-1.35726E+01-1.35480E+01-8.24749E-01-9.98575E-03-6.05450E+00
 -1      2809-2.27503E+01-9.46861E+00-8.81176E+00 4.55471E-03-3.06565E-02-2.32419E+00
 -1      2810-3.09305E+01-1.32560E+01-1.32561E+01-1.31387E+00-3.26224E-06-5.91130E+00
 -1      2811-3.13712E+01-1.34643E+01-1.33362E+01-1.90388E+00-6.32049E-02-6.15652E+00
 -1      2812-2.27466E+01-9.50665E+00-8.93802E+00-8.17520E-01 2.22264E-02-2.23107E+00
 -1      2813-2.99135E+01-1.28201E+01-1.28202E+01-2.40007E+00-5.04150E-06-5.74677E+00
 -1      2814-3.01398E+01-1.29870E+01-1.28930E+01-3.15347E+00-1.08745E-02-5.83169E+00
 -1      2815-2.24539E+01-9.40087E+00-8.88301E+00-1.81750E+00-1.19189E-02-2.32313E+00
 -1      2816-2.90835E+01-1.24644E+01-1.24645E+01-3.97827E+00-9.16029E-06-5.27634E+00
 -1      2817-2.93652E+01-1.26511E+01-1.25693E+01-5.08210E+00-1.23016E-02-5.36437E+00
 -1      2818-2.25067E+01-9.43667E+00-8.95757E+00-2.99853E+00 5.69846E-02-1.90443E+00
 -1      2819-2.45800E+01-1.03100E+01-9.69996E+00-5.03273E+00-6.54449E-02-1.73198E+00
 -1      2820-1.11111E+01-4.76191E+00-4.76194E+00 7.98014E-01-4.09778E-06 1.42434E+00
 -1      2821-1.12060E+01-4.80641E+00-4.76414E+00 1.02921E+00-2.13560E-02 1.47690E+00
 -1      2822-1.13274E+01-4.85462E+00-4.85463E+00 1.34713E+00-6.11355E-06 1.66466E+00
 -1      2823-1.18283E+01-5.06926E+00-5.06927E+00 1.68871E+00-7.45085E-06 1.93570E+00
 -1      2824-1.46548E+01-6.19179E+00-5.98409E+00 1.62001E+00-2.10324E-02 7.87007E-01
 -1      2825-1.06951E+01-4.58364E+00-4.58368E+00 3.22890E-01-2.21531E-06 1.30569E+00
 -1      2826-1.08654E+01-4.65102E+00-4.64936E+00 5.08715E-01-4.28108E-03 1.34821E+00
 -1      2827-1.07144E+01-4.60149E+00-4.49329E+00-3.03672E-01 5.32184E-02 1.25639E+00
 -1      2828-1.08336E+01-4.61623E+00-4.57422E+00 1.05364E-01-3.89069E-02 1.28091E+00
 -1      2829-1.49088E+01-6.38949E+00-6.38950E+00 2.70439E-01-1.82546E-06 7.63567E-01
 -1      2830-1.10786E+01-4.74801E+00-4.74803E+00-1.03256E+00 6.24275E-06 1.56630E+00
 -1      2831-1.07789E+01-4.63462E+00-4.58351E+00-8.17381E-01-1.75132E-02 1.29032E+00
 -1      2832-1.08638E+01-4.59390E+00-4.49816E+00-5.99339E-01 8.98827E-02 1.23665E+00
 -1      2833-1.07465E+01-4.63859E+00-4.53867E+00-2.10093E-01-3.44215E-02 1.29033E+00
 -1      2834-1.49789E+01-6.41955E+00-6.41954E+00-8.70515E-01 7.60546E-06 6.56016E-01
 -1      2835-1.17360E+01-4.98237E+00-5.00922E+00-1.71052E+00 1.48174E-02 1.89752E+00
 -1      2836-1.14034E+01-4.88718E+00-4.88720E+00-1.36598E+00 8.43015E-06 1.73348E+00
 -1      2837-1.22424E+01-5.24678E+00-5.24679E+00-2.13830E+00 1.54694E-05 2.26368E+00
 -1      2838-1.53224E+01-6.41840E+00-6.07236E+00-2.45897E+00-1.70538E-02 1.09364E+00
 -1      2839-1.43093E+01-5.96845E+00-6.00289E+00-3.14006E+00 9.34037E-02 2.30878E+00
 -1      2840-1.09980E+01-4.71343E+00-4.71344E+00-2.21807E+00 1.60137E-05 2.84004E+00
 -1      2841-1.93351E+01-8.13862E+00-7.93526E+00-1.29835E+00 2.00119E-01-3.86961E-01
 -1      2842-1.89160E+01-8.10686E+00-8.10681E+00-1.77025E+00 5.59854E-06-5.33310E-01
 -1      2843-1.90869E+01-8.18011E+00-8.18006E+00-2.21201E+00 3.79419E-06-3.91370E-01
 -1      2844-1.88641E+01-8.05354E+00-8.11383E+00-2.87263E+00 9.61722E-03-1.16786E-01
 -1      2845-1.46567E+01-6.16123E+00-5.87868E+00-1.60036E+00 2.53395E-02 7.98870E-01
 -1      2846-1.89238E+01-8.07473E+00-8.09613E+00 2.84021E+00 1.04908E-02-1.01891E-01
 -1      2847-1.92266E+01-8.23998E+00-8.23993E+00 2.20668E+00-3.07711E-06-4.43331E-01
 -1      2848-1.78508E+01-7.65036E+00-7.65034E+00 3.91114E+00-1.22811E-05 1.40413E+00
 -1      2849-1.92572E+01-8.25310E+00-8.25308E+00 3.40571E+00-9.43533E-06 2.95008E-01
 -1      2850-2.19235E+01-9.39581E+00-9.39578E+00 4.36625E+00-4.67571E-06 8.85417E-02
 -1      2851-1.50397E+01-6.38029E+00-6.22857E+00 2.30753E+00-2.75425E-02 1.23322E+00
 -1      2852-1.91291E+01-8.19819E+00-8.19815E+00 1.79545E+00-3.83084E-06-5.92062E-01
 -1      2853-1.89691E+01-8.06529E+00-8.04662E+00 1.28247E+00-4.85945E-02-5.98927E-01
 -1      2854-1.88634E+01-8.08432E+00-8.08429E+00 8.79575E-01-2.28396E-06-5.35710E-01
 -1      2855-1.90611E+01-8.04051E+00-7.77437E+00 5.16888E-01-2.21667E-01-2.54654E-01
 -1      2856-1.45992E+01-6.18959E+00-6.03272E+00 9.05105E-01-2.92575E-03 6.68572E-01
 -1      2857-1.90155E+01-8.14947E+00-8.14944E+00-5.01075E-01-2.21098E-07-5.53551E-01
 -1      2858-1.94606E+01-8.24584E+00-8.14966E+00-8.36992E-01-1.11031E-01-3.37774E-01
 -1      2859-1.93229E+01-8.16986E+00-8.02904E+00 1.95737E-01 1.43162E-01-2.63252E-01
 -1      2860-1.90479E+01-8.16336E+00-8.16332E+00-1.94981E-01 1.58790E-06-5.51181E-01
 -1      2861-1.44396E+01-6.18839E+00-6.18837E+00-2.85291E-01 1.40271E-06 5.63055E-01
 -1      2862-1.91874E+01-8.22318E+00-8.22316E+00-3.44827E+00 9.09299E-06 2.03095E-01
 -1      2863-1.76066E+01-7.54572E+00-7.54569E+00-3.95154E+00 1.25962E-05 1.29769E+00
 -1      2864-2.17374E+01-9.31607E+00-9.31604E+00-4.38764E+00 4.80102E-06 2.29316E-02
 -1      2865-1.43880E+01-6.03255E+00-6.07067E+00 3.11359E+00-7.34681E-02 2.34938E+00
 -1      2866-1.21862E+01-5.08947E+00-5.16580E+00 2.06558E+00 3.94589E-02 2.21967E+00
 -1      2867-1.09731E+01-4.70277E+00-4.70278E+00 2.19759E+00-1.72654E-05 2.82351E+00
 -1      2868 1.24823E+00 1.77185E+00 1.48206E-01 1.41672E-01-3.49688E-01-2.12362E-02
 -1      2869-3.36517E+01-4.07341E-01-9.11917E-02-1.00897E+00-4.40114E-02 7.03857E-02
 -1      2870-3.37747E+01-3.76683E-01-6.48359E-02-9.03457E-01 4.26731E-02-6.37006E-02
 -1      2871-3.36215E+01-1.45131E-01-1.67937E-02-3.36327E-02-1.54340E-02-9.33574E-03
 -1      2872-3.36336E+01-1.95693E-01-2.09366E-02 1.26099E-02 1.31179E-02 2.21511E-02
 -1      2873-5.69043E+00 2.33464E+00 7.57403E-03-1.90668E+00 5.67406E-01-2.31910E+00
 -1      2874-2.08259E+01 5.71984E-01 7.52409E-02 2.17867E+00 2.37234E-01 1.11627E+00
 -1      2875-2.91133E+01-3.70139E-01-3.34386E-01 1.66407E+00-1.42418E-01-3.68481E-01
 -1      2876-3.40549E+01-2.31592E-01-5.35639E-02 5.01884E-01-1.29470E-03-7.56014E-03
 -1      2877-3.38146E+01-2.08295E-01-4.57245E-02 2.57894E-01 2.18188E-02 4.35095E-02
 -1      2878-3.29005E+01-6.57431E+00 2.84922E+00-3.45909E-01-2.53394E-01-9.92204E-02
 -1      2879-3.26617E+01-6.07472E+00 3.45539E+00-3.89224E-01 5.43593E-02 4.59419E-01
 -1      2880-3.34350E+01-1.52332E-01-2.10323E-02-2.00667E-01-1.07991E-02 1.25119E-02
 -1      2881-3.34026E+01-3.07478E-01-2.99003E-02-6.47790E-01 1.90989E-02-3.25602E-02
 -1      2882-3.19881E+01-6.38484E+00 2.22856E+00 1.64647E+00-1.85047E-01-2.85126E-01
 -1      2883-3.26592E+01-6.40478E+00 2.63030E+00 1.70585E+00-3.25206E-02-7.43978E-03
 -1      2884 9.46824E-01 1.76386E+00 1.16964E-01-1.00990E-01 3.41142E-01 1.55931E-02
 -1      2885-1.99803E+01 3.62595E-01 8.09391E-01-1.75063E+00-1.70069E-01 3.70086E+00
 -1      2886-3.33649E+01-3.00462E-01-5.42482E-02 6.22004E-01 1.59498E-02 3.07939E-02
 -1      2887-6.30179E+00 2.44702E+00-1.02487E-01 1.90857E+00-6.45180E-01-2.11453E+00
 -1      2888-3.32668E+01-2.31917E-01-3.84372E-02 6.04999E-01-3.80128E-03 8.57843E-03
 -1      2889-3.24038E+01-5.79159E+00 2.06499E+00-2.64590E+00-3.05162E-01 6.99257E-02
 -1      2890-3.21384E+01-5.41820E+00 3.25849E+00-2.76033E+00 1.32673E-01 3.23678E-01
 -1      2891-3.31444E+01-5.13299E-01-6.64171E-02-1.42873E+00 1.62124E-02 4.68434E-02
 -1      2892-3.13884E+01-4.17655E+00 2.30220E+00 4.22290E+00 3.36423E-02-5.43728E-01
 -1      2893-3.20137E+01-4.38337E+00 2.69925E+00 4.10021E+00-2.16760E-01 1.93719E-01
 -1      2894-3.28149E+01-9.59511E-01 1.19249E-01-2.51989E+00-4.60533E-03 3.00051E-01
 -1      2895-3.23777E+01-5.79412E+00 2.33985E+00 2.71267E+00 2.93405E-01 5.92373E-02
 -1      2896-3.25467E+01-4.61781E+00 3.24881E-01 1.76244E+00 6.86981E-02-4.37957E-01
 -1      2897-3.29524E+01-5.41848E+00 1.69583E-01 8.78149E-01 4.02604E-02-1.84849E-01
 -1      2898-3.35283E+01-3.79733E+00 2.93146E-02 9.65852E-01 5.35746E-02-1.05557E-01
 -1      2899-3.34774E+01-4.28408E+00 1.75427E-02 3.61173E-01-1.74271E-02-7.58113E-02
 -1      2900-3.37517E+01-3.09041E+00-2.26338E-04 4.11791E-01 3.81558E-02-1.40918E-02
 -1      2901-3.37757E+01-3.26743E+00-2.18440E-02-5.54886E-03 3.76606E-03 1.92807E-02
 -1      2902-3.38110E+01-2.42944E+00-5.70733E-04 1.32940E-01 1.87077E-03 1.52943E-02
 -1      2903-3.38124E+01-2.45269E+00-1.05974E-02-1.09723E-01-3.20533E-03 1.72110E-02
 -1      2904-3.37496E+01-1.94069E+00-8.42410E-03 2.98686E-04 9.84249E-03 1.81381E-02
 -1      2905-3.37580E+01-1.81520E+00 4.72439E-03-5.69972E-02-6.10898E-03 8.98051E-03
 -1      2906-3.36407E+01-1.59633E+00 3.33046E-04 3.07922E-02-7.90840E-03-7.03613E-03
 -1      2907-3.36471E+01-1.57826E+00-5.42215E-03-1.44255E-02-1.27465E-03-3.19767E-04
 -1      2908-3.35125E+01-1.42762E+00-5.15615E-02 8.78006E-03 6.96173E-03-2.88968E-02
 -1      2909-3.35186E+01-1.33517E+00-7.16806E-03-1.17082E-01 1.75744E-02 5.91939E-03
 -1      2910-3.30577E+01-1.24195E+00-1.92755E-01-5.12691E-02 1.72712E-02 3.95337E-02
 -1      2911-3.32067E+01-1.20746E+00-1.03687E-02 8.30805E-02 9.73280E-03 2.17037E-02
 -1      2912-3.17973E+01-7.55778E-01-3.31126E-01 2.32215E-02-2.99622E-02 3.73894E-01
 -1      2913-3.18865E+01-7.62120E-01-3.78858E-01 1.62559E-01-2.07511E-02 3.52234E-01
 -1      2914-2.86588E+01 5.16098E-01 1.19182E-01-1.21805E-02-7.48234E-03 1.47458E+00
 -1      2915-2.81742E+01 5.56831E-01 4.43129E-03-1.91087E-02-3.36136E-02 1.02963E+00
 -1      2916-1.98489E+01 3.48583E+00-2.78060E-01-7.64118E-03 6.74054E-02 2.07897E+00
 -1      2917-1.97931E+01 3.45890E+00-7.50761E-02 1.23448E-01-6.36832E-02 2.19765E+00
 -1      2918-7.16834E+00 7.83184E+00-3.77682E-01 3.82120E-02 8.24657E-02 1.50812E+00
 -1      2919-7.37486E+00 7.57470E+00-2.82797E-01 1.12446E-02-6.98445E-02 1.42498E+00
 -1      2920-2.30629E+00 9.60028E+00 2.03032E-02 3.97141E-03-2.14250E-02 6.80986E-01
 -1      2921-1.03992E+00 9.44649E+00-3.13400E-01 1.02425E-01 2.12314E-01 1.22881E+00
 -1      2922-1.49678E+00 9.86282E+00-7.12156E-02-3.54537E-02 1.07319E-01 1.63236E-01
 -1      2923-1.52049E+00 9.84080E+00-2.05635E-02-6.85744E-03-1.07769E-01 4.88549E-02
 -1      2924-1.47075E+00 9.95679E+00-7.17322E-03-3.21360E-02 9.03910E-03 2.10383E-02
 -1      2925-1.42598E+00 9.58747E+00-2.62907E-02-2.46748E-03 1.90330E-01 9.31220E-02
 -1      2926-1.82516E+00 9.68993E+00 5.27062E-02-1.81419E-01 6.29359E-02-8.20448E-01
 -1      2927-1.71132E+00 9.59486E+00-5.84087E-02 1.31279E-01-9.09985E-02-7.85460E-01
 -1      2928-6.08892E+00 7.68073E+00-6.55726E-01 1.31754E-02 7.40279E-03-6.19016E-01
 -1      2929-8.25247E+00 7.23307E+00 1.92417E-01 1.86801E-02 1.27774E-01-2.38071E+00
 -1      2930-1.89833E+01 3.83668E+00 1.36107E-01-3.83613E-02-1.40824E-01-1.82942E+00
 -1      2931-1.96488E+01 3.59208E+00 3.95984E-01-2.38273E-02 7.47219E-02-2.08808E+00
 -1      2932-2.73285E+01 7.58557E-01-3.23711E-01-3.58562E-02-4.41166E-03-1.34017E+00
 -1      2933-2.83578E+01 5.48014E-01 1.18050E-01-2.96467E-02 3.19549E-02-1.21714E+00
 -1      2934-3.17638E+01-6.92550E-01-1.30407E-01-3.78757E-02 5.62107E-02-3.45793E-01
 -1      2935-3.16960E+01-7.38636E-01-2.50961E-01 1.37460E-01-7.44650E-02-2.21960E-01
 -1      2936-3.31376E+01-1.20165E+00-7.16376E-02 1.81744E-03 1.46683E-03-9.94025E-03
 -1      2937-3.31725E+01-1.18833E+00-3.83084E-02-1.58759E-01 3.99850E-03-5.58234E-03
 -1      2938-3.34885E+01-1.37209E+00-3.03980E-02-5.44384E-02-5.11605E-03 3.86080E-03
 -1      2939-3.35175E+01-1.38077E+00-1.43384E-02 6.76554E-02 3.20501E-03 1.30290E-02
 -1      2940-3.36371E+01-1.59781E+00-6.11222E-03 4.33107E-03-2.69667E-03 1.94458E-03
 -1      2941-3.36612E+01-1.46919E+00-7.37493E-03 6.19265E-02 4.55899E-03 1.19714E-03
 -1      2942-3.37481E+01-1.87356E+00-4.49881E-03-3.12280E-02 7.86177E-03-1.38665E-02
 -1      2943-3.37440E+01-1.89694E+00 6.36658E-04 2.54906E-02-6.64488E-03-6.96653E-03
 -1      2944-3.38309E+01-2.41807E+00-1.28466E-02-5.53814E-03-1.98367E-03-3.42396E-02
 -1      2945-3.38395E+01-2.29538E+00-3.10964E-03 2.19840E-01 3.77949E-03-1.93218E-02
 -1      2946-3.38394E+01-2.26859E+00-5.65384E-03-2.12588E-01 1.78046E-04-1.23703E-02
 -1      2947-3.37739E+01-3.09621E+00 8.82661E-03-4.11138E-01-2.06220E-02-1.24313E-02
 -1      2948-3.35438E+01-1.23839E+00-9.56451E-03-1.92097E-01-4.53654E-03-5.91982E-04
 -1      2949-3.35419E+01-1.21976E+00-1.11955E-02 2.10973E-01 9.23089E-03 6.86946E-06
 -1      2950-3.36910E+01-1.35327E+00-9.91958E-03 8.37125E-02-8.70645E-03-7.16859E-03
 -1      2951-3.38437E+01-2.07447E+00 1.26757E-03 3.05088E-01 3.17532E-02 1.56416E-02
 -1      2952-3.37936E+01-3.21005E+00-2.06009E-03 1.87893E-01-8.58871E-03-8.00755E-03
 -1      2953-3.38425E+01-2.73704E+00 5.27230E-03 5.43364E-01-3.77852E-02-1.24729E-02
 -1      2954-3.30453E+01-1.12042E+00-1.48882E-01-2.75005E-01 3.03584E-03-5.11735E-03
 -1      2955-3.35990E+01-1.13604E+00-2.12276E-02-2.61889E-01 4.90302E-03-2.27361E-02
 -1      2956-3.38624E+01-1.78921E+00 1.19547E-03 3.79753E-01-1.19576E-02-1.39717E-02
 -1      2957-3.37052E+01-1.18119E+00-4.15310E-03 1.34790E-01 1.79453E-02 5.96005E-03
 -1      2958-3.32896E+01-1.04889E+00-1.84721E-02-3.77753E-01-1.40142E-02-2.50675E-02
 -1      2959-3.38035E+01-1.40097E+00 2.62203E-03-9.20145E-02-7.34244E-03 1.03296E-02
 -1      2960-3.36567E+01-9.81252E-01-1.02453E-02-3.47008E-01-8.40127E-03 2.18074E-02
 -1      2961-3.37400E+01-9.94303E-01-1.01179E-03 1.50755E-01-2.35277E-02-1.04564E-02
 -1      2962-3.36017E+01-1.11610E+00-7.63195E-03 2.66077E-01-2.07805E-02-8.38580E-03
 -1      2963-3.36454E+01-9.64661E-01-7.47327E-02 3.93306E-01 1.97176E-02 4.47582E-02
 -1      2964-3.32433E+01-1.07096E+00-6.63381E-02 4.03331E-01 2.66559E-03-8.22899E-03
 -1      2965-3.35185E+01-7.42520E-01-5.23813E-02 7.00756E-01 4.87734E-03-4.94993E-02
 -1      2966-3.16899E+01-8.32658E-01-3.02173E-01 6.13316E-01 4.85278E-02-1.99100E-01
 -1      2967-3.34903E+01-4.05217E+00-2.55309E-03 6.12168E-01-1.74634E-02 5.89178E-02
 -1      2968-3.35282E+01-3.42885E+00 2.76780E-02 1.12633E+00-5.72705E-02 1.20204E-01
 -1      2969-3.34011E+01-4.30473E+00-2.29637E-02-5.88400E-02-3.30874E-03 7.57247E-02
 -1      2970-3.35623E+01-2.77483E+00 1.21942E-02 1.44960E+00 4.16475E-02-7.36046E-02
 -1      2971-3.34163E+01-9.48766E-01-1.40897E-02-4.79976E-01 1.17287E-02-3.64602E-03
 -1      2972-3.21043E+01-8.11115E-01-4.91028E-02-3.99818E-01 3.24302E-03 2.40112E-01
 -1      2973-3.38039E+01-6.65021E-01-1.98951E-02-4.41066E-01 3.25545E-02-2.05748E-02
 -1      2974-3.37371E+01-9.84738E-01-4.92141E-03-1.49472E-01 1.65539E-02-7.79036E-03
 -1      2975-3.36988E+01-1.18738E+00-1.06644E-02-1.12837E-01-1.77669E-02 5.57889E-03
 -1      2976-3.37860E+01-8.97377E-01-8.39654E-03-1.07566E-01-2.13026E-02 3.67781E-03
 -1      2977-3.38462E+01-1.48096E+00-1.86486E-04-3.78886E-01-4.03533E-02 2.98285E-03
 -1      2978-3.37821E+01-5.19137E-01 2.43595E-03 1.75143E-01-2.08317E-02-1.13775E-02
 -1      2979-3.37649E+01-7.82908E-01-2.21033E-02-2.09875E-01-2.90248E-02 1.06599E-02
 -1      2980-3.38447E+01-5.63701E-01-2.78050E-02-4.58787E-01-5.08552E-03 4.92338E-02
 -1      2981-3.27076E+01-5.48821E+00 1.89302E-01 3.53688E-01-1.52650E-02 3.03360E-01
 -1      2982-3.37919E+01-6.92462E-01-5.13055E-03 1.95929E-01 1.44637E-02 1.15514E-03
 -1      2983-3.38135E+01-1.08450E+00-1.82872E-02-5.52329E-02 2.36690E-02-9.12810E-03
 -1      2984-3.37447E+01-4.68191E-01-4.23482E-03-1.19992E-02 2.11902E-02 6.03549E-04
 -1      2985-3.38365E+01-1.00257E+00-1.44748E-02-3.82503E-01 2.98484E-02-1.95664E-02
 -1      2986-3.22495E+01-7.14348E-01-1.90800E-01-8.70318E-01-1.07013E-01 3.41502E-01
 -1      2987-2.91023E+01 7.45944E-02 2.53107E-01-4.25954E-01 1.73844E-02 9.59371E-01
 -1      2988-2.96330E+01-1.08114E-01 3.49540E-01-1.32681E+00-1.06724E-01 1.52661E+00
 -1      2989-1.98278E+01 2.05464E+00 3.75926E-01-9.26005E-01-3.17689E-01 3.38537E+00
 -1      2990-8.13163E+00 3.94362E+00-2.63109E-01-1.89038E+00-1.12632E+00 4.98221E+00
 -1      2991-7.17686E+00 5.67424E+00-2.08600E-01-5.97019E-01-4.72540E-01 2.65251E+00
 -1      2992-5.96487E-01 5.88093E+00-6.29382E-01-1.13269E+00-7.59284E-01 9.64141E-01
 -1      2993-2.15718E+00 8.33784E+00-1.12933E-01-3.89719E-01-4.53468E-01 6.98302E-01
 -1      2994-1.05344E+00 7.20146E+00 5.55059E-02-2.48082E-01-4.59597E-01-6.80211E-03
 -1      2995-1.97327E+01 3.07538E+00-2.17588E-01-2.22374E-01-5.24403E-02 1.94681E+00
 -1      2996-3.28890E-01 2.17670E+00-2.09421E-01-1.36038E+00-6.12093E-01 6.25771E-01
 -1      2997-1.45940E+00 9.01447E+00-2.50500E-02-1.52290E-01-3.15721E-01 5.93866E-02
 -1      2998-1.26422E+00 8.20751E+00-6.87389E-02 5.33302E-02-4.39222E-01-3.61259E-02
 -1      2999-5.33476E-01 5.81658E+00-2.62853E-02 2.65797E-01-5.13323E-01-5.98852E-02
 -1      3000-1.78964E+00 7.54687E+00 1.99217E-01 3.85185E-01-5.05318E-01-7.72757E-01
 -1      3001-7.35684E+00 7.28825E+00-3.97852E-01 7.78443E-03-5.99978E-02 1.43014E+00
 -1      3002-9.44489E-01 8.91901E+00-2.85093E-01-8.72117E-03-2.60386E-01-1.03607E+00
 -1      3003-7.06347E+00 6.61260E+00-1.68394E-01 2.25155E-01-1.48808E-01-2.43645E+00
 -1      3004-6.76657E+00 5.06185E+00-5.29240E-01 9.16606E-01-1.61111E-01-7.78087E-01
 -1      3005-1.97545E+01 2.52609E+00 3.55952E-01 5.03387E-01-2.66650E-01-1.87036E+00
 -1      3006-2.06770E+01 1.29927E+00 2.81390E-01 1.58766E+00-1.92011E-01-1.93821E+00
 -1      3007-1.90089E+01 3.45998E+00 4.11260E-01 8.53400E-02-3.96866E-02-1.77802E+00
 -1      3008-3.25646E+01-5.60379E+00 3.41026E-01 4.28762E-02-1.49196E-02-4.26030E-01
 -1      3009-3.11876E+01-5.11059E+00 3.25627E+00 2.88714E+00-5.83538E-02 9.33010E-01
 -1      3010-3.28639E+01-3.00775E+00 2.83892E-01 2.48096E+00-5.67499E-02 3.03332E-01
 -1      3011-3.28181E+01-9.54455E-01 1.29741E-01 2.46592E+00-1.72328E-02 3.07074E-01
 -1      3012-3.34522E+01-1.31240E+00-1.06960E-02 1.55885E+00-2.05408E-02 1.14001E-01
 -1      3013-3.21121E+01-7.50229E-01-5.27190E-02 2.69395E-01-5.88395E-03-2.46192E-01
 -1      3014-3.38194E+01-2.38564E+00-1.23410E-02 7.62030E-01 3.77597E-02-7.12748E-03
 -1      3015-3.38644E+01-1.41321E+00-5.27023E-03 4.24067E-01 1.63147E-02 1.53777E-03
 -1      3016-3.37714E+01-1.37062E+00-2.13833E-02 8.69522E-01 3.45509E-02-8.79959E-03
 -1      3017-3.37042E+01-6.70093E-01 6.23978E-03 3.29941E-01 2.93968E-02-2.32570E-02
 -1      3018-3.35758E+01-1.28063E+00 1.80624E-02 1.53040E+00 1.98053E-02-3.48479E-02
 -1      3019-3.25554E+01-3.17104E+00 2.54644E-01 2.56474E+00 7.21252E-02-2.68330E-01
 -1      3020-3.28112E+01-9.55824E-01 6.08745E-02 2.52563E+00-4.43542E-03-2.00843E-01
 -1      3021-3.20234E+01-6.42908E+00 2.31843E+00-1.54781E+00 1.00224E-01-3.80305E-01
 -1      3022-3.25309E+01-4.62774E+00 2.68477E-01-1.73339E+00-3.89481E-02-4.43012E-01
 -1      3023-3.28789E+01-2.73100E+00 2.93303E-01-2.51043E+00-3.87792E-02-3.40194E-01
 -1      3024-3.36025E+01-2.71348E+00 2.45205E-03-1.43503E+00-2.74751E-02-3.98958E-02
 -1      3025-3.34463E+01-3.77634E+00 1.06149E-01-9.81374E-01-3.65992E-02-1.55581E-01
 -1      3026-3.13254E+01-4.17588E+00 2.38502E+00-4.26382E+00-1.14573E-01-5.73481E-01
 -1      3027-3.28786E+01-5.45555E+00 2.49422E-01-8.63400E-01-3.74580E-02-2.32622E-01
 -1      3028-3.29630E+01-6.72799E+00 1.87716E+00-1.43629E+00 1.32822E-01-2.92452E-01
 -1      3029-3.25167E+01-4.59961E+00 7.08649E-02-1.77411E+00 5.32248E-02 2.62398E-01
 -1      3030-3.26306E+01-3.26209E+00 2.98897E-01-2.53939E+00 4.03377E-02 3.56922E-01
 -1      3031-3.35038E+01-2.74365E+00 1.44260E-02-1.50190E+00 2.34415E-02 7.04289E-02
 -1      3032-3.35341E+01-3.58840E+00 1.99862E-02-9.91269E-01 1.45832E-02 8.29737E-02
 -1      3033-3.38500E+01-2.34404E+00-8.95469E-04-7.72261E-01 4.13667E-02 6.76419E-03
 -1      3034-3.34553E+01-1.30323E+00 5.83912E-02-1.61484E+00 1.65639E-02 1.56507E-01
 -1      3035-3.37860E+01-8.25524E-01-1.02183E-03 8.27554E-02 2.18596E-02 4.71022E-03
 -1      3036-3.25252E+01-5.18069E+00 1.62893E-01-9.76787E-01-2.83646E-02 3.35642E-01
 -1      3037-3.25010E+01-6.99760E+00 1.90910E+00 4.01624E-01 1.76663E-01-6.43219E-02
 -1      3038-3.31544E+01-1.16952E+00-1.54986E-01 2.48413E-01 2.52663E-03 3.85918E-02
 -1      3039-3.19877E+01-7.38424E-01-2.28654E-01 4.74456E-01 5.09229E-02 4.35403E-01
 -1      3040-3.37517E+01-1.79595E+00 7.47780E-04 7.33664E-02 4.36000E-03 6.34937E-03
 -1      3041-3.37053E+01-7.93916E-01-6.99574E-02 4.24174E-01-1.99005E-02-3.26722E-02
 -1      3042-3.34184E+01-9.55624E-01-2.99277E-02 4.86934E-01 2.01024E-02 2.27350E-02
 -1      3043-3.22700E+01-7.54658E-01-1.48709E-01 7.55142E-01 1.35008E-02 2.61300E-01
 -1      3044-2.88228E+01 2.37701E-01 1.54435E-01 6.52684E-01 1.29919E-01 1.38553E+00
 -1      3045-2.89050E+01-2.38685E-01-1.12249E-01 1.12830E+00 9.74852E-02 1.04331E+00
 -1      3046-1.93418E+01 2.10304E+00-3.91882E-01 9.88142E-01 3.49983E-01 1.72897E+00
 -1      3047-6.93440E+00 4.16886E+00-3.01026E-01 1.30672E+00 5.29178E-02 7.30220E-01
 -1      3048-7.16751E+00 5.82812E+00-2.05089E-01 4.04977E-01 4.14251E-01 4.03614E+00
 -1      3049-1.66721E+00 6.00564E+00-9.44214E-02 7.31834E-01 6.01280E-01 6.04665E-01
 -1      3050-3.33975E+01-5.00786E-01-1.28374E-01 1.01985E+00 2.50286E-02 1.12391E-01
 -1      3051-1.25795E+00 8.29457E+00-1.03979E-01 4.49582E-01 4.82981E-01 8.59244E-01
 -1      3052-9.18752E-01 7.15090E+00 5.82379E-02 1.23915E-01 4.94223E-01 4.04803E-02
 -1      3053-8.52291E-01 2.40971E+00 1.16472E-01 1.52158E+00 6.98001E-01 3.11723E-01
 -1      3054-1.93911E+01 2.92564E+00 6.63284E-01 5.54410E-01 3.68335E-02 3.58208E+00
 -1      3055-3.38526E+01-1.99075E+00 7.64698E-04 7.57569E-01-6.17728E-02 7.02123E-03
 -1      3056-3.38219E+01-1.06863E+00 6.74734E-03 3.60243E-01-4.32694E-02-6.17408E-03
 -1      3057-3.34050E+01-8.77926E-01-3.36985E-02-5.92264E-01 1.45083E-03-3.43813E-02
 -1      3058-3.13662E+01-6.86817E-01-3.94868E-01-6.15980E-01 2.42164E-02-3.17807E-01
 -1      3059-3.38065E+01-1.15506E+00 1.90356E-03 8.80649E-02-5.96606E-03-7.56596E-03
 -1      3060-3.23302E+01-8.49823E-01 3.45828E-02-9.03054E-02 1.94210E-02 9.93265E-02
 -1      3061-3.35323E+01-1.32922E+00-3.71654E-02 1.45272E-01-6.36676E-03-1.60999E-02
 -1      3062-3.19297E+01-7.22164E-01-7.17904E-02-3.15311E-01 1.02048E-02-3.06738E-01
 -1      3063-2.68361E+01 6.44662E-01-3.50268E-01-3.23033E-01 1.01505E-01-1.09369E+00
 -1      3064-2.90416E+01 1.48607E-02 2.30909E-01-8.40624E-01 1.21637E-01-1.08523E+00
 -1      3065-1.89279E+01 2.71913E+00-1.79769E-01-4.35252E-01-7.70721E-03-1.55774E+00
 -1      3066-2.01625E+01 1.40753E+00-2.69497E-01-1.36164E+00 3.24532E-01-2.04710E+00
 -1      3067-8.60248E+00 5.15927E+00 2.75622E-01-7.78621E-01 5.07919E-01-2.47320E+00
 -1      3068-2.05817E-01 5.40491E+00-4.27978E-01-9.48488E-01 7.99312E-01-8.20406E-01
 -1      3069-9.09785E-01 7.84502E+00-2.02130E-01-5.34534E-01 5.33090E-01-9.87875E-01
 -1      3070-2.90357E+01-4.49732E-01-3.86580E-01-1.65220E+00 2.41517E-02-3.55976E-01
 -1      3071-6.29819E+00 6.95496E+00-4.39791E-02-7.25057E-02 2.11073E-01-2.57008E+00
 -1      3072-3.30861E+01-1.18439E+00-1.12858E-01 1.62399E-01 2.33770E-02-3.47181E-02
 -1      3073-2.86809E+01 4.61146E-01 2.17284E-01 9.97694E-02 6.26235E-02 1.09542E+00
 -1      3074-1.88094E+01 3.47346E+00 5.33284E-02-5.91693E-02 8.22244E-02-1.84772E+00
 -1      3075-1.81455E+01 3.80732E+00 1.77735E-01-5.31621E-03-1.05762E-02 1.81142E+00
 -1      3076-3.37935E+01-1.39246E+00-5.12122E-03 1.06235E-01 1.52829E-02 5.77778E-03
 -1      3077-3.32294E+01-4.97553E-01-4.51327E-01 9.13509E-01 5.54106E-02 4.60636E-03
 -1      3078 4.51090E-01 2.32203E+00 9.19996E-03 1.20330E+00-7.38711E-01-3.37623E-01
 -1      3079-3.41216E+01-2.09949E-01-1.08476E-02 5.01401E-01 1.37405E-02 1.51448E-02
 -1      3080-3.40473E+01-2.55915E-01-5.96227E-02-5.50523E-01 1.20281E-02-1.04674E-01
 -1      3081-3.35292E+01-3.15382E-01-2.26367E-02 2.39574E-01-2.55129E-02 1.42868E-02
 -1      3082-3.38129E+01-1.89322E-01-5.27193E-02-2.55820E-01 2.22046E-02-3.78397E-02
 -1      3083-2.80776E+01 4.34102E-01-1.21821E-01-1.59075E-01-1.84992E-02 1.07228E+00
 -1      3084-3.36772E+01-1.37401E+00-4.24254E-03-7.63453E-02 1.26434E-02-2.56285E-03
 -1      3085-3.34415E+01-4.30439E+00-7.30407E-04-3.53426E-01 1.54386E-02-9.23521E-02
 -1      3086-3.36515E+01-1.50485E+00 6.54619E-04-4.39280E-02-4.76668E-03 9.37507E-04
 -1      3087-3.37739E+01-1.59804E+00-2.44458E-03-6.57556E-02 1.56721E-02-9.29976E-03
 -1      3088-3.33885E+01-4.19193E-01-6.01940E-02-6.66288E-01-2.81077E-02 2.14591E-02
 -1      3089-3.38573E+01-2.09604E+00-7.85577E-03-3.07013E-01-2.37768E-02 2.83305E-02
 -1      3090-3.35083E+01-2.09336E-01-1.76186E-02-2.28928E-01 8.40121E-03-1.53259E-02
 -1      3091-1.36987E+00 8.98610E+00-4.92896E-02 1.28988E-01 2.98128E-01 8.83276E-02
 -1      3092-3.37927E+01-3.16594E+00-3.17226E-03-2.06289E-01 1.40518E-02-5.63976E-03
 -1      3093-3.37818E+01-1.63577E+00-8.48165E-04 6.30692E-02-1.91336E-02-1.43199E-02
 -1      3094-1.44151E+00 9.38076E+00-2.18107E-01-6.21361E-02-1.77773E-01 7.51841E-01
 -1      3095-3.38439E+01-2.37407E+00-9.27366E-03-7.24797E-01-4.02179E-02 5.15105E-03
 -1      3096-1.42406E+00 9.49075E+00-1.60881E-02-2.94893E-02-1.97774E-01 1.57111E-02
 -1      3097-3.38063E+01-1.45153E+00-4.21768E-03-8.62183E-01-5.25051E-02 3.22620E-03
 -1      3098-7.66389E+00 7.26456E+00-6.46212E-02-4.49356E-02-5.70524E-02-2.67236E+00
 -1      3099-2.76561E+01 6.55324E-01-7.96681E-02 4.51150E-02 2.93947E-03-9.10667E-01
 -1      3100-9.18094E-01 9.20713E+00-3.90014E-01 5.95419E-02 2.94853E-01-8.51141E-01
 -1      3101-2.73000E+01 2.68743E-01-4.54941E-01 9.13841E-01-4.46099E-02-1.21980E+00
 -1      3102-2.75301E+01 5.73887E-01-2.53474E-03 3.37862E-01-9.28114E-02-1.27170E+00
 -1      3103-3.37772E+01-1.30458E+00-8.73602E-03-8.88315E-01 4.78927E-02 2.56628E-02
 -1      3104-3.35779E+01-1.27980E-01-2.72271E-02 4.74241E-02-1.21194E-02-2.52338E-02
 -1      3105-6.29563E+00 6.87778E+00-6.26846E-01-4.89678E-02 3.15649E-01 2.82477E+00
 -1      3106-3.38678E+01-1.74246E+00 1.31002E-02-3.33343E-01 3.54768E-02-8.85391E-03
 -1      3107-3.30820E+01-6.74802E+00 2.36836E+00 6.17666E-01-6.26526E-02-7.31815E-02
 -1      3108-3.26608E+01-5.22499E+00 1.00070E-01 1.20672E+00-7.80542E-03 2.25957E-01
 -1      3109-3.38328E+01-1.31877E-01-2.41355E-02-2.31898E-01-5.30890E-03 4.47003E-03
 -1      3110-3.20299E+01-4.53076E+00 2.57645E+00-4.15633E+00 2.04709E-01 1.13576E-01
 -1      3111-3.25258E+01-8.59907E-01 9.52230E-02-2.74727E+00 7.16805E-03-2.86817E-01
 -1      3112-3.40067E+01-2.26325E-01-7.90364E-02-5.20565E-01-1.93794E-02 8.17302E-02
 -1      3113-1.23246E+00 8.44821E+00 1.89314E-02-8.69169E-02 4.20670E-01-1.85630E-02
 -1      3114-6.13101E-01 6.43828E+00 4.28963E-02-2.85432E-01 5.22620E-01 3.30464E-02
 -1      3115-3.36776E+01-6.61932E-01-1.44881E-02 6.53590E-01 9.95038E-03 4.28899E-03
 -1      3116-3.38368E+01-1.37684E-01-2.05269E-02 2.50554E-01-1.09917E-02-3.65903E-02
 -1      3117-3.38458E+01-5.54839E-01-7.69005E-03 4.32900E-01 1.98417E-02 1.13078E-02
 -1      3118-3.37906E+01-5.64170E-01-6.34105E-03-2.01525E-01 2.97182E-02-1.95204E-02
 -1      3119-3.24135E+01-7.46427E-01-1.03438E-01-9.43117E-01 1.65139E-02-3.49729E-01
 -1      3120-1.77251E-01 5.18089E+00-3.25776E-02-6.04925E-01-7.48161E-02-1.16758E-01
 -1      3121-3.37654E+01-6.16168E-01-1.87030E-03 6.50633E-02-1.54730E-02-1.14129E-04
 -1      3122-3.35077E+01-6.69819E-01-1.12124E-01-7.33908E-01-1.96039E-03 1.24082E-02
 -1      3123-3.07817E-01 5.09001E+00-5.87905E-02 3.23437E-01 7.56928E-02-7.99688E-02
 -1      3124 3.82762E-01 1.90750E+00-1.87491E-01-1.29227E+00 6.28032E-01-5.36237E-01
 -1      3125-2.11764E+01 3.77449E-01 4.30640E-01-2.20073E+00 2.82273E-01-1.13736E+00
 -1      3126-3.37496E+01-1.07957E+00 8.03592E-03 8.14797E-01-2.59314E-02 1.70113E-02
 -1      3127-2.98230E+01-4.03175E-01-3.84257E-01 1.61545E+00 5.14098E-02 2.87119E-01
 -1      3128-1.43477E+00 5.44257E+00-7.06345E-02 1.16808E+00-7.56326E-01-9.12252E-01
 -1      3129-3.37586E+01-7.75133E-01 2.55057E-03-4.06830E-01-2.83536E-02 1.17794E-02
 -1      3130-3.21925E+01-7.04920E-01-3.25466E-01 1.00776E+00-8.19145E-02-4.56418E-01
 -1      3131-3.36445E+01-1.42825E+00 7.46719E-03-1.44575E+00-1.68886E-02-2.55362E-02
 -1      3132-3.33937E+01-1.09083E-01-1.31967E-02 1.79488E-01 6.70469E-04 2.84081E-02
 -1      3133-2.99053E+01-5.27210E-01-2.26928E-01-1.38366E+00-1.95430E-01 7.74956E-01
 -1      3134-3.28243E+01-2.62419E-01-1.22150E-01-1.12642E+00-4.81194E-02 6.63679E-02
 -1      3135-3.35472E+01-1.05349E-01-1.47350E-02 2.23248E-02 5.71152E-03 9.04230E-04
 -1      3136-2.12836E+01 2.69693E-01 4.55156E-01 2.26202E+00-2.16649E-01-1.36332E+00
 -1      3137-3.29027E+01-2.57719E-01-4.75249E-02 1.01452E+00-1.09673E-02-8.62346E-02
 -1      3138-3.27817E+01-2.39201E-01-1.12467E-01 1.08671E+00 4.32407E-02 7.01084E-02
 -1      3139-6.04327E+00 1.27788E+00-4.20564E-01 2.31459E+00 3.08060E-01 8.17357E-01
 -1      3140-6.18322E+00 1.91600E+00 6.27231E-03-2.10291E+00-6.86380E-01 3.65701E+00
 -1      3141-3.27831E+01-4.38242E+00 2.96561E-01 1.87886E+00-7.50025E-02 3.45108E-01
 -1      3142-3.35054E+01-2.35386E+00 1.26553E-02 1.50362E+00-2.63964E-02 1.32354E-01
 -1      3143-3.27141E+01-1.84704E+00 2.76299E+00-5.14100E+00-6.53673E-02-2.20296E-01
 -1      3144-3.27470E+01-1.96259E+00 2.63100E+00 5.09967E+00 6.60781E-02-2.01324E-01
 -1      3145-3.28075E+01-1.94121E+00 2.60431E+00 5.10800E+00-6.33401E-02 1.87061E-01
 -1      3146-3.28080E+01-1.97384E+00 2.61390E+00-5.11884E+00 4.30433E-02 1.75521E-01
 -1      3147-3.38353E+01-2.70979E+00-3.37950E-02-4.91975E-01 1.69562E-02-1.48727E-03
 -1      3148-3.35978E+01-3.91569E+00 1.30971E-02-4.61358E-01 2.94671E-02 3.26630E-02
 -1      3149-3.31200E+01-5.21095E+00 1.48846E-01-2.61121E-01 2.63892E-02 2.40189E-01
 -1      3150-3.36427E+01-7.23810E-01 2.55833E-03-5.35496E-01 3.77623E-02 3.43296E-02
 -1      3151-3.38655E+01-4.31943E-01-1.03946E-02 4.46318E-01-2.21156E-02-2.62658E-02
 -1      3152-3.37691E+01-4.27019E-01 1.13383E-02-1.61715E-01-1.55277E-02 1.41289E-02
 -1      3153-3.36881E+01-4.66988E-01-2.09211E-02-9.26619E-02-1.06307E-02-1.20829E-02
 -1      3154-3.36500E+01-5.62553E-01-4.95066E-02-7.89228E-01 2.16300E-02-3.38148E-02
 -1      3155 7.40481E-02 3.63211E+00 1.68892E-02-4.69250E-01 7.52806E-01-5.56305E-02
 -1      3156-3.83358E+01-6.06348E+00-2.98646E+00 7.21930E+00-6.71332E-01 2.78831E+00
 -1      3157-3.01368E+01-7.54115E-02 9.24620E-01 2.69319E+00 8.77783E-02-9.39987E-01
 -1      3158-3.39799E+01-7.92475E+00-3.68984E+00 5.91206E+00-2.14836E-01 3.78745E+00
 -1      3159-3.01706E+01-3.72952E-02 9.03976E-01-2.68389E+00 8.87333E-02 9.82593E-01
 -1      3160-3.83605E+01-6.08701E+00-3.01207E+00-7.24363E+00-7.05195E-01-2.83213E+00
 -1      3161-3.39842E+01-7.94189E+00-3.64523E+00-5.93746E+00-2.49858E-01-3.83964E+00
 -1      3162-3.82893E+01-6.02018E+00-3.00627E+00 7.21362E+00 6.68666E-01-2.83991E+00
 -1      3163-3.02017E+01-3.80952E-02 8.72461E-01 2.69932E+00-7.65978E-02 9.87317E-01
 -1      3164-3.39326E+01-7.91873E+00-3.66611E+00 5.91463E+00 2.12264E-01-3.79899E+00
 -1      3165-3.01355E+01-6.18318E-02 8.74646E-01-2.70863E+00-6.68141E-02-9.74547E-01
 -1      3166-3.82222E+01-5.98327E+00-2.92817E+00-7.22853E+00 6.81875E-01 2.83139E+00
 -1      3167-3.38911E+01-7.84271E+00-3.42828E+00-5.91108E+00 2.28063E-01 3.75189E+00
 -1      3168-3.20605E+01-6.74230E-01-2.64283E-01 2.08162E+00-2.25719E-01-1.51768E-01
 -1      3169-3.21950E+01-3.28953E-01-1.03121E-01 1.45355E+00 8.96056E-02-1.31101E-01
 -1      3170-3.17397E+01-1.22419E+00 2.72173E-01 3.74108E+00-1.33793E-01-1.78321E-01
 -1      3171-3.22136E+01-1.79683E-01-1.06766E-01 7.50227E-01-6.04433E-02-1.54177E-01
 -1      3172-3.24637E+01-5.83612E-02-5.75456E-02 5.98341E-01 1.15653E-02-1.14097E-01
 -1      3173-3.27203E+01-4.17246E-01 3.52661E-02 1.70385E+00 2.90073E-04-1.12456E-01
 -1      3174-3.28275E+01-1.57707E-01-8.59716E-02 4.39112E-01-1.32097E-02-2.78722E-02
 -1      3175-3.29980E+01-1.15160E-01-3.17866E-02 3.42145E-01-8.43368E-03-4.86258E-02
 -1      3176-3.31344E+01-2.72895E-01-4.14913E-02 7.99747E-01-8.57907E-03-1.37815E-02
 -1      3177-3.30282E+01-5.96217E-02 5.61850E-03 1.44266E-01-2.97643E-02-5.78770E-02
 -1      3178-3.32121E+01-3.84838E-02-1.64217E-02 1.11026E-01-1.42975E-02-3.33194E-03
 -1      3179-3.33565E+01-1.82516E-01 6.00437E-03 4.06945E-01-1.45847E-03-1.67635E-02
 -1      3180-3.33483E+01-7.59477E-02-1.68980E-02 4.30309E-02 1.55880E-02 2.10763E-03
 -1      3181-3.35767E+01-8.45439E-02-3.10812E-02-2.05090E-02-6.47142E-03 1.63942E-02
 -1      3182-3.35036E+01-1.39020E-01-1.29727E-02 1.05987E-01 1.67140E-02 4.42061E-02
 -1      3183-3.36572E+01-7.37748E-02-2.35924E-02-1.07729E-01 1.23163E-02-1.18107E-02
 -1      3184-3.38485E+01-6.87019E-02-2.24363E-02-1.67416E-01 1.89368E-02-2.63943E-02
 -1      3185-3.37486E+01-1.85433E-01-1.59484E-02-1.26641E-01 1.40148E-02 2.47620E-03
 -1      3186-3.40732E+01-1.38115E-01-7.01910E-02-2.70115E-01-1.10306E-02-6.09776E-02
 -1      3187-3.40854E+01-1.05677E-01-6.00346E-02-4.09738E-01 1.98926E-02-4.72195E-02
 -1      3188-3.39826E+01-2.31240E-01-7.01568E-02-3.79597E-01 2.78581E-02-7.90669E-02
 -1      3189-3.40772E+01-1.94569E-01-6.99988E-02-5.90143E-01-3.23518E-02-4.73469E-03
 -1      3190-3.35948E+01-3.33806E-01-6.97661E-02-7.61390E-01-8.43978E-02 4.34178E-01
 -1      3191-3.39302E+01-3.13470E-01-2.88527E-02-7.30280E-01 1.29809E-02 2.28435E-02
 -1      3192-3.19973E+01-4.50340E-01-2.34280E-01-8.01872E-01 2.73381E-02 7.38372E-01
 -1      3193-2.87025E+01-3.51536E-01-6.57439E-01-1.74320E+00-1.59992E-01 4.50917E-01
 -1      3194-3.24566E+01-4.35741E-01 5.79881E-02-1.16011E+00-4.44571E-02 5.33171E-01
 -1      3195-2.48201E+01-1.66478E-01 1.30701E-01-2.60409E+00-1.28488E-02 2.69676E-01
 -1      3196-1.62967E+01 3.96322E-01-6.98548E-01-2.97980E+00-9.34406E-02 7.58474E-01
 -1      3197-2.38923E+01 1.03661E-01 3.30466E-01-1.88522E+00-3.22851E-01 1.87990E+00
 -1      3198-1.05999E+01 9.00164E-01 5.93564E-01-2.59999E+00-9.19869E-03 2.33999E+00
 -1      3199-3.20073E+00 1.03037E+00-7.06364E-02-2.30607E+00 1.88551E-02 5.95271E-01
 -1      3200-1.53957E+01 4.10412E-01 1.99403E-01-1.89030E+00-2.98534E-01 3.37459E+00
 -1      3201-1.22414E+00 1.06081E+00 8.39226E-02-1.85324E+00 4.30670E-02 3.81970E-01
 -1      3202 5.50822E-01 1.16550E+00-7.63200E-02-9.05089E-01-1.56702E-01 2.83542E-01
 -1      3203-3.84265E+00 1.81335E+00-8.94541E-01-1.81759E+00-7.29222E-01 1.72147E+00
 -1      3204 1.76376E+00 1.03041E+00-1.02275E-02-3.14455E-01 8.51664E-02 1.79089E-01
 -1      3205 1.90960E+00 8.97704E-01 2.01547E-01 2.43666E-01-1.06222E-01-6.71140E-02
 -1      3206 5.59226E-01 1.99430E+00-2.01390E-01-7.69533E-01-2.99114E-01 3.49003E-01
 -1      3207 1.18084E+00 1.20756E+00 1.19518E-01 8.91393E-01-3.14496E-01 5.52775E-02
 -1      3208-9.20213E-01 1.18098E+00 4.69778E-02 1.65458E+00-9.72088E-02-2.50300E-01
 -1      3209 7.71889E-01 1.86981E+00 3.14413E-03 5.63850E-01-5.80972E-01-1.60778E-01
 -1      3210-2.59682E+00 1.50933E+00-2.58597E-01 2.08681E+00-8.77953E-03-1.43464E-01
 -1      3211-9.64026E+00 8.40074E-01 8.72226E-02 1.92376E+00-5.47570E-02-2.00861E+00
 -1      3212-2.38778E+00 2.34197E+00 3.90440E-01 1.60214E+00-4.90241E-01-1.04819E+00
 -1      3213-1.69703E+01 6.62780E-02 2.18439E-01 1.92909E+00-2.75973E-01-2.38738E+00
 -1      3214-2.44997E+01 1.43729E-02 1.69493E-01 1.83166E+00-1.04778E-01-9.88614E-01
 -1      3215-1.28286E+01 1.50580E+00 5.44976E-01 2.59592E+00-5.36568E-01-1.95052E+00
 -1      3216-2.84504E+01-2.02002E-01-3.69155E-01 1.80978E+00-1.09832E-01-3.55394E-01
 -1      3217-3.25225E+01-6.28786E-01-4.39204E-01 1.20028E+00-4.48158E-02 6.08073E-02
 -1      3218-2.63173E+01-3.81287E-01-3.85087E-01 2.09112E+00-5.45271E-02-4.30877E-01
 -1      3219-3.32233E+01-1.93625E-01-2.39868E-01 8.56178E-01 3.46975E-02 6.62694E-02
 -1      3220-3.39605E+01-3.10381E-01-2.16698E-01 5.07164E-01 4.47978E-02-7.76610E-02
 -1      3221-3.25945E+01-8.77020E-01-7.73464E-01 1.11973E+00-5.23419E-02-9.69785E-02
 -1      3222-3.41464E+01-1.50139E-01 1.26536E-02 3.60876E-01-2.95280E-02-1.12124E-01
 -1      3223-3.39896E+01-7.23721E-02-1.95258E-02 2.49727E-01 2.66147E-03 3.13335E-03
 -1      3224-3.40159E+01-3.30332E-01-3.18475E-02 7.47583E-01-1.17526E-02-7.43525E-02
 -1      3225-3.39070E+01-9.31369E-02-2.38931E-02 1.70718E-01 2.32844E-03 9.97623E-03
 -1      3226-3.37036E+01-9.98549E-02-3.55305E-02 1.08230E-01 8.27195E-03 2.82092E-02
 -1      3227-3.39607E+01-2.04671E-01-3.48628E-02 3.90101E-01 3.10145E-02 5.54588E-02
 -1      3228-3.34995E+01-3.45491E-02-1.19126E-02 1.93212E-02 3.13480E-03 1.18878E-02
 -1      3229-3.32895E+01-3.92920E-02-1.09368E-02-3.66448E-02 6.62462E-04 6.96890E-03
 -1      3230-3.37401E+01-1.60485E-01-2.49934E-02 1.19764E-01 1.23760E-02 2.22054E-02
 -1      3231-3.32950E+01-7.40900E-02-2.65764E-02-1.22717E-01-1.87299E-03-1.29476E-02
 -1      3232-3.31327E+01-9.26739E-02-2.45120E-02-1.70616E-01-1.23888E-02 4.28752E-02
 -1      3233-3.35153E+01-1.55630E-01 3.27267E-04-1.01323E-01-2.17335E-03-1.14556E-02
 -1      3234-3.29895E+01-1.05707E-01-1.97660E-02-3.44548E-01-6.72950E-03 4.75581E-02
 -1      3235-3.28545E+01-1.71787E-01-4.73289E-02-4.15641E-01-3.08580E-02 1.02261E-01
 -1      3236-3.34467E+01-2.50116E-01-1.92175E-02-4.40516E-01 2.34260E-02-1.28961E-02
 -1      3237-3.24869E+01-1.12221E-01-8.89938E-02-6.26119E-01-5.97824E-02 1.62793E-01
 -1      3238-3.21706E+01-1.78273E-01-1.34283E-01-7.59117E-01-5.99297E-02 1.60290E-01
 -1      3239-3.31124E+01-2.40973E-01-3.89916E-02-8.81279E-01-4.77194E-02 5.83442E-02
 -1      3240-3.21591E+01-2.99567E-01-1.08199E-01-1.50408E+00 8.06857E-02 1.39218E-01
 -1      3241-3.20798E+01-6.94288E-01-2.61543E-01-2.11059E+00-2.35715E-01 1.61288E-01
 -1      3242-3.25940E+01-3.72731E-01-8.59506E-03-1.79044E+00-1.63023E-02 9.53602E-02
 -1      3243-3.17964E+01-1.19256E+00 4.10193E-01-3.75992E+00-1.04496E-01 2.84616E-01
 -1      3244-3.21306E+01-6.97463E-01-2.61058E-01 2.09491E+00 2.22390E-01 1.63294E-01
 -1      3245-3.21590E+01-3.19201E-01-1.07997E-01 1.47525E+00-8.51981E-02 1.34470E-01
 -1      3246-3.18799E+01-1.17416E+00 4.39600E-01 3.72596E+00 9.62586E-02 3.04494E-01
 -1      3247-3.21541E+01-1.69218E-01-1.26732E-01 7.27659E-01 4.85454E-02 1.60185E-01
 -1      3248-3.24456E+01-1.00223E-01-8.21979E-02 5.99945E-01 5.27195E-02 1.66295E-01
 -1      3249-3.25391E+01-3.71003E-01-2.77250E-02 1.71621E+00-9.15757E-03 1.16904E-01
 -1      3250-3.27483E+01-1.32310E-01-4.94027E-02 3.87613E-01 3.63277E-02 1.26402E-01
 -1      3251-3.29322E+01-9.11735E-02-2.18836E-02 3.31828E-01 1.75620E-02 7.22678E-02
 -1      3252-3.30287E+01-1.86692E-01-4.37416E-02 8.42412E-01 5.70686E-02 7.91687E-02
 -1      3253-3.31750E+01-1.37487E-01-3.61835E-02 1.87776E-01 8.52698E-03 5.76690E-02
 -1      3254-3.33102E+01-1.02247E-01-2.87448E-02 1.42527E-01-6.97433E-03-7.80345E-03
 -1      3255-3.34400E+01-2.44174E-01-2.25058E-02 4.50262E-01-1.40859E-03 7.70615E-03
 -1      3256-3.33383E+01-5.85032E-02-1.81217E-02 3.68094E-02-2.33085E-03-2.36747E-03
 -1      3257-3.35236E+01-5.05347E-02-2.01207E-02-3.27078E-02-3.10878E-03 1.27404E-03
 -1      3258-3.35312E+01-1.88802E-01 4.84579E-03 1.08713E-01-2.03498E-02 4.65395E-03
 -1      3259-3.36731E+01-5.51231E-02-1.99963E-02-1.10059E-01 8.81754E-03 1.53570E-02
 -1      3260-3.38845E+01-7.49266E-02-1.46737E-02-1.52344E-01 8.49409E-03-1.62003E-02
 -1      3261-3.37148E+01-1.33423E-01-1.82186E-02-1.35578E-01-1.47903E-02 3.29546E-04
 -1      3262-3.40143E+01-1.19820E-01-6.21570E-02-2.53439E-01-2.38672E-03 1.91158E-02
 -1      3263-3.40551E+01-1.02565E-01-7.28679E-02-3.93430E-01-2.18505E-02 3.11013E-02
 -1      3264-3.40103E+01-1.79393E-01-2.02905E-02-3.69601E-01-1.19011E-02-2.38672E-03
 -1      3265-3.40767E+01-1.96723E-01-7.03793E-02-5.41813E-01 3.49018E-02 3.09361E-02
 -1      3266-3.36833E+01-3.42504E-01-4.66411E-02-7.74706E-01 7.58231E-02-3.47474E-01
 -1      3267-3.39720E+01-3.15545E-01-7.10450E-02-6.77536E-01-1.60538E-02 1.80974E-02
 -1      3268-3.20022E+01-5.39865E-01-4.70841E-01-1.03182E+00-7.04994E-02-3.91948E-01
 -1      3269-2.84924E+01-2.28032E-01-5.39000E-01-1.78176E+00 4.43536E-02-3.66884E-01
 -1      3270-3.24809E+01-5.63564E-01-7.53523E-02-1.26961E+00 2.14199E-02-3.71223E-01
 -1      3271-2.44962E+01 7.22282E-02 1.01197E-01-1.80873E+00 1.53963E-01-8.04805E-01
 -1      3272-1.70028E+01 4.00924E-02 1.61888E-01-1.95185E+00 3.49084E-01-2.27396E+00
 -1      3273-2.58322E+01-3.76669E-01-3.69536E-01-2.01831E+00-6.65643E-03-2.68264E-01
 -1      3274-9.20328E+00 7.67931E-01 1.63980E-01-1.95611E+00 3.66205E-02-2.15919E+00
 -1      3275-2.52705E+00 1.32515E+00-3.21858E-01-2.20812E+00 3.15679E-02-1.70735E-01
 -1      3276-1.20960E+01 1.75959E+00 8.47106E-01-2.44885E+00 4.85679E-01-2.13999E+00
 -1      3277-1.01702E+00 9.45595E-01 5.96807E-02-1.74866E+00 6.25776E-02-3.81942E-01
 -1      3278 1.10139E+00 8.87163E-01 9.99026E-02-9.01792E-01 3.01210E-01-1.67391E-01
 -1      3279-2.69911E+00 1.89696E+00 1.74187E-02-1.73044E+00 3.54180E-01-1.02750E+00
 -1      3280 1.81459E+00 1.01590E+00 1.96218E-01-2.41968E-01 3.20464E-02-1.36779E-01
 -1      3281 1.58636E+00 1.09874E+00 1.94362E-02 2.94577E-01-6.72996E-02 1.76637E-01
 -1      3282 6.34738E-01 1.62368E+00-1.82052E-01-6.86420E-01 4.05456E-01-2.20242E-02
 -1      3283 3.58333E-01 1.32867E+00 2.36315E-03 9.35502E-01 2.74639E-01 2.24734E-01
 -1      3284-9.43019E-01 1.30298E+00-1.98636E-02 1.67690E+00 1.82447E-01 2.90588E-01
 -1      3285 2.06110E-01 1.96231E+00-1.40767E-01 7.41353E-01 3.33137E-01 2.70137E-01
 -1      3286-2.75545E+00 8.01141E-01-1.74413E-01 1.92261E+00-3.33097E-02 5.53430E-01
 -1      3287-1.00893E+01 4.00120E-01-2.44769E-01 1.83845E+00-7.55989E-02 1.86270E+00
 -1      3288-2.47401E+00 2.12463E+00 8.52763E-02 2.26478E+00 4.09506E-01-2.13001E-01
 -1      3289-1.70088E+01 3.36988E-01 5.62834E-02 1.92939E+00 2.74385E-01 1.82513E+00
 -1      3290-2.50628E+01-7.96137E-02 1.93456E-01 1.89497E+00 4.61798E-02 3.50232E-01
 -1      3291-1.35677E+01 8.83801E-01-4.09667E-01 2.39112E+00 3.30115E-01 1.61738E+00
 -1      3292-2.85923E+01-2.91461E-01-5.50583E-01 1.68583E+00 8.19854E-02 3.70595E-01
 -1      3293-3.21710E+01-4.40609E-01-4.12738E-01 9.40302E-01-8.03412E-02 5.07378E-01
 -1      3294-2.62409E+01-3.38216E-01-3.01630E-01 1.88523E+00 2.02247E-01 5.00336E-01
 -1      3295-3.36333E+01-3.60210E-01-1.41470E-01 8.37158E-01 5.59920E-02 3.82956E-01
 -1      3296-3.38947E+01-2.16513E-01-7.63944E-02 6.19816E-01 1.02495E-02 1.23471E-01
 -1      3297-3.24406E+01-5.48893E-01-2.01301E-01 1.35765E+00 3.66473E-02 3.18139E-01
 -1      3298-3.41986E+01-1.79077E-01-3.39277E-02 3.82719E-01 2.19971E-02 7.66906E-02
 -1      3299-3.40091E+01-9.87437E-02-3.27393E-02 2.74931E-01 1.13720E-02-3.15863E-02
 -1      3300-3.38919E+01-3.65126E-01-1.85668E-02 7.74188E-01 2.36741E-02 1.03835E-01
 -1      3301-3.38364E+01-4.56931E-02-2.08735E-02 1.67718E-01-7.41633E-03-1.45784E-02
 -1      3302-3.36857E+01-6.92562E-02-3.15139E-02 9.62792E-02 9.72316E-03-2.75662E-02
 -1      3303-3.39456E+01-1.75476E-01-2.77425E-02 3.58075E-01-1.85784E-02-1.20923E-02
 -1      3304-3.34911E+01-3.22371E-02-1.14473E-02 2.38099E-02-8.84065E-03-1.69502E-02
 -1      3305-3.33579E+01-6.91378E-02-2.32996E-02-8.98877E-03 1.36729E-02-4.13893E-02
 -1      3306-3.37081E+01-1.40058E-01-1.78776E-02 1.34077E-01-1.48910E-02-3.16395E-02
 -1      3307-3.32257E+01-4.94290E-02-4.60682E-03-1.08719E-01 1.34057E-02-2.21600E-02
 -1      3308-3.30673E+01-7.84627E-02-2.22185E-02-1.46845E-01 2.41327E-02-6.14172E-02
 -1      3309-3.35320E+01-1.32955E-01-1.39689E-02-8.84196E-02 7.62492E-03-8.88135E-03
 -1      3310-3.29962E+01-1.49149E-01-2.29152E-02-3.71480E-01 1.04490E-02-5.72131E-02
 -1      3311-3.27783E+01-1.90287E-01-7.22681E-02-4.74596E-01-3.09676E-02 2.10233E-02
 -1      3312-3.33851E+01-2.38818E-01-3.28513E-03-4.34275E-01-1.52506E-02-3.06102E-02
 -1      3313-3.27983E+01-2.49606E-01-1.28609E-01-7.61196E-01 3.74650E-02 4.16608E-02
 -1      3314-3.22101E+01-2.28371E-01-1.44498E-01-9.98406E-01 2.54922E-02-1.21198E-02
 -1      3315-3.32868E+01-4.31010E-01-9.41393E-03-9.73353E-01-1.14597E-02 3.29469E-02
 -1      3316-3.21349E+01-2.77922E-01-1.03840E-01-1.50058E+00-4.89214E-02-1.96965E-01
 -1      3317-3.20538E+01-7.85756E-01-3.51935E-01-2.09709E+00 1.94515E-01-2.18989E-01
 -1      3318-3.25891E+01-6.09595E-01 9.36417E-02-2.03095E+00-3.97075E-02-1.69617E-01
 -1      3319-3.17114E+01-1.12211E+00 3.91853E-01-3.86173E+00 8.34586E-02-3.16058E-01
 -1      3320-3.36166E+01-8.57977E+00-2.62247E+00 3.95121E+00 3.86081E-01 3.20696E+00
 -1      3321-3.33039E+01-8.50645E+00-2.98010E+00 5.29007E+00 2.06955E-01 3.25413E+00
 -1      3322-3.21087E+01-3.40314E+00 2.79242E+00 4.80396E+00 1.93129E-01-4.04069E-01
 -1      3323-3.56325E+01-1.04614E+01-4.64291E+00 2.59394E+00-1.20758E-01 4.29569E+00
 -1      3324-3.41672E+01-9.43047E+00-2.63452E+00 3.38390E+00-8.35600E-03 3.39841E+00
 -1      3325-3.12605E+01-5.55622E+00 1.99326E-01 3.49972E+00 4.07369E-03-5.51055E-01
 -1      3326-3.51029E+01-1.01500E+01-2.89470E+00 1.16296E+00 2.63956E-01 3.54372E+00
 -1      3327-3.49748E+01-1.02028E+01-3.40258E+00 2.11448E+00-1.46135E-02 3.79484E+00
 -1      3328-3.25326E+01-6.12234E+00 2.55992E+00 2.13331E+00 1.63853E-01-5.44097E-02
 -1      3329-3.56063E+01-1.06648E+01-3.53237E+00 1.02441E-01 7.62687E-02 3.98658E+00
 -1      3330-3.52093E+01-1.02916E+01-2.86923E+00 9.38878E-01-2.52719E-01 3.58225E+00
 -1      3331-3.18961E+01-7.18059E+00 1.00367E-01 1.01877E+00 2.22482E-02-3.52468E-01
 -1      3332-3.55717E+01-1.03695E+01-2.72053E+00-9.64600E-01 1.00912E-01 3.56435E+00
 -1      3333-3.68436E+01-1.11636E+01-4.89474E+00-1.94645E-01 1.77677E-01 4.53107E+00
 -1      3334-3.26274E+01-6.74474E+00 2.91135E+00 7.90961E-02-1.61556E-01-2.24122E-01
 -1      3335-3.51024E+01-1.03008E+01-3.40069E+00-2.09099E+00 9.73951E-04 3.74147E+00
 -1      3336-3.52444E+01-1.01992E+01-3.00799E+00-1.17455E+00-3.15358E-01 3.52170E+00
 -1      3337-3.18172E+01-7.06037E+00 3.40048E-01-1.06094E+00 1.60841E-01-6.03913E-01
 -1      3338-3.41176E+01-9.34094E+00-2.59635E+00-3.32571E+00-3.75220E-02 3.43425E+00
 -1      3339-3.54625E+01-1.03832E+01-4.45416E+00-2.60523E+00 8.26649E-02 4.28138E+00
 -1      3340-3.24543E+01-6.10659E+00 2.65225E+00-2.15781E+00-2.03492E-01-1.26420E-01
 -1      3341-3.31799E+01-8.48135E+00-2.69771E+00-5.30139E+00-2.49846E-01 3.16830E+00
 -1      3342-3.36568E+01-8.61700E+00-2.73455E+00-4.05195E+00-4.27239E-01 3.23940E+00
 -1      3343-3.12667E+01-5.49667E+00 2.50602E-01-3.50598E+00 6.03403E-02-5.34909E-01
 -1      3344-3.19574E+01-3.26510E+00 3.01591E+00-4.81552E+00-2.59067E-01-4.72020E-01
 -1      3345-3.45394E+01-9.49446E+00-4.36412E+00 4.14928E+00-6.96821E-03-3.99583E+00
 -1      3346-3.36924E+01-8.70936E+00-3.20127E+00 5.05179E+00-2.45848E-01-3.46668E+00
 -1      3347-3.20671E+01-3.39595E+00 2.92607E+00 4.74202E+00-1.63002E-01 3.63541E-01
 -1      3348-3.49411E+01-9.89421E+00-3.56516E+00 2.41906E+00-2.06435E-01-3.68769E+00
 -1      3349-3.42455E+01-9.52595E+00-3.29208E+00 3.53269E+00 6.73070E-02-3.41572E+00
 -1      3350-3.20185E+01-5.05512E+00 2.45470E+00 3.54934E+00-1.94961E-01 4.38389E-01
 -1      3351-3.58796E+01-1.07356E+01-3.82943E+00 1.41795E+00-1.86969E-02-4.10330E+00
 -1      3352-3.59536E+01-1.08686E+01-4.69618E+00 1.85452E+00-2.04633E-01-4.36715E+00
 -1      3353-3.23080E+01-6.02808E+00 2.46619E+00 2.22841E+00 1.55792E-02 2.95961E-01
 -1      3354-3.58416E+01-1.06799E+01-3.67549E+00 3.84160E-01-8.34763E-02-3.96275E+00
 -1      3355-3.61280E+01-1.09468E+01-4.52790E+00 7.20100E-01-2.26748E-01-4.27758E+00
 -1      3356-3.26222E+01-6.50182E+00 2.97497E+00 1.10445E+00-2.91867E-02 1.19727E-01
 -1      3357-3.56585E+01-1.02813E+01-3.33072E+00-7.16111E-01 1.07629E-01-3.60295E+00
 -1      3358-3.61281E+01-1.06550E+01-4.20271E+00-2.82762E-01-1.43053E-01-3.95437E+00
 -1      3359-3.28393E+01-6.53065E+00 2.96465E+00 1.39432E-01 1.73330E-04 2.08279E-01
 -1      3360-3.53453E+01-1.05106E+01-3.58923E+00-1.77438E+00 1.34736E-01-4.01658E+00
 -1      3361-3.59795E+01-1.09876E+01-5.01316E+00-1.37986E+00 5.55390E-02-4.32216E+00
 -1      3362-3.27918E+01-6.30855E+00 3.06010E+00-9.66259E-01 3.43820E-02 1.41205E-01
 -1      3363-3.47787E+01-9.82399E+00-3.42348E+00-3.31853E+00 1.49029E-01-3.64324E+00
 -1      3364-3.59390E+01-1.05526E+01-4.82795E+00-2.59075E+00-2.56588E-02-4.18956E+00
 -1      3365-3.20263E+01-5.95551E+00 3.03416E+00-1.96861E+00 7.41612E-02 1.90619E-01
 -1      3366-3.37869E+01-8.85013E+00-3.35936E+00-5.08470E+00 2.45169E-01-3.58853E+00
 -1      3367-3.47512E+01-9.72429E+00-4.72333E+00-4.15514E+00 5.47376E-02-4.05576E+00
 -1      3368-3.19127E+01-4.99833E+00 2.92763E+00-3.55595E+00 6.82533E-02 3.00101E-01
 -1      3369-3.20537E+01-3.44496E+00 2.88396E+00-4.79403E+00 1.49004E-01 3.30470E-01
 -1      3370-2.84111E-01 3.92873E+00-2.32981E-01-1.02102E+00-2.34143E-01 2.38638E-01
 -1      3371 4.40876E-01 3.47447E+00-4.61307E-02-3.60786E-01-1.76152E-01-8.91956E-02
 -1      3372 9.09986E-02 4.08199E+00-1.42334E-01 6.56986E-01-5.90995E-01-2.89989E-01
 -1      3373 1.94840E-01 3.83214E+00-6.83012E-02 1.94029E-01-2.98447E-01 8.40325E-02
 -1      3374-3.04581E-01 5.61311E+00 3.03814E-02-1.44694E-01-1.33190E-01-6.26987E-03
 -1      3375-3.10278E+01-4.83708E-01 7.31270E-02-1.09651E+00-2.12470E-01 8.71126E-01
 -1      3376-3.19022E+01-3.02728E-01 1.57951E-01-1.31295E+00-1.29855E-01 5.30990E-01
 -1      3377-3.30486E+01-6.54355E-01-1.34044E-01-9.84168E-01-4.09235E-02 1.61913E-01
 -1      3378-3.33699E+01-5.31154E-01-7.84379E-02-9.59242E-01-5.25236E-02 8.80167E-02
 -1      3379-3.31418E+01-7.70692E-01-7.83634E-02-7.90054E-01-2.56513E-02 1.24505E-01
 -1      3380-3.04608E+01-2.74575E-01 6.63667E-02-1.45665E+00-1.69814E-01 1.41788E+00
 -1      3381-3.39178E+01-5.02272E-01-9.88683E-02-6.44115E-01 4.01719E-03-1.99182E-02
 -1      3382-3.31890E+01-6.50839E-01-1.40740E-01-1.08399E+00 2.48572E-02-1.31133E-01
 -1      3383-3.15503E+01-6.43757E-01 3.29222E-03-1.34786E+00 9.59557E-02-3.41564E-01
 -1      3384-3.39160E+01-4.03079E-01-5.14311E-02-6.82611E-01 1.37147E-02 1.01454E-02
 -1      3385-3.36332E+01-4.89271E-01-5.23954E-02-9.01062E-01 5.18621E-02-9.67234E-02
 -1      3386-3.31455E+01-7.11393E-01-1.47397E-01-9.37421E-01 2.65766E-02-1.32931E-01
 -1      3387-3.36819E+01-4.80832E-01-1.72024E-02 1.77887E-01-1.33733E-02 1.53021E-02
 -1      3388-3.37038E+01-3.64181E-01 3.83709E-03 1.52492E-02-1.86400E-02-3.40908E-03
 -1      3389-3.37121E+01-2.87396E-01-3.34747E-03-8.51309E-02-7.25656E-03 1.24888E-02
 -1      3390-3.37793E+01-2.66785E-01-3.10018E-03-2.11103E-01-8.97917E-03 5.69622E-03
 -1      3391-3.37656E+01-5.12683E-01 1.89773E-02-4.89445E-02-5.70679E-03 8.89816E-03
 -1      3392-3.37600E+01-7.55694E-01-1.60800E-03 2.01226E-01 2.25627E-02-6.36232E-03
 -1      3393-3.37152E+01-5.03466E-01-2.17722E-03 4.34528E-02 1.34372E-02-2.58208E-03
 -1      3394-3.36270E+01-3.95637E-01 1.14801E-02 1.82259E-01 2.12023E-02-1.25745E-02
 -1      3395-3.35467E+01-3.70038E-01 3.02175E-03 2.88441E-01 2.97662E-02 4.87383E-03
 -1      3396-3.37878E+01-6.72811E-01 7.35946E-03-5.73828E-02 1.50374E-02-5.64015E-03
 -1      3397-3.37550E+01-3.81050E-01-1.69308E-02-7.25666E-02 2.47953E-03-1.06163E-02
 -1      3398-3.37871E+01-3.52027E-01-1.24836E-02-2.24095E-01 1.14132E-02-1.21189E-02
 -1      3399-1.26783E+01 3.79779E+00 4.47688E-01-1.31004E+00 2.95691E-01-1.57425E+00
 -1      3400-7.59354E+00 4.04493E+00 9.29577E-02-1.41455E+00 7.75948E-01-2.73875E+00
 -1      3401-1.14304E+01 3.01367E+00 4.37692E-01-1.96071E+00 4.83618E-01-1.98936E+00
 -1      3402-2.03434E+01 1.13610E+00 2.21169E-01-1.96551E+00 1.94788E-01-1.65162E+00
 -1      3403-3.58820E+00 5.56395E+00 3.53089E-01-9.58382E-01 5.87698E-01-1.54651E+00
 -1      3404-3.01413E+00 4.27154E+00 2.89413E-01-1.40341E+00 5.06531E-01-1.62382E+00
 -1      3405 9.36292E-02 3.45955E+00-3.67300E-01-1.32156E+00 8.55503E-01-1.01059E+00
 -1      3406-1.99083E+01 1.40867E+00-2.64376E-02 1.72297E+00 2.51152E-01 1.55330E+00
 -1      3407-2.48748E+01 4.95756E-01-8.10001E-01 9.13120E-01 3.95231E-01 1.45382E+00
 -1      3408-2.55725E+01-1.41136E-01-4.14433E-01 1.72664E+00 2.27469E-01 1.11609E+00
 -1      3409-2.99149E+01-3.67807E-01-2.27484E-01 1.59246E+00 7.97195E-02 7.97400E-01
 -1      3410-1.40852E+01 2.19353E+00-2.75693E-01 1.84113E+00 4.29076E-02 1.17971E+00
 -1      3411-1.33832E+01 3.24117E+00-3.36468E-01 1.33328E+00-7.16134E-02 1.08860E+00
 -1      3412-6.33882E+00 2.87816E+00-3.18754E-01 1.91881E+00 3.56324E-01 9.62031E-01
 -1      3413-2.45428E+01 6.91741E-01-4.46465E-01 1.61572E+00-2.32818E-01-1.24834E+00
 -1      3414-2.90053E+01-2.44169E-01-2.45766E-01 1.35191E+00-3.04700E-02-1.24467E+00
 -1      3415-2.53113E+01-6.79424E-02-2.54855E-01 1.52456E+00-2.83835E-02-1.46757E+00
 -1      3416-2.05526E+01 9.47772E-01 4.02699E-01 2.01896E+00-2.22975E-01-2.00117E+00
 -1      3417-3.15012E+01-6.89844E-01-7.02453E-01 1.18527E+00-2.49552E-01-6.09719E-01
 -1      3418-3.30226E+01-5.90551E-01-3.97723E-01 9.87042E-01 4.76916E-02-3.59024E-01
 -1      3419-3.06429E+01-8.32433E-01-1.00077E+00 1.00675E+00-5.38289E-02-6.92570E-01
 -1      3420-3.36908E+01-6.77080E-01-5.33307E-02 8.32802E-01 3.40645E-02 9.07093E-02
 -1      3421-3.39451E+01-4.92586E-01-6.77618E-02 6.31626E-01-1.89076E-03-1.74506E-02
 -1      3422-3.38078E+01-5.49698E-01-2.52424E-02 5.62095E-01-1.57964E-02-1.88472E-02
 -1      3423-3.39068E+01-3.28336E-01-2.29479E-02 4.93604E-01-9.94560E-03 8.60098E-03
 -1      3424-3.38838E+01-2.91810E-01-7.26028E-03 3.36209E-01-1.01248E-02-1.96672E-02
 -1      3425-3.37835E+01-5.97362E-01-1.67502E-02 9.15934E-02 1.98895E-02-6.55735E-03
 -1      3426-3.37838E+01-3.30985E-01-9.91966E-03 1.12787E-01 4.53066E-03 1.85721E-02
 -1      3427-3.38237E+01-4.65345E-01-1.70518E-03 2.41920E-01 1.55816E-02 8.47713E-03
 -1      3428-3.38270E+01-3.95469E-01-3.64048E-02 3.47076E-01 1.53383E-02 2.70853E-02
 -1      3429-3.38137E+01-6.31715E-01 1.73581E-02 3.22879E-01 1.49288E-02 9.25906E-03
 -1      3430-3.36341E+01-2.56641E-01-5.44384E-03 1.21655E-02 1.43241E-02 6.97246E-03
 -1      3431-3.39953E+01-4.16082E-01-2.28637E-02 5.10039E-01 1.89477E-02 1.82507E-02
 -1      3432-3.16155E+01-5.96995E+00 7.99823E-01-8.99356E-01 5.75292E-02-6.42879E-01
 -1      3433-3.27987E+01-5.58016E+00 2.35520E-01-4.58531E-01-2.70723E-02-3.06279E-01
 -1      3434-3.14761E+01-6.01023E+00 7.47839E-01-2.73847E-01 4.25927E-03-7.59164E-01
 -1      3435-3.21201E+01-6.40270E+00 2.81489E-01 3.06280E-01-1.88251E-02-2.52178E-01
 -1      3436-3.19418E+01-5.99262E+00 3.48469E-01-1.11848E+00-1.72272E-02-2.48665E-01
 -1      3437-3.23450E+01-6.32029E+00 2.65514E-01 4.69698E-01-1.76004E-02 1.51119E-01
 -1      3438-3.17427E+01-5.81917E+00 7.38009E-01 1.92449E-02 2.60961E-03 6.17644E-01
 -1      3439-3.18155E+01-5.75453E+00 8.12514E-01-3.25634E-01 2.30602E-02 6.05441E-01
 -1      3440-3.30198E+01-5.38915E+00 1.48971E-01 1.23396E-02 1.26489E-02 3.10977E-01
 -1      3441-3.24096E+01-6.01288E+00 1.52049E-01-1.22565E+00 3.10702E-02 8.79766E-02
 -1      3442-3.18468E+01-5.82860E+00 6.84118E-01-6.60973E-01 5.35702E-02 6.26661E-01
 -1      3443-3.28107E+01-5.30846E+00 1.63194E-01-5.67750E-01-2.05272E-02 3.21451E-01
 -1      3444-3.35881E+01-4.42964E-01 6.12423E-03-3.25161E-01-2.77251E-02 1.84520E-02
 -1      3445-3.36283E+01-6.15525E-01-3.00933E-02-5.65654E-01-1.96782E-02 8.15453E-03
 -1      3446-3.36703E+01-2.78594E-01-1.70898E-02-2.91509E-02-3.84196E-03-2.67234E-03
 -1      3447-3.36123E+01-3.20830E-01-2.84071E-02-1.77473E-01-3.99324E-04-9.10419E-04
 -1      3448-3.37176E+01-6.06363E-01-9.54261E-03-2.44118E-01-1.51985E-02-5.37236E-03
 -1      3449-3.36419E+01-8.35609E-01 1.20032E-02-8.38758E-01 2.21539E-02-3.37905E-02
 -1      3450-3.36241E+01-1.30357E+00 1.68102E-02-1.21724E+00 1.10740E-02 7.99046E-02
 -1      3451-3.34504E+01-7.45985E-01 2.03414E-02-1.16568E+00-1.75463E-02 3.93044E-02
 -1      3452-3.30825E+01-7.67535E-01-2.10747E-02-1.43830E+00-3.28279E-02 1.14955E-01
 -1      3453-3.35506E+01-4.36564E-01-1.53135E-02-3.98216E-01 2.16167E-02 2.72531E-02
 -1      3454-3.35526E+01-5.44417E-01-5.06279E-02-6.74974E-01 1.12440E-02-3.36535E-02
 -1      3455-3.37003E+01-9.90020E-01 2.91666E-02-7.03226E-01 4.00606E-02 1.91611E-02
 -1      3456-3.17232E+01-5.63340E+00 3.06432E-01 1.56016E+00 1.10807E-01-3.42461E-01
 -1      3457-3.14637E+01-5.10543E+00 4.34382E-01 2.37858E+00-4.08686E-03-4.59071E-01
 -1      3458-3.20094E+01-6.02284E+00 3.09548E-01 1.13472E+00-1.23893E-02-2.27409E-01
 -1      3459-3.27980E+01-5.12632E+00 2.17069E-01 1.27265E+00 4.28793E-02-3.38804E-01
 -1      3460-3.21554E+01-6.21938E+00 2.96517E-01 8.08991E-01 4.73919E-02-1.50745E-01
 -1      3461-3.15553E+01-5.34693E+00 4.01049E-01 1.74530E+00-1.35843E-01 3.64204E-01
 -1      3462-3.14830E+01-5.01048E+00 2.42145E-01 2.41846E+00 6.41901E-02 3.64390E-01
 -1      3463-3.21990E+01-6.05512E+00 2.68319E-01 1.00492E+00-4.77214E-02 1.33846E-01
 -1      3464-3.17398E+01-5.92933E+00 2.91529E-01 1.53456E+00 5.14929E-02 3.23155E-01
 -1      3465-3.27588E+01-4.86507E+00 2.25393E-01 1.50859E+00-5.74280E-02 3.17263E-01
 -1      3466 2.77037E-01 3.31658E+00-8.75047E-03 2.81051E-01 2.34577E-01-1.17611E-01
 -1      3467-4.87864E-01 4.01316E+00-2.25924E-01 7.83342E-01 2.31906E-01 1.41649E-01
 -1      3468 3.84905E-01 2.48332E+00 1.49877E-01-2.21825E-01 5.28300E-01-3.33479E-02
 -1      3469-3.82336E-02 4.55376E+00-9.57483E-02-4.15124E-02 3.32451E-01 6.39173E-02
 -1      3470 4.29408E-01 2.58713E+00-2.74601E-01-8.05071E-01 7.25428E-01-3.05271E-01
 -1      3471-2.33915E+01 1.52069E+00 3.45802E-01-1.36187E+00-2.35881E-01 2.44778E+00
 -1      3472-1.80511E+01 2.23344E+00 4.61317E-01-1.35198E+00-2.41616E-01 3.50510E+00
 -1      3473-2.33826E+01 7.96099E-01 5.22217E-01-1.23860E+00-7.77786E-02 2.79685E+00
 -1      3474-1.58539E+01 2.72876E+00 5.96444E-01-8.42858E-01-9.88680E-01 3.94282E+00
 -1      3475-1.77086E+01 1.52928E+00 3.86545E-02-2.47232E+00-3.68518E-01 4.98257E+00
 -1      3476-5.18131E+00 3.69165E+00-2.32106E-02-2.02106E+00-1.29416E+00 5.44785E+00
 -1      3477-3.37815E+01-1.00740E+00-4.74359E-03 6.10972E-01 1.15304E-02-1.40138E-02
 -1      3478-3.36224E+01-4.98851E-01-3.00422E-02 5.35584E-01 1.10224E-02 3.31874E-03
 -1      3479-3.36093E+01-8.63364E-01-1.76995E-02 7.93249E-01 3.85461E-02 3.49624E-02
 -1      3480-3.35246E+01-8.06502E-01-1.12244E-02 1.09038E+00 7.42724E-03-1.14866E-02
 -1      3481-3.36859E+01-1.32282E+00-3.75007E-02 1.20702E+00 4.29641E-02 1.30575E-02
 -1      3482-3.31697E+01-7.54733E-01 2.54228E-02 1.31890E+00 1.13890E-02-1.15792E-01
 -1      3483-1.34881E+01 3.23193E+00-2.26926E-01 1.02338E+00-1.47152E-01-1.47052E+00
 -1      3484-1.28801E+01 2.54428E+00 1.56714E-01 1.78041E+00-3.42776E-01-2.17939E+00
 -1      3485-6.55095E+00 3.69170E+00-6.67800E-01 1.37264E+00-1.78217E-01-1.44650E+00
 -1      3486-3.53399E+00 4.31207E+00 6.61924E-01 1.63797E+00-2.89061E-01-1.47172E+00
 -1      3487-3.20318E+00 5.72235E+00 3.30802E-01 9.60082E-01-1.66548E-01 4.42822E-02
 -1      3488-1.30571E-01 3.88977E+00 3.16480E-02 1.57902E+00-9.41378E-01-9.11801E-01
 -1      3489-3.35592E+01-1.18340E+00 2.38783E-02 1.15090E+00-1.08802E-02 7.85718E-02
 -1      3490-3.35142E+01-6.66430E-01-1.05118E-02 7.78490E-01-2.28132E-02 1.94977E-03
 -1      3491-3.34203E+01-6.86714E-01-1.17159E-02 1.13259E+00-4.17121E-03 5.88121E-02
 -1      3492-3.31551E+01-7.51864E-01-4.21338E-02 1.39382E+00 7.46844E-03 1.04214E-01
 -1      3493-3.36707E+01-6.88306E-01-3.48395E-03 5.35031E-01-8.32684E-03 1.96881E-02
 -1      3494-3.19386E+01-5.16441E+00 4.06199E-01-2.14990E+00-3.02999E-02-4.71108E-01
 -1      3495-3.17816E+01-5.70645E+00 2.10252E-01-1.60631E+00-5.31586E-02-3.45195E-01
 -1      3496-3.20346E+01-4.23329E+00 3.62257E-01-2.89660E+00-1.28700E-02-3.72366E-01
 -1      3497-3.24678E+01-3.71811E+00 7.64373E-02-2.22188E+00-4.54719E-02-2.91980E-01
 -1      3498-3.17851E+01-3.48153E+00 4.05530E-01-3.29441E+00-8.52897E-02-4.31513E-01
 -1      3499-3.13076E+01-5.01772E+00 1.70104E-01-2.32838E+00 2.20304E-02 3.55722E-01
 -1      3500-3.21080E+01-5.82054E+00 6.63669E-02-1.56995E+00 1.09741E-01 1.42215E-01
 -1      3501-3.12805E+01-4.39515E+00 1.65117E-01-2.76231E+00 9.72424E-02 4.12703E-01
 -1      3502-3.24109E+01-3.86356E+00 1.99302E-01-2.19170E+00 7.82459E-02 3.57779E-01
 -1      3503-3.14831E+01-3.83314E+00 3.04447E-01-3.45135E+00-1.62891E-02 4.08010E-01
 -1      3504-3.26447E+01-1.97392E+00 2.14223E-01-2.78502E+00 4.03983E-02-3.68676E-01
 -1      3505-3.29563E+01-1.54312E+00 1.57704E-02-2.06896E+00 1.29986E-02-1.70713E-01
 -1      3506-3.34615E+01-1.01040E+00-3.31754E-02-1.45520E+00 1.13461E-02-9.44023E-02
 -1      3507-3.31209E+01-1.95775E+00 8.26004E-02-1.98087E+00 1.42273E-02-1.47834E-01
 -1      3508-3.36221E+01-8.84847E-01-2.27790E-02-1.06850E+00-2.22441E-03 1.52816E-02
 -1      3509-3.15991E+01-4.39586E+00 4.39421E-01 2.85442E+00 4.07138E-02-3.32228E-01
 -1      3510-3.15817E+01-3.66063E+00 3.32302E-01 3.23497E+00 1.01267E-01-3.50384E-01
 -1      3511-3.24998E+01-2.22168E+00 2.08465E-01 2.68628E+00 9.25094E-03-3.22703E-01
 -1      3512-3.13672E+01-2.49097E+00 2.88627E-01 3.49497E+00 6.88626E-03-4.21249E-01
 -1      3513-3.13808E+01-4.28819E+00 2.08749E-01 2.77890E+00-1.16733E-01 4.15172E-01
 -1      3514-3.14657E+01-3.61905E+00 4.68864E-01 3.36040E+00-1.44586E-02 4.48590E-01
 -1      3515-3.28278E+01-2.21123E+00 2.54070E-01 2.61344E+00 5.74072E-03 4.04619E-01
 -1      3516-3.14891E+01-2.47075E+00 5.05214E-01 3.44468E+00 2.55236E-02 5.11063E-01
 -1      3517-3.31303E+01-1.22950E+00 1.01521E-01-2.04277E+00-1.57792E-02 3.10228E-01
 -1      3518-3.31511E+01-2.28359E+00 1.57581E-01-2.13938E+00 2.83175E-02 2.38597E-01
 -1      3519-3.23957E+01-2.24164E+00 4.02009E-01-2.70688E+00-1.06165E-02 4.94516E-01
 -1      3520-3.14117E+01-2.54995E+00 4.65009E-01-3.54121E+00-6.68726E-03 4.84914E-01
 -1      3521-3.26785E+01-3.99344E+00 1.48087E-01 2.27505E+00 3.27157E-02-2.93255E-01
 -1      3522-3.30596E+01-4.49457E+00 8.33591E-02 9.49171E-01 3.84317E-02-1.37379E-01
 -1      3523-3.29085E+01-4.18601E+00 6.98467E-02 1.35784E+00 5.82746E-02-1.74220E-01
 -1      3524-3.35352E+01-3.36567E+00-2.09536E-02 1.24856E+00 4.47998E-02-9.76050E-02
 -1      3525-3.28992E+01-3.59636E+00 8.16477E-02 1.68203E+00 3.00242E-02-1.99437E-01
 -1      3526-3.30378E+01-2.91458E+00 5.17160E-02 2.00322E+00 4.07960E-02-1.29054E-01
 -1      3527-3.30371E+01-4.76947E+00 8.15199E-02 5.87742E-01 2.94052E-02-1.13429E-01
 -1      3528-3.35644E+01-4.08225E+00 1.19323E-02 6.68858E-01 1.85148E-02-1.02460E-01
 -1      3529-3.27246E+01-5.55117E+00 3.34406E-01 4.88751E-01 2.20551E-02-3.44902E-01
 -1      3530-3.29268E+01-4.97888E+00 5.74157E-02 1.89686E-01 2.67725E-03-1.42750E-01
 -1      3531-3.35725E+01-3.66121E+00 2.78499E-02 3.93645E-01-1.11000E-02-4.79284E-02
 -1      3532-3.35923E+01-3.42093E+00 2.81645E-02 6.90634E-01 4.31597E-02-3.36541E-02
 -1      3533-3.38097E+01-2.80580E+00-1.93458E-02 6.11704E-01 4.06827E-02-1.86271E-02
 -1      3534-3.36455E+01-3.06893E+00 6.42774E-03 8.90192E-01 5.32193E-02-6.37376E-02
 -1      3535-3.37152E+01-2.56598E+00-1.36767E-02 1.08886E+00 3.36367E-02-3.53652E-02
 -1      3536-3.36416E+01-3.79501E+00-1.99349E-02 1.64875E-01-2.39820E-03-2.29618E-02
 -1      3537-3.37977E+01-3.24108E+00-3.76815E-02 1.98519E-01 2.50807E-02 1.19403E-03
 -1      3538-3.34547E+01-4.43157E+00-3.60973E-02 1.99345E-02-5.63229E-04-6.24485E-02
 -1      3539-3.36111E+01-3.78136E+00-1.80434E-02-1.40623E-01 5.83303E-04-2.63466E-02
 -1      3540-3.29137E+01-4.95016E+00 5.46267E-02-1.66026E-01-8.63509E-03-1.52442E-01
 -1      3541-3.37919E+01-2.85005E+00-6.49093E-03 7.38419E-02 7.03974E-04 2.01816E-02
 -1      3542-3.37607E+01-2.71665E+00 1.92446E-02 2.77990E-01 2.78523E-02-8.77806E-04
 -1      3543-3.38147E+01-2.28593E+00-1.41859E-03 2.28617E-01 2.16132E-02-1.29042E-03
 -1      3544-3.38182E+01-2.57097E+00-1.19480E-02 3.95093E-01 2.35295E-02-2.29866E-03
 -1      3545-3.38559E+01-2.23765E+00-3.96573E-03 5.33514E-01 1.31569E-02 1.22820E-02
 -1      3546-3.37902E+01-2.84556E+00-4.99722E-03-5.89199E-02-2.37786E-03 1.19096E-02
 -1      3547-3.38198E+01-2.49777E+00-1.81303E-02 4.84860E-03-1.29562E-03 1.09975E-02
 -1      3548-3.37944E+01-3.24489E+00-2.44993E-02-2.03943E-01-7.75959E-03-5.85227E-03
 -1      3549-3.37895E+01-2.75552E+00 1.47034E-02-2.40753E-01-1.86762E-02 1.08615E-02
 -1      3550-3.35942E+01-3.66779E+00 8.12570E-03-3.85761E-01 1.60973E-02-5.95692E-02
 -1      3551-3.37624E+01-2.17947E+00 4.26038E-03-3.93400E-02 3.14454E-03 1.05728E-02
 -1      3552-3.37754E+01-2.18373E+00-1.25834E-02 4.63461E-02 3.81065E-03 1.96315E-02
 -1      3553-3.37535E+01-1.91932E+00-1.65879E-02 4.03624E-02 5.42179E-03 1.28166E-02
 -1      3554-3.37892E+01-2.09198E+00 2.43004E-03 1.17517E-01-3.23356E-04 8.86584E-03
 -1      3555-3.38068E+01-1.93930E+00 1.67200E-03 1.74134E-01 2.05710E-02 1.59068E-02
 -1      3556-3.37795E+01-2.11888E+00 1.17624E-04-9.52154E-02 6.27849E-03 1.38413E-02
 -1      3557-3.37673E+01-1.90845E+00 2.57289E-04-2.43052E-02 7.54622E-03 1.20766E-02
 -1      3558-3.38579E+01-2.31981E+00-2.74111E-02-2.17758E-01-1.46474E-02 2.62813E-02
 -1      3559-3.38063E+01-1.95693E+00-2.05491E-03-1.76216E-01-1.22215E-02 1.98506E-02
 -1      3560-3.38078E+01-2.56268E+00 2.74546E-02-3.85969E-01-1.67681E-02 4.57131E-03
 -1      3561-3.36942E+01-1.69740E+00 6.21615E-03-6.72784E-03-8.03944E-03 4.67582E-03
 -1      3562-3.36869E+01-1.74876E+00 3.43000E-03 1.33720E-02 2.83826E-03 4.15382E-03
 -1      3563-3.36502E+01-1.61294E+00-1.23565E-02 4.95029E-03-2.20402E-03-3.85670E-03
 -1      3564-3.36913E+01-1.76145E+00-4.95049E-03 1.19878E-03 1.04560E-03 8.62914E-03
 -1      3565-3.36835E+01-1.67557E+00 1.00530E-02 2.32528E-02 8.99007E-04 4.27584E-03
 -1      3566-3.37211E+01-1.57924E+00 2.43544E-03 4.08894E-03-7.91431E-03-4.47398E-03
 -1      3567-3.36652E+01-1.50600E+00-8.98907E-03 5.66900E-02-1.17760E-02-6.80664E-03
 -1      3568-3.37837E+01-1.65129E+00-1.01711E-02-8.36586E-02-1.00537E-02 5.53419E-03
 -1      3569-3.37490E+01-1.38506E+00-9.95125E-03-6.92851E-03-4.77620E-03 5.87366E-03
 -1      3570-3.38267E+01-1.73693E+00 8.45587E-03-2.10114E-01-1.07095E-02 6.02693E-03
 -1      3571-3.36013E+01-1.51310E+00-1.30454E-02 2.07509E-02-4.99338E-03-1.40875E-02
 -1      3572-3.36094E+01-1.50371E+00-1.73998E-02-3.69878E-03 6.93484E-03-1.67412E-02
 -1      3573-3.35978E+01-1.46906E+00-7.31677E-04 8.41195E-02-4.21278E-03-1.53173E-02
 -1      3574-3.35477E+01-1.40211E+00-1.40312E-02 6.84582E-02-4.08883E-03-1.36020E-02
 -1      3575-3.36307E+01-1.34841E+00-2.47850E-02 1.14367E-01-1.38574E-02-5.31114E-03
 -1      3576-3.35388E+01-1.39886E+00-2.96527E-02-4.08069E-02 1.75641E-02-1.43555E-02
 -1      3577-3.35836E+01-1.45052E+00-1.29944E-03-5.77944E-02 3.84989E-03-4.74334E-03
 -1      3578-3.36017E+01-1.35582E+00-3.21515E-03-1.00575E-01 9.49178E-03-2.76722E-03
 -1      3579-3.36707E+01-1.50404E+00-5.06749E-03-4.39615E-02 4.54824E-03-9.12123E-04
 -1      3580-3.37072E+01-1.57887E+00 1.84735E-03 8.98658E-03 4.62320E-03 4.10703E-03
 -1      3581-3.34308E+01-1.34797E+00-1.01973E-01-2.33012E-02 9.00525E-03-2.00738E-02
 -1      3582-3.34238E+01-1.32663E+00-4.98997E-02-6.67609E-02 3.61996E-02 1.21661E-02
 -1      3583-3.33962E+01-1.34357E+00-5.15667E-02 5.18048E-02 1.95888E-02-6.96594E-03
 -1      3584-3.31237E+01-1.18156E+00-7.08844E-02 1.21682E-02-5.48688E-03 3.71341E-02
 -1      3585-3.34274E+01-1.30407E+00-4.93758E-02 1.07249E-01-7.99615E-03-6.86280E-03
 -1      3586-3.32324E+01-1.26316E+00-8.33644E-02-1.72334E-01-5.08338E-03 3.86967E-02
 -1      3587-3.34934E+01-1.29674E+00-7.11534E-02-2.23027E-01-2.75081E-02-1.60714E-02
 -1      3588-3.35453E+01-1.16771E+00-5.91650E-02-2.77824E-01-2.02958E-02-2.88052E-02
 -1      3589-3.35563E+01-1.25375E+00-2.31105E-02-1.95741E-01 1.32415E-02-1.30765E-02
 -1      3590-3.36521E+01-1.24954E+00-6.49979E-03-1.67794E-01 8.61248E-03-1.56236E-02
 -1      3591-3.29096E+01-1.18437E+00-2.56199E-01 5.85505E-02-8.98740E-02 9.54927E-02
 -1      3592-3.28085E+01-1.14962E+00-4.01885E-01 1.94756E-02 1.62486E-02 1.00724E-01
 -1      3593-3.24832E+01-8.77763E-01-1.09165E-01-3.35953E-02 7.95512E-02 1.08895E-01
 -1      3594-3.26583E+01-1.02506E+00-1.93726E-02-1.53955E-01 1.03276E-02 5.77602E-02
 -1      3595-3.25364E+01-9.72066E-01-1.60883E-02-8.74117E-02 4.62597E-02 2.54200E-02
 -1      3596-3.28782E+01-1.04133E+00-1.91461E-01 1.06004E-01 7.26129E-02 9.18937E-02
 -1      3597-3.20663E+01-7.76199E-01-1.80847E-01 1.30613E-01-2.62802E-02 3.18095E-01
 -1      3598-3.31359E+01-1.17423E+00-7.60579E-02 1.76281E-01 1.58999E-02 3.11128E-02
 -1      3599-3.29757E+01-1.17912E+00-4.42051E-01 1.88509E-01 4.00068E-02 8.70727E-02
 -1      3600-3.35064E+01-1.28667E+00-1.16232E-01 2.11195E-01-5.56426E-03-2.10716E-02
 -1      3601-3.01661E+01-1.30760E-01 1.61420E-01 1.71516E-01 3.76981E-02 7.70069E-01
 -1      3602-3.03601E+01-2.16128E-01-2.63238E-01-5.41132E-03 1.05031E-02 8.48020E-01
 -1      3603-2.89180E+01 4.43286E-01-9.84706E-02-6.70545E-02-7.16565E-02 1.29658E+00
 -1      3604-3.02805E+01-1.10499E-01-1.20117E-02-5.94137E-02-9.14255E-03 4.95581E-01
 -1      3605-3.05167E+01-2.60331E-01-8.99680E-03-1.09727E-01-5.70311E-02 4.35924E-01
 -1      3606-3.08360E+01-3.94264E-01-4.46207E-01 1.15044E-01-1.49906E-01 6.42924E-01
 -1      3607-2.85075E+01 4.74197E-01 2.77347E-01 1.00942E-01 4.80422E-02 1.37049E+00
 -1      3608-3.26969E+01-1.01305E+00-1.02054E-01 2.90012E-01 2.72724E-02 1.65211E-01
 -1      3609-3.16686E+01-7.79291E-01-3.03644E-01 2.90529E-01-2.97267E-02 4.67771E-01
 -1      3610-3.07913E+01-3.62933E-01-4.20279E-01 2.51115E-01 5.25155E-02 6.42241E-01
 -1      3611-2.43756E+01 1.93504E+00-6.13809E-02-9.91135E-02 8.99833E-03 1.63392E+00
 -1      3612-2.44018E+01 1.85857E+00-3.63922E-01-1.06449E-03 9.25786E-02 1.62330E+00
 -1      3613-2.44465E+01 1.84618E+00-1.34569E-01 2.24647E-02-7.31817E-02 1.79196E+00
 -1      3614-1.96360E+01 3.43882E+00-1.04382E-01-2.33836E-02-1.81418E-02 2.12237E+00
 -1      3615-2.41895E+01 1.99037E+00 6.42917E-02 2.12711E-01 1.06500E-01 1.44665E+00
 -1      3616-1.91557E+01 3.70343E+00-1.50429E-01-2.61237E-02-2.58994E-02 1.98935E+00
 -1      3617-2.44643E+01 1.76927E+00-2.68080E-01-1.69466E-01 5.49933E-02 1.19766E+00
 -1      3618-2.84273E+01 4.60202E-01-1.47464E-01-1.39646E-01-4.64256E-02 8.47942E-01
 -1      3619-3.07259E+01-3.15655E-01-1.39288E-02-4.79043E-02 1.12272E-02 3.06595E-01
 -1      3620-2.44300E+01 1.66784E+00-5.26709E-01 7.74756E-02-7.43241E-02 1.24285E+00
 -1      3621-1.40033E+01 5.36369E+00-4.19849E-01 6.29916E-02-2.79928E-02 1.99032E+00
 -1      3622-1.37493E+01 5.46218E+00-3.21409E-01-2.45105E-02 2.03858E-03 1.80212E+00
 -1      3623-6.73514E+00 7.81233E+00-1.29830E-01 1.25987E-02-9.54290E-03 1.36895E+00
 -1      3624-1.37411E+01 5.50774E+00-2.57642E-01 5.28661E-02-2.20210E-02 1.73695E+00
 -1      3625-1.33013E+01 5.46765E+00-3.60367E-01 7.56379E-02-3.20836E-02 1.68102E+00
 -1      3626-1.31673E+01 5.33017E+00 3.96760E-01-1.93974E-02 2.17587E-01 2.25791E+00
 -1      3627-7.00540E+00 7.28716E+00-2.46183E-01-1.68349E-01 3.66829E-01 1.88603E+00
 -1      3628-2.25693E+01 2.01887E+00 6.49938E-01-2.95037E-01-1.46564E-01 2.07096E+00
 -1      3629-1.90890E+01 3.55149E+00 4.04269E-01-3.75287E-01-2.87293E-01 2.31037E+00
 -1      3630-1.34038E+01 4.92781E+00 2.72524E-01-4.85553E-01 2.21963E-01 1.92101E+00
 -1      3631-3.58666E+00 9.29082E+00 2.23034E-01 1.25834E-01 2.32016E-02 3.17950E-01
 -1      3632-3.74444E+00 9.12924E+00 2.12078E-01-1.60611E-01-1.17594E-01 3.12441E-01
 -1      3633-2.25204E+00 9.36104E+00 4.71784E-01-2.55923E-03 1.48567E-01 5.28510E-01
 -1      3634-1.34356E+00 9.74662E+00 1.58783E-01-1.65345E-01 1.44206E-01 8.79425E-01
 -1      3635-2.46290E+00 8.44321E+00 3.90795E-01-1.41247E-01 2.67389E-01 1.08188E+00
 -1      3636-1.71691E+00 9.69688E+00-2.25516E-01 7.34108E-02-1.29946E-01 7.49801E-01
 -1      3637-3.10383E+00 9.08378E+00 1.74412E-01 4.43924E-02-1.23549E-01 5.82126E-01
 -1      3638-1.33020E+01 5.31213E+00-3.64216E-01-3.76076E-02 2.29480E-02 1.68513E+00
 -1      3639-7.52043E+00 7.53649E+00-2.86389E-01-1.31011E-02-8.20825E-03 1.55239E+00
 -1      3640-2.97489E+00 8.96216E+00 3.65888E-01-1.05137E-01-4.06659E-02 5.64034E-01
 -1      3641-2.37644E+00 9.22957E+00-7.86293E-01-7.04615E-02 1.59951E-01 5.36571E-01
 -1      3642-1.50809E+00 9.69288E+00-3.34775E-01-3.27441E-02 7.06123E-02 2.66811E-01
 -1      3643-1.49452E+00 9.98027E+00-2.31997E-02-4.54676E-02 2.11762E-02 7.00028E-02
 -1      3644-1.61229E+00 9.78020E+00-3.47907E-01 4.78482E-02-4.98729E-02 1.71018E-01
 -1      3645-1.92310E+00 9.46568E+00-4.22680E-01 1.28256E-02-1.10674E-01 2.81296E-01
 -1      3646-2.18824E+00 9.02051E+00-6.11286E-01 1.79702E-01 1.41280E-01 4.97219E-01
 -1      3647-1.50643E+00 9.67162E+00-9.80180E-03 4.46560E-02 1.61730E-01 1.56374E-01
 -1      3648-1.62402E+00 8.35455E+00-5.33047E-01 3.19024E-01 3.27050E-01 2.59577E-01
 -1      3649-1.66939E+00 9.07782E+00-1.40390E-01 3.14022E-01 3.73096E-01 9.13524E-01
 -1      3650-3.32847E+00 8.14899E+00-1.75888E-01 3.21629E-01 2.80042E-01 1.71004E+00
 -1      3651-1.75172E+00 9.92076E+00-1.09648E-01-6.32475E-02 6.23506E-02 5.63113E-02
 -1      3652-1.71027E+00 9.83937E+00-9.98865E-02-3.45317E-02-3.75062E-02 1.94575E-02
 -1      3653-1.70761E+00 9.73973E+00-1.37144E-01 3.47362E-03 1.24708E-01 1.40054E-01
 -1      3654-1.45074E+00 9.94782E+00 1.28989E-02-3.97064E-02 8.78053E-02 2.91679E-02
 -1      3655-1.66555E+00 9.23275E+00-1.31643E-01 6.41233E-02 2.16969E-01 4.59581E-02
 -1      3656-1.43017E+00 9.90989E+00 3.05430E-03-7.69613E-03-7.53816E-02 4.62955E-02
 -1      3657-1.65605E+00 9.74002E+00-7.15613E-02-1.19550E-02-1.14842E-01 5.06709E-02
 -1      3658-1.88299E+00 9.14926E+00-4.03209E-01-9.55586E-02-1.65133E-01 2.63190E-01
 -1      3659-1.45316E+00 9.65237E+00 3.72117E-02-2.09754E-02-1.76301E-01 7.46062E-02
 -1      3660-1.73325E+00 9.16753E+00-1.36087E-01-8.65425E-02-2.20794E-01-1.56891E-03
 -1      3661-1.75138E+00 9.44768E+00-5.19844E-01-1.60079E-01 1.55021E-01-2.16733E-01
 -1      3662-1.70305E+00 9.78440E+00-3.74466E-01-5.97443E-02 2.78344E-03-2.09376E-01
 -1      3663-2.15622E+00 9.88505E+00-4.12209E-02 2.56303E-02 2.26314E-04-6.55526E-01
 -1      3664-1.68563E+00 9.75829E+00-4.61060E-01 2.22650E-02-4.54712E-02-1.36478E-01
 -1      3665-1.67073E+00 9.34140E+00-5.32214E-01 6.38775E-02-1.84207E-01-2.61021E-01
 -1      3666-1.59564E+00 9.13761E+00-6.83466E-01 6.77365E-02 1.90588E-01-2.35235E-01
 -1      3667-8.46015E-01 9.42164E+00-8.50484E-02-9.27637E-02 2.82445E-01-9.58297E-01
 -1      3668-1.59132E+00 8.65390E+00-1.20664E-01 7.17668E-02 3.19371E-01 4.45351E-02
 -1      3669-1.33425E+00 9.09777E+00 4.03257E-02-9.91731E-03 2.88210E-01 8.05046E-02
 -1      3670-1.53568E+00 8.55182E+00-6.42626E-01-5.43824E-02 3.00855E-01-2.72895E-01
 -1      3671-3.33180E+00 9.14657E+00 2.30717E-01 1.68934E-01-1.16197E-02 3.58987E-01
 -1      3672-3.37119E+00 9.10114E+00 2.52483E-01-1.76444E-01-1.66307E-02 4.18472E-01
 -1      3673-4.11155E+00 8.79902E+00 8.05489E-01-2.91773E-01-7.87412E-02-1.20257E+00
 -1      3674-6.12079E+00 7.62607E+00-5.58576E-01 1.09175E-01-1.62173E-01-1.10827E+00
 -1      3675-3.94877E+00 8.58962E+00 3.82870E-01 1.04277E-01 3.44078E-01-1.58772E+00
 -1      3676-6.19735E+00 7.72620E+00-6.82795E-01-2.49964E-01 1.21504E-01-1.15718E+00
 -1      3677-4.31631E+00 8.78535E+00 4.06667E-01 3.98924E-02 9.03007E-02-1.29334E+00
 -1      3678-1.75530E+00 8.96997E+00-6.47599E-01-8.31581E-02-1.67816E-01-3.35600E-01
 -1      3679-7.89729E-01 9.43438E+00-2.03961E-02-1.16076E-02-2.32499E-01-1.09775E+00
 -1      3680-4.38051E+00 8.19403E+00 1.65220E-01-1.45964E-01-1.04972E-01-1.79081E+00
 -1      3681-1.25193E+01 5.79323E+00 3.94652E-01 2.42271E-01-1.17880E-01-1.88367E+00
 -1      3682-1.23290E+01 6.03476E+00-8.53140E-02 1.28710E-01 9.93293E-03-1.38963E+00
 -1      3683-1.98406E+01 3.84098E+00 2.42429E-01 3.22476E-02-4.55914E-02-1.71329E+00
 -1      3684-1.24160E+01 5.97321E+00-1.77338E-01-1.17667E-01-6.46484E-02-1.42761E+00
 -1      3685-1.22578E+01 5.92521E+00 1.35505E-01-2.70225E-01 8.53498E-02-2.13977E+00
 -1      3686-1.22338E+01 5.82425E+00 6.15378E-01-2.01488E-01 1.52284E-01-1.95658E+00
 -1      3687-1.86473E+01 3.32570E+00-1.85993E-01 2.19378E-02-4.01743E-03-1.99783E+00
 -1      3688-1.13502E+01 6.01648E+00 8.39662E-01-2.98829E-01 1.60706E-01-2.10775E+00
 -1      3689-7.22709E+00 7.36072E+00 2.97307E-01-2.65910E-02 3.89655E-01-2.68863E+00
 -1      3690-3.84143E+00 8.09776E+00-1.38066E-01 3.35359E-02 2.58799E-01-1.49426E+00
 -1      3691-2.40452E+01 1.93241E+00-7.89470E-01-3.39529E-01-1.20047E-01-1.15942E+00
 -1      3692-2.39474E+01 2.06755E+00-2.76533E-01 2.08484E-01-8.77365E-02-1.47156E+00
 -1      3693-2.46257E+01 1.55309E+00-5.57709E-01-5.35709E-02-9.69706E-02-1.55865E+00
 -1      3694-2.75621E+01 6.88895E-01 2.14841E-02-4.17693E-02-1.12617E-01-1.33317E+00
 -1      3695-2.45812E+01 1.36778E+00-5.90264E-01 1.12758E-02 1.28572E-01-1.58196E+00
 -1      3696-2.79379E+01 7.08207E-01-2.24705E-01 1.68765E-01 7.90843E-02-1.18714E+00
 -1      3697-2.36251E+01 1.91397E+00 9.27128E-02-7.71757E-02 2.83445E-01-1.45846E+00
 -1      3698-1.20235E+01 5.85130E+00 6.55852E-01 2.11541E-01-2.05013E-01-2.23821E+00
 -1      3699-1.88083E+01 3.43277E+00 3.33965E-01-6.46117E-02-1.29370E-02-2.07090E+00
 -1      3700-2.39542E+01 1.61444E+00-3.18845E-01 1.22533E-01 8.87924E-02-9.78496E-01
 -1      3701-3.01332E+01-1.25078E-01 7.98749E-02 2.52190E-02 8.94075E-02-6.90987E-01
 -1      3702-3.02197E+01-2.03043E-01-1.39810E-01-1.43122E-01-8.95671E-02-7.46902E-01
 -1      3703-3.18530E+01-7.81542E-01-1.51613E-01 4.43204E-02-4.18552E-02-3.26505E-01
 -1      3704-3.01479E+01-2.25141E-01-2.59227E-01 2.01451E-01 1.07966E-01-6.30531E-01
 -1      3705-3.03856E+01-2.24222E-01-4.41377E-01 1.77952E-01-2.15893E-01-5.28946E-01
 -1      3706-3.01084E+01-1.68694E-01 6.26814E-02-2.67836E-01-2.71514E-02-6.99125E-01
 -1      3707-3.18366E+01-7.24183E-01-7.48569E-02-1.79896E-01 1.21188E-02-2.83951E-01
 -1      3708-2.74253E+01 6.07104E-01-1.01494E-01-2.09621E-01 2.62495E-01-1.30407E+00
 -1      3709-3.04058E+01-4.55126E-01-6.65927E-01-3.57313E-01 1.28102E-01-5.86442E-01
 -1      3710-2.39593E+01 1.51677E+00-8.44850E-01-2.69512E-02 1.19587E-01-1.22058E+00
 -1      3711-3.27540E+01-1.08656E+00-1.95762E-01-3.35878E-02 1.29244E-02-1.47929E-01
 -1      3712-3.28142E+01-1.12241E+00-1.87390E-01 8.13769E-02-4.79720E-02-7.41418E-02
 -1      3713-3.27285E+01-1.02987E+00-1.20366E-01-9.77220E-02 2.36855E-02-1.11470E-01
 -1      3714-3.31525E+01-1.19199E+00-7.49470E-02-6.25828E-02-5.91045E-03-1.46932E-02
 -1      3715-3.27765E+01-1.07318E+00-7.85598E-02-2.17774E-01 2.90366E-02-1.28205E-01
 -1      3716-3.31469E+01-1.20246E+00-5.74476E-02 7.88019E-02 1.23170E-02-4.15783E-03
 -1      3717-3.28679E+01-1.14725E+00-2.70336E-01 1.19419E-01 4.02878E-06-5.05581E-02
 -1      3718-3.27848E+01-1.06668E+00-1.85722E-01 1.95306E-01 2.95369E-02-9.95483E-02
 -1      3719-3.20608E+01-7.26346E-01-5.19659E-02 1.16438E-01 3.14057E-02-2.02711E-01
 -1      3720-3.04533E+01-2.09325E-01 4.48835E-02 1.52696E-01-5.35505E-02-4.79917E-01
 -1      3721-3.34098E+01-1.31313E+00-7.26732E-02-1.07508E-01-3.09945E-03 5.62770E-03
 -1      3722-3.34025E+01-1.31600E+00-6.54888E-02-1.99079E-02-1.31446E-02-2.56928E-03
 -1      3723-3.35256E+01-1.40298E+00-1.80787E-02 7.84587E-03-4.15038E-03 5.86215E-03
 -1      3724-3.33947E+01-1.32050E+00-1.25738E-02 3.61247E-02-2.68415E-03-4.81155E-03
 -1      3725-3.34046E+01-1.28441E+00-2.95987E-02 1.03460E-01 1.52092E-02-6.19308E-03
 -1      3726-3.34207E+01-1.24500E+00-2.00986E-02-1.79102E-01-6.88080E-03-7.25445E-03
 -1      3727-3.35344E+01-1.34907E+00-2.47529E-02-1.19373E-01-4.53765E-03 2.40199E-03
 -1      3728-3.32889E+01-1.15836E+00-3.07843E-02-2.63575E-01-1.34597E-02-1.91479E-02
 -1      3729-3.34850E+01-1.17985E+00-3.86062E-02-2.76022E-01 4.14931E-03-5.37782E-03
 -1      3730-3.27680E+01-9.08147E-01 2.91573E-02-3.26641E-01-4.67336E-03-1.27981E-01
 -1      3731-3.35714E+01-1.49021E+00-1.39343E-02-2.02674E-02-1.34555E-03 5.09654E-03
 -1      3732-3.35793E+01-1.48829E+00-1.12804E-02 3.47997E-02-3.80829E-03 7.22543E-03
 -1      3733-3.35787E+01-1.43943E+00-4.06553E-03-5.12351E-02-1.58361E-03 2.60444E-04
 -1      3734-3.36506E+01-1.58273E+00-9.09809E-03-1.81603E-02-3.76165E-03 2.01317E-03
 -1      3735-3.35962E+01-1.37454E+00 5.10175E-03-1.12306E-01-2.60373E-03 4.01623E-03
 -1      3736-3.36541E+01-1.56856E+00-7.05716E-03 3.15402E-02 1.76713E-03 2.12937E-03
 -1      3737-3.35846E+01-1.43379E+00-1.10416E-02 6.17693E-02 6.14516E-03 8.25905E-03
 -1      3738-3.36015E+01-1.34649E+00-1.42455E-02 1.31035E-01 6.44271E-03 6.65173E-03
 -1      3739-3.35232E+01-1.32242E+00-1.83063E-02 1.39110E-01 1.06804E-02 1.25730E-03
 -1      3740-3.34417E+01-1.25657E+00-6.21183E-02 1.93753E-01 2.13982E-03-3.59331E-03
 -1      3741-3.36881E+01-1.72755E+00 4.92421E-03-6.09181E-03 1.73248E-03-3.99791E-03
 -1      3742-3.37021E+01-1.67234E+00-3.69519E-04 4.44175E-03 1.35997E-03-3.82264E-03
 -1      3743-3.36869E+01-1.74666E+00 1.74679E-03 7.97583E-03-4.21330E-03-9.23164E-04
 -1      3744-3.37510E+01-1.92288E+00-6.88812E-03-3.91491E-03 5.24151E-03-4.87884E-03
 -1      3745-3.36901E+01-1.69105E+00 7.18296E-03-1.31421E-03-5.44842E-03-3.21178E-04
 -1      3746-3.37654E+01-1.76735E+00-1.44152E-02-5.31064E-02 1.49606E-02-8.52442E-03
 -1      3747-3.37137E+01-1.51699E+00 7.51370E-03 5.57023E-04 7.58867E-03-4.83305E-03
 -1      3748-3.36939E+01-1.34610E+00-1.52629E-02 9.50909E-02 1.51398E-02 5.48119E-03
 -1      3749-3.36326E+01-1.18236E+00-7.41775E-03 1.73525E-01 7.33864E-03-1.04443E-03
 -1      3750-3.37364E+01-1.38139E+00 1.75644E-03 1.99435E-02 1.14724E-02 9.20412E-05
 -1      3751-3.37937E+01-2.15341E+00-9.31876E-03 2.27163E-02 6.47214E-03-2.59357E-02
 -1      3752-3.37834E+01-2.12816E+00-1.60229E-03-2.46303E-02-1.45961E-04-2.77056E-02
 -1      3753-3.38437E+01-2.40251E+00-2.12543E-02-1.18486E-01-1.09911E-02-1.29088E-02
 -1      3754-3.37835E+01-2.05486E+00 4.08498E-03-1.10683E-01 4.45731E-03-1.45343E-02
 -1      3755-3.38031E+01-1.91777E+00 8.16258E-03-1.51460E-01 4.25136E-03-5.14484E-03
 -1      3756-3.37806E+01-2.08634E+00 4.58453E-03 1.09978E-01 1.37847E-03-1.91321E-02
 -1      3757-3.38434E+01-2.42278E+00-2.65908E-02 1.12572E-01 1.22313E-02-2.44439E-02
 -1      3758-3.37581E+01-1.78749E+00-2.40555E-03 5.03635E-02-2.11317E-02-4.31974E-03
 -1      3759-3.37902E+01-1.93932E+00 8.57621E-03 1.55874E-01-3.28234E-03-7.87495E-03
 -1      3760-3.37168E+01-1.56686E+00 5.23370E-03-1.04060E-04-1.69805E-02-1.05675E-02
 -1      3761-3.38178E+01-2.73956E+00 1.04893E-02 2.16700E-01-1.14900E-03-9.78794E-03
 -1      3762-3.37993E+01-2.82016E+00 1.77840E-04 7.12843E-02-7.30520E-03-1.66590E-02
 -1      3763-3.38019E+01-2.79154E+00-2.10851E-03-1.02754E-01 1.17632E-02-1.38037E-02
 -1      3764-3.38240E+01-2.70153E+00-1.02306E-02-2.24434E-01 1.68910E-03-1.11378E-02
 -1      3765-3.38131E+01-3.24416E+00-2.36063E-02-1.56728E-02 5.47167E-03-9.61797E-03
 -1      3766-3.38473E+01-2.50341E+00 4.99765E-03 3.66361E-01-2.39986E-02-1.92052E-02
 -1      3767-3.38027E+01-3.02610E+00-9.74923E-03 3.70738E-01-3.72113E-02 8.58832E-03
 -1      3768-3.38676E+01-2.09965E+00-2.31492E-02 2.95174E-01 5.75759E-03-1.46035E-02
 -1      3769-3.38714E+01-2.27713E+00-1.75799E-02 4.72651E-01-3.88173E-03-2.69635E-02
 -1      3770-3.38177E+01-1.72830E+00-8.20407E-03 2.15686E-01-4.03847E-04-1.53738E-02
 -1      3771-3.38554E+01-2.02334E+00 3.45166E-03-2.80139E-01 2.45123E-02-5.03905E-03
 -1      3772-3.38236E+01-1.66404E+00 1.15869E-02-1.93720E-01 2.09128E-02-1.57746E-02
 -1      3773-3.38342E+01-2.99416E+00-2.57499E-02-3.67067E-01 1.71317E-02 5.26256E-05
 -1      3774-3.38604E+01-2.49437E+00-9.40960E-03-3.36612E-01 5.15487E-03-2.36492E-02
 -1      3775-3.38538E+01-2.19433E+00 7.60574E-03-4.15257E-01 2.60630E-02-1.49960E-02
 -1      3776-3.34972E+01-4.10536E+00 3.20636E-02-6.72154E-01-8.83522E-03-1.29367E-01
 -1      3777-3.35509E+01-3.40199E+00 3.89481E-02-6.81194E-01-2.01791E-02-5.29420E-02
 -1      3778-3.36177E+01-3.08966E+00 2.42434E-02-9.05995E-01-1.79223E-02-6.24972E-02
 -1      3779-3.37839E+01-2.79528E+00-3.34810E-03-5.88578E-01-4.19142E-02-1.25492E-02
 -1      3780-3.38625E+01-2.25590E+00-4.37286E-03-5.06755E-01-3.18002E-02 2.53283E-02
 -1      3781-3.35395E+01-1.03310E+00-2.25246E-02-3.69103E-01 1.29387E-02-5.15221E-03
 -1      3782-3.35866E+01-1.12140E+00-2.24044E-02-2.71415E-01-7.46026E-03 1.19177E-02
 -1      3783-3.36972E+01-1.09299E+00-2.63728E-02-2.37047E-01-1.34375E-02 1.59435E-02
 -1      3784-3.36326E+01-1.22156E+00-1.41313E-02-1.61820E-01-9.31720E-03-4.84942E-03
 -1      3785-3.36795E+01-1.36440E+00-1.06887E-02-8.03912E-02-1.51169E-02 2.91343E-03
 -1      3786-3.37151E+01-1.08181E+00-9.13713E-03 2.57236E-01 6.69029E-03 2.60646E-02
 -1      3787-3.36255E+01-1.12296E+00-3.95257E-02 3.10354E-01 8.56547E-04 2.51122E-02
 -1      3788-3.35664E+01-1.05214E+00-1.08509E-01 3.82339E-01 1.69217E-02 4.31651E-02
 -1      3789-3.35232E+01-1.19083E+00-5.45198E-02 3.20218E-01 4.82394E-03 1.50398E-02
 -1      3790-3.31259E+01-1.16793E+00-1.10894E-01 2.87256E-01 1.49848E-02-8.12179E-03
 -1      3791-3.37610E+01-1.17951E+00 5.19058E-03 2.47752E-02-1.08017E-02-2.72779E-03
 -1      3792-3.37293E+01-1.20979E+00-1.41531E-02 1.15085E-01-2.32412E-02-6.97466E-03
 -1      3793-3.36859E+01-1.05832E+00-2.84830E-03 2.14476E-01-1.63950E-02-6.10453E-03
 -1      3794-3.36495E+01-1.22709E+00-1.11433E-02 1.70873E-01-1.34023E-02-1.19287E-02
 -1      3795-3.35794E+01-1.24034E+00-2.84482E-02 1.97683E-01-2.47630E-02-4.71877E-03
 -1      3796-3.38732E+01-1.80383E+00-1.99915E-02 3.81932E-01 1.94282E-02 8.61659E-03
 -1      3797-3.38580E+01-1.87770E+00-5.02011E-03 6.11382E-01 1.98122E-02-2.19561E-03
 -1      3798-3.38140E+01-1.72504E+00-4.36970E-03 2.15084E-01 1.92620E-02 7.62849E-03
 -1      3799-3.38247E+01-1.40217E+00-1.84363E-02 2.55521E-01 2.34665E-02 1.42546E-02
 -1      3800-3.37813E+01-1.63238E+00-4.25499E-03 9.44201E-02 1.11122E-02 7.30796E-03
 -1      3801-3.36508E+01-3.38238E+00 7.99163E-03 6.09679E-01-1.16763E-02 2.18866E-02
 -1      3802-3.36625E+01-3.62969E+00 8.75905E-04 3.85046E-01-4.13607E-03 1.98766E-02
 -1      3803-3.34717E+01-4.26762E+00-4.17478E-02 3.05492E-01-1.96178E-02 6.05836E-02
 -1      3804-3.36216E+01-3.75365E+00-3.09635E-02 9.43147E-02-2.74659E-03 2.83224E-02
 -1      3805-3.36105E+01-3.71539E+00-7.36525E-03-1.50723E-01-1.37693E-02 4.43129E-02
 -1      3806-3.38521E+01-1.83720E+00 1.68558E-02 5.55136E-01-4.20267E-02-1.01958E-02
 -1      3807-3.38699E+01-2.42392E+00-1.43549E-02 6.72766E-01-5.03574E-02-3.99317E-03
 -1      3808-3.36275E+01-3.02870E+00 3.08600E-02 8.41648E-01-4.14191E-02 4.96155E-02
 -1      3809-3.35257E+01-3.77503E+00 1.15557E-02 8.59815E-01-3.98957E-02 9.72796E-02
 -1      3810-3.36968E+01-2.70630E+00-3.05538E-02 1.00890E+00-2.66224E-02 4.82433E-02
 -1      3811-3.33298E+01-1.04647E+00-2.43957E-02-3.66638E-01 4.02947E-02 1.77251E-02
 -1      3812-3.35314E+01-1.05219E+00 8.29749E-03-3.72849E-01 1.93149E-03-2.46339E-03
 -1      3813-3.26990E+01-1.03046E+00-2.51976E-01-3.58229E-01 3.00583E-02 6.68757E-02
 -1      3814-3.28607E+01-9.26190E-01-8.42545E-02-4.49119E-01 6.26487E-03 1.34071E-01
 -1      3815-3.22617E+01-8.25434E-01-2.47446E-02-2.38929E-01 3.58488E-02 1.57027E-01
 -1      3816-3.36462E+01-8.40403E-01-2.76587E-03-4.77425E-01 2.05577E-02 1.07999E-02
 -1      3817-3.37102E+01-9.16001E-01-8.74584E-03-3.57335E-01 2.62196E-02-1.51301E-02
 -1      3818-3.37463E+01-7.99482E-01 6.13335E-03-2.88014E-01 1.32630E-02-1.88578E-02
 -1      3819-3.36948E+01-1.06608E+00-8.18475E-03-2.14479E-01 1.06505E-02-5.87379E-03
 -1      3820-3.37016E+01-1.19542E+00-3.16980E-03-1.14136E-01 1.86962E-02-9.26233E-03
 -1      3821-3.38285E+01-1.42908E+00 1.34480E-02 3.90418E-01-2.82656E-02-3.94679E-03
 -1      3822-3.38678E+01-1.52027E+00-1.07872E-02 5.92635E-01-3.27298E-02-1.03919E-02
 -1      3823-3.38306E+01-1.45858E+00 1.12863E-02 2.36764E-01-4.46901E-03-1.15416E-03
 -1      3824-3.38242E+01-1.12540E+00 1.70321E-02 2.19183E-01-1.90042E-02-4.84014E-03
 -1      3825-3.38014E+01-1.44014E+00-1.46224E-02 8.71656E-02-1.30147E-02-5.45808E-03
 -1      3826-3.37573E+01-9.56681E-01-8.58846E-03 1.73749E-01 1.98234E-02 3.74913E-03
 -1      3827-3.37791E+01-8.25586E-01-8.53588E-03 2.99238E-01 1.04088E-02 1.07494E-02
 -1      3828-3.37764E+01-1.14658E+00-9.23965E-03 4.45735E-02 2.08662E-02-9.95615E-03
 -1      3829-3.37912E+01-8.83251E-01-5.10200E-03 7.09325E-02 2.27347E-02 1.90106E-03
 -1      3830-3.37944E+01-1.34867E+00-9.98681E-03-7.68696E-02 2.18805E-02-9.39643E-03
 -1      3831-3.33636E+01-9.57185E-01-8.81278E-03-4.99262E-01-3.97962E-03-3.96205E-02
 -1      3832-3.36236E+01-9.21755E-01 1.45738E-02-4.60297E-01 6.33758E-04-2.66087E-03
 -1      3833-3.27912E+01-9.44864E-01-4.88819E-02-4.05739E-01 1.68475E-02-1.32189E-01
 -1      3834-3.27464E+01-8.35225E-01-1.82450E-02-5.32469E-01-5.51624E-03-1.38607E-01
 -1      3835-3.17602E+01-6.79521E-01-2.35711E-01-4.04292E-01 9.46024E-02-3.14157E-01
 -1      3836-3.38057E+01-1.16755E+00-5.45899E-03-9.71575E-02-1.19261E-02 9.59864E-03
 -1      3837-3.37670E+01-9.35054E-01-4.20303E-03 2.66520E-02-9.26008E-03-8.00687E-05
 -1      3838-3.38326E+01-1.43791E+00 1.26020E-02-2.20321E-01-2.50995E-02 1.21956E-02
 -1      3839-3.38224E+01-1.16991E+00-9.43527E-03-2.60188E-01-3.00225E-02 1.37702E-02
 -1      3840-3.38260E+01-1.79393E+00-1.49080E-03-3.50514E-01-3.79463E-02 5.62579E-03
 -1      3841-3.37433E+01-9.02329E-01-1.16643E-02-2.76539E-01-1.18897E-02 1.70781E-02
 -1      3842-3.37414E+01-1.03375E+00-1.93836E-02-1.61775E-01-2.71956E-02 1.44822E-02
 -1      3843-3.37552E+01-7.59626E-01-2.66014E-03-4.09968E-01-1.58834E-02 3.34666E-02
 -1      3844-3.37945E+01-6.47242E-01-3.12058E-02-3.20850E-01-5.18164E-03 2.63777E-02
 -1      3845-3.37277E+01-7.32962E-01-8.28089E-03-5.33281E-01 6.59260E-03-1.72387E-03
 -1      3846-3.37684E+01-8.92459E-01-8.91185E-03 2.75326E-01-1.25750E-02-2.01181E-02
 -1      3847-3.36554E+01-9.66713E-01-2.67228E-02 3.48615E-01-1.57793E-02-2.01578E-02
 -1      3848-3.37891E+01-6.95963E-01-1.97895E-03 3.68360E-02-8.57542E-03-8.63296E-03
 -1      3849-3.37535E+01-7.52688E-01 5.13428E-05 1.68525E-01-2.87983E-02-1.24978E-02
 -1      3850-3.38196E+01-6.64982E-01-2.35894E-02 2.95241E-01-1.06049E-02-1.42480E-02
 -1      3851-3.35413E+01-1.06484E+00-3.26552E-02 3.79072E-01 7.40933E-03 1.94316E-02
 -1      3852-3.33393E+01-1.08440E+00-4.72761E-02 3.45307E-01-1.93504E-02 4.82606E-02
 -1      3853-3.35239E+01-1.17797E+00-5.85060E-02 2.55848E-01-3.31717E-02 1.33327E-03
 -1      3854-3.35943E+01-9.08892E-01-6.38085E-02 4.44452E-01 6.45112E-03-2.02813E-02
 -1      3855-3.36246E+01-8.53586E-01-8.00234E-02 5.30070E-01-4.89707E-03 2.53279E-02
 -1      3856-3.34618E+01-8.96668E-01-1.99326E-02 5.24814E-01 1.37341E-02-3.78548E-03
 -1      3857-3.37506E+01-7.56689E-01-2.99569E-02 4.04564E-01 3.47775E-02 2.02054E-02
 -1      3858-3.37919E+01-6.32237E-01-2.41434E-02 5.49000E-01 3.78805E-02-2.63430E-02
 -1      3859-3.29866E+01-9.25661E-01-2.16174E-01 6.72508E-01-2.26048E-02-1.12466E-01
 -1      3860-3.27803E+01-9.72467E-01-1.20718E-01 4.75501E-01-2.64848E-02-1.16701E-01
 -1      3861-3.19396E+01-7.86442E-01-1.12603E-01 4.46332E-01-5.46950E-02-2.72011E-01
 -1      3862-3.28103E+01-9.89018E-01-1.49004E-01 3.65678E-01-2.50840E-02-1.41606E-01
 -1      3863-3.32319E+01-7.87652E-01-1.38424E-01 8.64625E-01-4.90281E-02-1.61406E-01
 -1      3864-3.19178E+01-8.47078E-01-4.02102E-01 8.71226E-01-3.24888E-02-3.05847E-01
 -1      3865-3.38496E+01-5.29519E-01-2.55820E-02 6.40359E-01 2.69845E-02-2.46777E-02
 -1      3866-3.35802E+01-5.65577E-01-4.62138E-03 8.64905E-01-4.62514E-02-7.87156E-02
 -1      3867-3.01877E+01-2.62754E-01-4.52881E-02 4.44717E-01 1.53644E-01-6.02875E-01
 -1      3868-3.03787E+01-3.06762E-01 1.80524E-01 2.60274E-01 2.57070E-02-5.63774E-01
 -1      3869-2.84146E+01 2.73449E-01-2.42102E-01 5.22734E-01-1.44477E-01-1.26360E+00
 -1      3870-3.05000E+01-6.25271E-01-6.76749E-01 7.03857E-01-6.29181E-02-4.62038E-01
 -1      3871-3.31046E+01-4.31109E+00 8.27658E-02 1.16805E+00-1.47049E-02 1.72622E-01
 -1      3872-3.31127E+01-4.63630E+00-2.10565E-02 9.03927E-01-3.06010E-02 1.26749E-01
 -1      3873-3.30369E+01-4.75369E+00 6.89946E-02 5.45894E-01-1.52060E-02 1.55321E-01
 -1      3874-3.30037E+01-4.87439E+00 3.89138E-02 1.72930E-01-1.97624E-02 9.01999E-02
 -1      3875-3.24752E+01-5.42821E+00 8.13023E-02 8.35141E-01 1.37886E-02 2.31924E-01
 -1      3876-3.37112E+01-2.16277E+00 9.66761E-03 1.13053E+00-2.10309E-02 4.07650E-02
 -1      3877-3.35289E+01-2.93594E+00-2.66708E-02 1.35287E+00-1.87516E-02 8.61918E-02
 -1      3878-3.31868E+01-3.85280E+00 1.23366E-01 1.46383E+00-7.80792E-02 1.53422E-01
 -1      3879-3.32687E+01-3.36262E+00 5.69572E-02 1.83093E+00-2.57527E-02 1.76782E-01
 -1      3880-3.30745E+01-4.65584E+00 5.97178E-02-1.86621E-01 2.01017E-02 1.24066E-01
 -1      3881-3.34877E+01-4.13460E+00-1.96831E-02-2.79711E-01 1.59255E-02 7.68923E-02
 -1      3882-3.36996E+01-3.52982E+00 1.17072E-02-3.27604E-01 1.86708E-02 1.48696E-02
 -1      3883-3.31786E+01-4.55123E+00 6.24416E-02-3.84891E-01-6.06964E-03 1.24678E-01
 -1      3884-3.38185E+01-1.92817E+00-3.63064E-02 8.42827E-01 4.71196E-02-2.26652E-02
 -1      3885-3.36786E+01-2.04829E+00-5.23521E-03 1.17699E+00 4.95338E-02-5.51693E-02
 -1      3886-3.36588E+01-2.11708E+00-4.78436E-02 1.56449E+00 3.41680E-02-3.96212E-02
 -1      3887-3.31573E+01-2.21044E+00 5.76681E-02 2.08809E+00 8.50108E-04-1.64616E-01
 -1      3888-3.22448E+01-8.81674E-01-4.06983E-02-6.20871E-01-5.39985E-02 2.51994E-01
 -1      3889-3.30816E+01-9.59023E-01-4.86345E-02-6.18947E-01-4.53595E-02 6.98229E-02
 -1      3890-3.34855E+01-8.27449E-01-3.95790E-02-5.98125E-01-1.04037E-03 2.62857E-02
 -1      3891-3.38073E+01-6.66107E-01-7.82819E-02-5.58152E-01 3.70321E-02-6.98361E-03
 -1      3892-3.07980E+01-4.94208E-01 1.93348E-01-4.56310E-01-2.16144E-02 5.83053E-01
 -1      3893-3.07080E+01-4.08482E-01-1.60349E-01-5.46591E-01 1.47861E-02 4.00715E-01
 -1      3894-3.06782E+01-3.82597E-01-7.01891E-02-2.65869E-01 5.13304E-02 6.07492E-01
 -1      3895-2.82379E+01 2.03965E-01 1.60048E-01-3.04898E-01 8.86154E-02 1.20255E+00
 -1      3896-3.38098E+01-6.22902E-01-6.68760E-03-3.23599E-01 2.72824E-02-1.91171E-02
 -1      3897-3.37551E+01-7.56549E-01 1.48409E-03-1.77627E-01 2.03541E-02-1.87187E-02
 -1      3898-3.38018E+01-4.30083E-01-4.84383E-02-3.56947E-01 2.54740E-02-3.14642E-02
 -1      3899-3.39508E+01-4.54408E-01-3.74745E-02-5.04390E-01 6.97093E-03-3.03387E-02
 -1      3900-3.37896E+01-1.11940E+00-1.42966E-02 1.02016E-01 2.64629E-02 1.14706E-03
 -1      3901-3.37626E+01-1.19012E+00 6.26988E-03-1.61614E-02 6.56262E-03-6.22861E-03
 -1      3902-3.37806E+01-8.85173E-01-1.06786E-02-3.80447E-02 7.13121E-03 1.44698E-02
 -1      3903-3.37327E+01-1.37920E+00 9.45330E-04 1.11275E-02 4.98279E-03 4.60170E-03
 -1      3904-3.37866E+01-9.80149E-01 4.80390E-03-4.02836E-02-8.11432E-03 1.06885E-02
 -1      3905-3.37534E+01-1.16820E+00-1.28704E-02-1.39249E-02-1.03244E-02-4.83463E-03
 -1      3906-3.37327E+01-1.39510E+00-4.08307E-04-1.23612E-02-1.50666E-02-3.59984E-03
 -1      3907-3.38288E+01-1.17296E+00-1.98336E-02-4.27398E-01-3.30045E-02 2.86141E-03
 -1      3908-3.37889E+01-8.55860E-01-1.95367E-02-2.59637E-01-2.52858E-02 4.48184E-03
 -1      3909-3.37325E+01-6.94347E-01-2.29488E-02-1.00689E-01-2.05002E-02-1.09857E-02
 -1      3910-3.37480E+01-4.85921E-01 4.43806E-03 4.47795E-02-1.31218E-02-1.83064E-03
 -1      3911-3.38341E+01-1.88222E+00-1.19949E-03-5.72089E-01-2.84406E-02 9.17705E-04
 -1      3912-3.39008E+01-2.00313E+00-3.33463E-02-8.27867E-01-2.43524E-02-5.90245E-03
 -1      3913-3.38693E+01-1.49909E+00-1.05017E-02-6.46464E-01-2.72866E-02 7.68363E-03
 -1      3914-3.37730E+01-1.06954E+00-2.34117E-03-6.16149E-01-3.08380E-02 8.98184E-04
 -1      3915-3.38302E+01-4.55942E-01 2.94454E-03 2.99796E-01-1.43839E-02-3.03636E-02
 -1      3916-3.38195E+01-6.14661E-01-3.40979E-02 4.30378E-01-2.94460E-02-2.76275E-02
 -1      3917-3.38286E+01-3.12797E-01-2.80124E-03 2.17005E-01-6.18040E-03-1.54010E-02
 -1      3918-3.36699E+01-3.07139E-01 3.46395E-03 8.96474E-02-1.49888E-02-2.33697E-02
 -1      3919-3.38309E+01-4.78609E-01-6.71100E-04-2.96332E-01-1.35574E-02 2.12932E-02
 -1      3920-3.37906E+01-6.12553E-01-1.21903E-02-1.74306E-01-2.36269E-02 5.21641E-03
 -1      3921-3.37912E+01-7.01225E-01 2.28222E-03-5.83423E-02-9.48891E-03 8.37676E-03
 -1      3922-3.37910E+01-8.92529E-01-3.69449E-03 7.96448E-02-1.25328E-02 3.70520E-03
 -1      3923-3.35385E+01-7.53902E-01-7.27471E-02-6.90280E-01-1.67784E-03-3.85327E-02
 -1      3924-3.38382E+01-5.98083E-01-4.04887E-02-5.97834E-01-9.89437E-03 2.40378E-02
 -1      3925-3.39511E+01-3.85597E-01-3.99226E-02-5.14888E-01-2.89722E-03 3.19147E-02
 -1      3926-3.38910E+01-3.60493E-01-2.01240E-02-3.40586E-01-7.71870E-04 2.51062E-02
 -1      3927-3.37900E+01-8.08872E-01 4.08283E-03-3.53718E-02 3.00874E-02-8.05023E-03
 -1      3928-3.38326E+01-1.03403E+00-3.87543E-02-2.27694E-01 1.97200E-02-2.12295E-02
 -1      3929-3.37877E+01-7.32350E-01-1.84183E-03-1.94035E-01 1.89714E-02 2.68966E-04
 -1      3930-3.38215E+01-1.37745E+00 1.27195E-03-2.22583E-01 2.51188E-02-1.36927E-03
 -1      3931-3.38675E+01-1.37654E+00-1.55326E-02-3.84730E-01 3.28258E-02-1.09562E-02
 -1      3932-3.36731E+01-6.07165E-01-4.15076E-04-3.14711E-01 1.74790E-02 1.41185E-02
 -1      3933-3.36510E+01-3.53224E-01-8.47719E-04-1.46107E-01-8.53766E-03 1.28048E-02
 -1      3934-3.38123E+01-1.88071E+00-2.40607E-02-8.79035E-01 5.07293E-02 2.72545E-02
 -1      3935-3.37962E+01-1.12663E+00 9.06317E-03-6.26418E-01 2.68377E-02 1.38132E-02
 -1      3936-3.38437E+01-1.59682E+00 1.94228E-02-6.01878E-01 2.92403E-02-2.86294E-03
 -1      3937-3.38516E+01-2.00754E+00 2.15915E-02-5.46554E-01 3.90384E-02-5.66465E-04
 -1      3938-3.37677E+01-9.00002E-01-9.81995E-03-4.46654E-01 4.64470E-02 1.48264E-02
 -1      3939-2.89601E+01-6.89143E-02 1.47892E-02-8.43032E-01-4.79470E-02 1.16441E+00
 -1      3940-2.35339E+01 1.20427E+00 2.87960E-01-2.71335E-01 1.11044E-01 1.90053E+00
 -1      3941-2.45069E+01 1.39614E+00-9.89790E-02-4.30773E-01-7.35624E-02 1.31119E+00
 -1      3942-1.88897E+01 2.52696E+00 8.45220E-02-3.32291E-02 5.44348E-02 2.07655E+00
 -1      3943-2.45123E+01 1.38023E+00-7.26710E-01-1.26993E-01-6.61443E-02 1.51700E+00
 -1      3944-1.41623E+01 3.39720E+00 1.69881E-01-2.04047E-01-4.73200E-01 1.75329E+00
 -1      3945-8.74110E+00 4.23117E+00-1.15631E+00-8.44006E-01-7.30875E-01 3.34798E+00
 -1      3946-1.34421E+01 4.44712E+00 4.42493E-01-3.62666E-01-1.98175E-01 2.05653E+00
 -1      3947-4.16389E+00 6.21866E+00-7.66879E-01-5.52852E-01-7.19817E-01 1.92138E+00
 -1      3948-4.68117E+00 3.97912E+00-1.76833E+00-1.36946E+00-7.55290E-01 2.09487E+00
 -1      3949-5.38136E-01 4.59465E+00-2.39103E-01-1.40920E+00-6.03717E-01 1.15082E+00
 -1      3950-3.82596E+00 3.14025E+00-1.36756E+00-1.61268E+00-7.79719E-01 2.34565E+00
 -1      3951-4.41673E+00 6.98799E+00 1.76684E-01-7.13098E-01-3.34858E-01 1.43191E+00
 -1      3952-3.74076E-01 7.74784E+00-5.60090E-02-5.44842E-01-7.50417E-01 1.02079E+00
 -1      3953-6.66575E+00 6.49513E+00-2.71017E-02-1.94922E-01-2.86313E-01 1.69694E+00
 -1      3954-3.75387E+00 8.34656E+00 1.44152E-01 2.78585E-02-1.23495E-01 3.02603E-01
 -1      3955-1.37064E+01 5.10528E+00-3.11067E-01-2.98870E-02-2.22096E-02 1.63792E+00
 -1      3956-1.62426E+00 7.71903E+00-4.01709E-01-3.68604E-01-4.33820E-01 2.94651E-01
 -1      3957-1.52425E+00 6.39416E+00-3.94668E-01-6.31535E-01-4.34105E-01 2.46177E-01
 -1      3958-5.52336E-01 6.47884E+00 1.06006E-01-4.28507E-01 2.28475E-02-4.03525E-02
 -1      3959-1.04490E+00 5.48545E+00-1.27670E-01-7.61974E-01-1.72633E-01 2.17493E-01
 -1      3960-1.82830E+00 8.45323E+00-4.66505E-01-2.87590E-01-3.38889E-01 2.11044E-01
 -1      3961-1.14587E+00 8.38270E+00 1.22917E-01-2.09800E-01-3.88757E-01 1.18582E-01
 -1      3962-1.64562E+00 9.05560E+00-2.95188E-02-1.63894E-01-2.45725E-01 6.62886E-01
 -1      3963-1.54623E+00 8.73684E+00-5.93612E-02-7.78220E-02-2.86196E-01 4.45160E-02
 -1      3964-1.34770E+00 7.58162E+00-9.80467E-02-1.02498E-01-4.30064E-01-1.26128E-01
 -1      3965-8.80146E-01 7.23431E+00 4.80103E-02 1.68949E-01-5.11799E-01-1.90739E-02
 -1      3966-8.38567E-01 6.44598E+00 6.52770E-02 2.38585E-02-3.75764E-01 5.86522E-02
 -1      3967-1.92180E+01 3.41673E+00-7.34262E-02-1.92359E-02 2.14769E-02 1.93167E+00
 -1      3968-1.27502E+00 9.13198E+00 6.57334E-02 3.16878E-04-2.62668E-01 3.30228E-02
 -1      3969-1.68614E+00 7.63787E+00-3.99157E-01 5.08207E-02-3.78524E-01-2.29928E-01
 -1      3970-1.31355E+00 6.62260E+00-4.64172E-01 3.58265E-01-4.96605E-01-2.65153E-01
 -1      3971-1.73883E+00 8.29850E+00-7.09125E-01 3.67897E-02-3.76077E-01-4.38689E-01
 -1      3972-9.13098E-01 8.30718E+00 1.04272E-01 1.74540E-01-2.48548E-01-8.67417E-01
 -1      3973-1.84148E+00 6.64689E+00-8.66272E-02 8.21323E-01-6.27577E-01-8.19650E-01
 -1      3974-9.69026E-01 5.52757E+00-4.67186E-01 6.76071E-01-7.21073E-01-3.03475E-01
 -1      3975-3.87462E+00 8.00674E+00-1.45868E-02 2.41626E-01-1.75895E-01-1.51456E+00
 -1      3976-3.70142E+00 7.39965E+00 4.11724E-01 3.03451E-01-4.22677E-01-1.30910E+00
 -1      3977-6.52942E+00 6.00918E+00-4.77175E-01 6.45779E-01-2.01938E-01-1.48950E+00
 -1      3978-3.15065E+00 6.74919E+00 3.06287E-01 1.00109E+00-3.36638E-01 2.49278E-01
 -1      3979-7.02332E+00 7.35501E+00 2.11337E-01 2.42949E-01-1.41748E-01-2.64293E+00
 -1      3980-1.27656E+01 4.81034E+00 3.20717E-01 4.34177E-01-2.30336E-01-2.17998E+00
 -1      3981-1.32294E+01 4.05223E+00-5.70826E-02 8.28128E-01-1.44290E-01-1.44258E+00
 -1      3982-1.21188E+01 5.60146E+00 5.73811E-01 9.81148E-02-2.16124E-02-1.95418E+00
 -1      3983-1.95175E+01 3.07855E+00 2.85340E-01 3.12374E-01-1.01663E-01-1.75790E+00
 -1      3984-2.06701E+01 1.83761E+00 2.13991E-01 9.40357E-01-1.35924E-01-1.59792E+00
 -1      3985-2.41019E+01 1.06233E+00-4.33852E-01 3.05239E-01-5.92049E-02-1.30479E+00
 -1      3986-2.40980E+01 1.60932E+00-5.76417E-01 8.14597E-02-9.88573E-02-9.72422E-01
 -1      3987-2.38836E+01 1.40916E+00-2.61427E-01 6.80454E-01-3.43762E-01-1.38363E+00
 -1      3988-2.75244E+01 4.90421E-01-1.87873E-02 1.77740E-01-4.17250E-02-1.15967E+00
 -1      3989-3.30303E+01-4.80477E+00 7.71694E-02-5.82466E-01-2.20488E-02-1.50033E-01
 -1      3990-3.25449E+01-3.63075E+00 3.54376E-01 2.27184E+00-3.30866E-02 4.60233E-01
 -1      3991-3.32001E+01-2.07777E+00 2.77542E-02 2.00386E+00 1.49734E-02 1.29728E-01
 -1      3992-3.29808E+01-1.15901E+00 7.51003E-03 2.04620E+00-1.06005E-02 1.79891E-01
 -1      3993-3.32911E+01-2.74119E+00 4.93817E-02 1.92050E+00-5.97652E-02 1.90458E-01
 -1      3994-3.34885E+01-1.92397E+00-1.84362E-02 1.52327E+00-2.27010E-02 1.72807E-01
 -1      3995-3.36685E+01-1.69107E+00 3.25015E-02 1.16324E+00 4.55640E-03 7.07452E-02
 -1      3996-3.38385E+01-1.40204E+00 1.35919E-02 6.41580E-01 1.71373E-02-1.84241E-02
 -1      3997-3.37847E+01-1.02371E+00 9.55724E-04 3.88816E-01 6.25610E-03-1.86880E-02
 -1      3998-3.38179E+01-1.10750E+00 2.17315E-03 2.61817E-01 1.00461E-02-3.43662E-03
 -1      3999-3.31270E+01-1.21043E+00 7.03157E-02 1.99779E+00-2.48466E-02-1.92900E-01
 -1      4000-3.24610E+01-5.03107E+00 3.65337E-01-1.29174E+00-2.63707E-03-4.64414E-01
 -1      4001-3.31531E+01-2.67551E+00 6.00873E-02-1.87779E+00-9.37500E-03-1.61065E-01
 -1      4002-3.29566E+01-3.66555E+00 3.68554E-02-1.73365E+00 2.68912E-02-1.82398E-01
 -1      4003-3.34677E+01-3.33274E+00 2.71875E-02-1.25693E+00-3.04937E-02-9.08590E-02
 -1      4004-3.29388E+01-4.15739E+00 1.69230E-01-1.34088E+00-5.33784E-02-2.93548E-01
 -1      4005-3.31352E+01-4.58100E+00 1.72222E-01-9.82930E-01-1.19652E-02-1.96699E-01
 -1      4006-3.36092E+01-2.11974E+00 1.98959E-02-1.44913E+00-2.19646E-02-1.02122E-02
 -1      4007-3.12294E+01-2.36643E+00 4.30673E-01-3.59189E+00-2.96364E-02-4.88758E-01
 -1      4008-3.37342E+01-2.54007E+00 8.50787E-03-1.10184E+00-3.47661E-02-2.20748E-02
 -1      4009-3.37121E+01-2.10584E+00 6.97575E-03-1.16802E+00-2.32725E-02-1.82955E-02
 -1      4010-3.36819E+01-1.40899E+00-3.90380E-03-1.16183E+00-3.38448E-02 2.19189E-02
 -1      4011-3.25023E+01-4.90307E+00 8.50998E-02-1.43939E+00-2.67797E-02 2.94765E-01
 -1      4012-3.31312E+01-2.96226E+00 9.07745E-02-1.93019E+00 4.81721E-02 1.72453E-01
 -1      4013-3.30793E+01-3.65646E+00 5.33008E-03-1.69049E+00 1.83132E-02 1.30594E-01
 -1      4014-3.35249E+01-3.24043E+00 1.87392E-03-1.27505E+00 4.94590E-03 8.16219E-02
 -1      4015-3.30822E+01-4.12351E+00-1.05792E-03-1.37823E+00 4.46614E-02 1.59322E-01
 -1      4016-3.29313E+01-4.31241E+00 6.00733E-02-1.04964E+00-2.36711E-02 2.27938E-01
 -1      4017-3.35072E+01-2.12284E+00 6.34602E-03-1.58064E+00 4.24516E-02 1.45896E-01
 -1      4018-3.37039E+01-2.53929E+00 2.23690E-05-1.11282E+00 5.01861E-02 3.59444E-03
 -1      4019-3.37065E+01-2.94226E+00 5.42129E-03-8.82837E-01 2.78573E-02 3.49611E-02
 -1      4020-3.37257E+01-2.05959E+00-2.42402E-02-1.22243E+00 3.03383E-02 4.52953E-02
 -1      4021-3.38883E+01-2.58247E+00-4.47043E-02-6.35644E-01 2.63091E-02 1.08265E-02
 -1      4022-3.37163E+01-3.16144E+00-4.74774E-02-7.23845E-01 1.81141E-02 3.20752E-02
 -1      4023-3.35989E+01-3.82190E+00-1.32500E-02-7.45056E-01 1.51178E-02 5.19703E-02
 -1      4024-3.29958E+01-4.51445E+00 2.23650E-02-7.17279E-01-1.92704E-03 2.04269E-01
 -1      4025-3.37051E+01-3.30996E+00-2.50169E-02-4.94307E-01 3.20745E-02 1.63381E-02
 -1      4026-3.28098E+01-8.82322E-01 3.35529E-02 4.88757E-01 1.68241E-02 1.87621E-01
 -1      4027-3.30538E+01-8.90137E-01-8.41927E-02 6.36228E-01 2.14417E-02 1.01746E-01
 -1      4028-3.20748E+01-7.10896E-01 3.23148E-02 6.07326E-01 1.78580E-02 3.08661E-01
 -1      4029-3.09034E+01-3.98497E-01 1.20523E-01 8.51909E-01 3.48506E-02 6.62051E-01
 -1      4030-3.08941E+01-4.53867E-01-2.79155E-01 4.12282E-01 2.09445E-01 9.15811E-01
 -1      4031-2.83532E+01 4.12763E-01 6.62385E-02 3.82298E-01 1.06339E-01 1.28060E+00
 -1      4032-3.36702E+01-7.07440E-01-6.59476E-02 5.44280E-01-6.66819E-03-1.78641E-02
 -1      4033-3.36592E+01-8.60086E-01-5.34198E-02 5.74334E-01 1.71995E-02-2.78301E-02
 -1      4034-3.33040E+01-7.77872E-01-7.82071E-02 7.10605E-01 4.66957E-02 1.21022E-01
 -1      4035-3.11389E+01-6.25571E-01-1.52173E-01 8.78408E-01 1.22687E-01 5.84235E-01
 -1      4036-2.86416E+01-7.82139E-02 4.22144E-04 8.69555E-01 1.19058E-01 1.31279E+00
 -1      4037-3.26488E+01-6.41712E-01-1.09793E-01 9.05227E-01 2.21330E-02 1.89001E-01
 -1      4038-3.17276E+01-5.27742E-01-1.08106E-01 1.23901E+00 1.29199E-01 3.37791E-01
 -1      4039-2.46789E+01 1.01395E+00-6.63633E-01 7.74124E-01 2.13851E-01 1.44457E+00
 -1      4040-1.78534E+01 2.94498E+00 1.27032E-01 1.18008E+00 4.40876E-01 2.70002E+00
 -1      4041-2.29091E+01 1.92189E+00 3.37872E-01 9.63327E-01 1.01540E-01 2.54923E+00
 -1      4042-6.88536E+00 5.30655E+00-3.34750E-01 9.01749E-01 2.82103E-03 1.39165E+00
 -1      4043-1.31997E+01 4.03558E+00 2.46659E-01 1.10128E+00 2.26308E-01 1.48614E+00
 -1      4044-1.45481E+01 4.28372E+00 6.63480E-01 2.62669E-01 5.87904E-01 3.84425E+00
 -1      4045-3.33230E+00 5.60482E+00 5.73289E-02 1.25493E+00 4.75959E-01-3.97911E-01
 -1      4046-4.14881E+00 6.40160E+00-4.16908E-01 5.74422E-01 3.20352E-01 1.54168E+00
 -1      4047-2.52688E+00 4.01111E+00 3.28771E-01 1.81804E+00 3.57379E-01-1.09204E-01
 -1      4048-1.48848E+00 4.65326E+00 1.62438E-01 1.32718E+00 6.31292E-01 5.53795E-01
 -1      4049-5.09579E-01 7.32161E+00 6.19188E-02 3.49320E-01 4.12563E-01 1.05685E+00
 -1      4050-4.77312E+00 6.33442E+00-1.19379E+00 5.29059E-01 4.19266E-01 2.08342E+00
 -1      4051-7.83654E+00 6.10741E+00-1.42836E+00 2.89308E-01 4.81622E-01 3.67489E+00
 -1      4052-1.25800E+00 6.38453E+00-2.61457E-01 3.76410E-01 3.83863E-01 1.96103E-01
 -1      4053-1.41953E+00 7.53179E+00-4.30064E-01 3.05729E-01 3.92830E-01 3.46986E-01
 -1      4054-9.01855E-01 5.53310E+00-2.66752E-02 4.05496E-01 1.07633E-01 1.30902E-01
 -1      4055-5.81621E-01 6.39470E+00 8.71540E-02 2.13623E-01-9.96261E-03-2.57052E-02
 -1      4056-1.02026E+00 8.32336E+00 1.14168E-01 1.40367E-01 3.81543E-01 1.29780E-01
 -1      4057-1.24102E+00 7.84366E+00-1.34609E-01-1.96244E-02 3.95297E-01-3.72028E-02
 -1      4058-8.82307E-01 6.81552E+00-8.16743E-03-8.59835E-02 4.49793E-01 8.06548E-02
 -1      4059-1.02889E+00 7.58484E+00-2.75258E-02-2.12733E-01 4.88745E-01-7.06150E-02
 -1      4060-5.40438E-01 5.62058E+00 6.04254E-03 1.68650E-02 8.33031E-02 2.36811E-02
 -1      4061-3.38274E+01-1.05164E+00 5.07316E-03 6.03302E-01-1.71090E-02 2.30650E-03
 -1      4062-3.38490E+01-1.61188E+00-4.13310E-02 8.36690E-01-4.21268E-02 2.84080E-02
 -1      4063-3.37649E+01-8.25609E-01 3.57207E-03 2.16750E-01-3.28332E-02 8.35194E-03
 -1      4064-3.36941E+01-6.84860E-01-9.18055E-03 3.22353E-01-2.69305E-02 2.24011E-02
 -1      4065-3.22076E+01-8.39084E-01-2.12707E-01-6.87728E-01-7.18462E-02-4.36489E-01
 -1      4066-3.28752E+01-7.98287E-01-6.23109E-02-7.40356E-01 1.35041E-03-1.94570E-01
 -1      4067-3.03589E+01-5.62613E-01-9.98104E-01-2.24467E-01-7.20544E-02-4.81445E-01
 -1      4068-2.89017E+01 7.47233E-02-2.07729E-01-5.09250E-01-9.02102E-02-8.56218E-01
 -1      4069-3.02440E+01-2.64402E-01-1.59622E-01-8.97811E-01 2.11320E-01-6.29919E-01
 -1      4070-3.08203E+01-3.13205E-01 2.42397E-01-8.82001E-01 7.39923E-02-7.24963E-01
 -1      4071-2.38477E+01 1.45041E+00-7.07760E-01-6.51334E-01 4.86849E-03-1.13319E+00
 -1      4072-2.44444E+01 9.17917E-01-5.82831E-01-5.77928E-01 3.96890E-02-1.38912E+00
 -1      4073-1.93472E+01 3.40547E+00 2.15369E-01-3.00516E-01 4.31486E-02-1.50961E+00
 -1      4074-1.89690E+01 1.83889E+00-5.11655E-01-8.42252E-01 2.11264E-02-1.90834E+00
 -1      4075-2.47605E+01 5.44867E-01-2.10411E-01-9.27434E-01 3.34882E-01-1.64371E+00
 -1      4076-2.46484E+01 2.02093E-01-2.48194E-01-1.52399E+00 2.22774E-02-1.20864E+00
 -1      4077-2.95659E+01-4.52521E-01-2.33338E-01-1.32367E+00 2.03354E-01-9.42270E-01
 -1      4078-1.28061E+01 4.36383E+00 4.87431E-01-3.07043E-01 4.37113E-02-1.48311E+00
 -1      4079-1.15237E+01 5.46761E+00 6.28939E-01-2.74979E-01 1.95115E-01-1.92581E+00
 -1      4080-6.84404E+00 6.08205E+00-1.07062E-01-3.96086E-01 1.92603E-01-2.65709E+00
 -1      4081-4.04770E+00 6.52710E+00 3.85324E-01-9.42081E-01 6.79680E-01-1.42539E+00
 -1      4082-4.89839E-01 6.51789E+00-2.72544E-01-8.53818E-01 6.61130E-01-1.10699E+00
 -1      4083-3.94333E+00 7.41199E+00-3.82993E-01-2.29459E-01 2.40885E-01-1.38078E+00
 -1      4084-1.34344E+00 6.74066E+00-7.17640E-01-4.80531E-01 4.76868E-01-3.75751E-01
 -1      4085-6.31764E-01 5.68736E+00-6.12678E-01-5.12084E-01 5.85183E-01-2.15844E-01
 -1      4086-4.17847E-02 5.34193E+00 1.01597E-01-4.02942E-01 4.89094E-01-4.16434E-02
 -1      4087-4.92347E-01 4.11974E+00-7.29212E-01-7.33667E-01 6.77550E-01-4.71122E-01
 -1      4088-1.05576E+00 8.56393E+00-3.43969E-01-1.33440E-01 3.56350E-01-8.87643E-01
 -1      4089-1.54196E+00 7.95695E+00-5.99398E-01-1.94903E-01 3.86499E-01-3.21969E-01
 -1      4090-3.36616E+01-9.47451E-01-5.48502E-02-8.04999E-01-3.92147E-02-7.35368E-03
 -1      4091-1.66958E+01-2.16339E-01 7.59988E-02 1.91476E-02 3.67225E-01 7.98901E-02
 -1      4092-1.79273E+01-1.56140E+00-3.28793E-01 1.19044E+00-6.34651E-01-2.30836E-02
 -1      4093-1.77279E+01-1.46234E+00-1.78083E-01 1.22642E+00 6.17013E-01 1.37629E-01
 -1      4094-1.82005E+01-1.53979E+00-2.68198E-01-1.21144E+00 6.41950E-01-6.25563E-02
 -1      4095-1.70355E+01-9.98090E-01 1.92012E-01-2.19357E-01 2.85808E-01-3.43145E-01
 -1      4096-1.68790E+01 9.94767E-02 6.64801E-02-3.76002E-02 4.43600E-02 5.18397E-02
 -1      4097-1.70019E+01-3.17475E-01 7.76754E-03 2.75586E-02-5.54292E-02 2.15948E-01
 -1      4098-1.69913E+01-2.60034E-01 7.69199E-03-7.66559E-02 1.76877E-01 1.73172E-01
 -1      4099-1.76126E+01 5.71460E-01 1.00608E+00-1.74823E-02 2.80014E-02-1.49812E-01
 -1      4100-1.71685E+01-1.84558E+00 1.89877E-01 2.89968E-01 2.19509E-01 6.27004E-01
 -1      4101-1.68422E+01 9.01234E-02 6.06830E-02 1.24731E-01-1.13318E-01 3.74931E-02
 -1      4102-1.71362E+01 2.17176E-01 8.81392E-01-1.50520E-01 2.21056E-01 3.51783E-02
 -1      4103-1.68368E+01 7.99325E-02 5.59417E-02-2.21621E-02-2.13200E-02-6.25703E-02
 -1      4104-1.75565E+01 5.57631E-01 1.06883E+00-5.25087E-02-1.18411E-01-1.37723E-01
 -1      4105-1.73237E+01 4.23806E-01 6.80337E-01 1.94582E-02-1.06329E-01 7.01748E-02
 -1      4106-1.75581E+01 4.67120E-01 7.06025E-01-1.11991E-02 4.12821E-02 1.05032E-01
 -1      4107-1.69655E+01-3.63515E-01 2.05809E-02 1.38557E-02 3.49857E-02-2.39287E-01
 -1      4108-1.69108E+01-2.01347E+00 1.62565E-01-2.90015E-02 1.76402E-02-7.13485E-01
 -1      4109-1.71116E+01 2.72346E-02 3.50689E-02 1.38680E-01 1.25783E-01-5.04871E-02
 -1      4110-1.67270E+01 1.10200E-02 3.15859E-02-2.42035E-01 2.16705E-01-4.04034E-02
 -1      4111-1.73798E+01-1.93955E+00 1.89782E-01-2.89156E-01-2.02588E-01 6.24070E-01
 -1      4112-1.70101E+01-4.99563E-01 5.77516E-02-1.51891E-02-2.79428E-01 2.14303E-01
 -1      4113-1.79493E+01-1.48016E+00-2.41315E-01-1.22882E+00-5.98930E-01 8.70838E-02
 -1      4114-1.67086E+01-6.64062E-02 1.59144E-02-1.77629E-01 2.76872E-01-5.19944E-02
 -1      4115-1.68839E+01-9.65646E-02 2.59787E-03-1.40170E-01-1.67875E-01-9.79366E-02
 -1      4116-1.70981E+01-5.65394E-01 7.64783E-02 5.59256E-02-2.68752E-01-2.55615E-01
 -1      4117-1.64832E+01 2.68832E-01 2.66264E-01-9.26978E-02 1.54460E-01-5.50501E-02
 -1      4118-1.68604E+01-3.31750E-02-1.92824E-03 2.16133E-01 2.40376E-01 2.68435E-03
 -1      4119-1.74025E+01-1.93973E+00 1.01057E-01 5.41015E-01-3.84734E-01-6.04904E-01
 -1      4120-1.67051E+01 1.51813E-01 2.56526E-01 1.36041E-01-1.86745E-01-2.32246E-02
 -1      4121-1.69116E+01 9.91256E-03 3.29612E-02-2.35904E-01-2.10225E-01 2.89578E-02
 -1      4122-1.65464E+01-6.36929E-02-2.68444E-03 2.03788E-01-2.55296E-01-3.89593E-02
 -1      4123-1.69439E+01-1.07189E-01 1.49495E-02-1.61221E-01-3.00175E-01 6.02293E-02
 -1      4124-1.75512E+01-7.34054E-01 1.45912E-01 2.45144E-01 4.18436E-01 1.93146E-01
 -1      4125-1.78821E+01 3.14520E-01 1.24601E+00 2.75008E-01 2.84561E-01-4.22721E-01
 -1      4126-1.83008E+01-3.11437E-01 1.37709E-01-1.60652E-01-4.35410E-01-1.56585E-01
 -1      4127-1.80466E+01 3.05230E-01 1.32288E+00 2.55515E-01-1.76806E-01 3.91178E-01
 -1      4128-1.53257E+01-2.52242E+00-2.79971E-01-6.10698E-01 3.13946E-01-9.10690E-01
 -1      4129-1.79608E+01 1.80750E-02 8.37663E-02 2.27726E-01 1.84652E-01 1.50389E-02
 -1      4130-1.64373E+01 5.39328E-01 1.16302E+00-1.73597E-01 1.52903E-01 1.04514E+00
 -1      4131-1.46263E+01-7.00578E-01 1.14101E-01 5.79893E-03-1.18438E-03 4.76040E-01
 -1      4132-1.47163E+01-1.61484E-01 1.33030E-01 3.95839E-02-4.49651E-01 1.01191E-01
 -1      4133-1.47922E+01-1.36525E-01 2.28859E-02 9.55928E-02 2.17869E-01-1.92025E-01
 -1      4134-2.13305E+01 3.00928E-01 2.05130E+00-3.18729E-01-9.70537E-02 3.38175E-01
 -1      4135-1.39483E+01-5.26896E-01 9.73725E-02 1.60272E-02-6.65526E-02-4.46041E-01
 -1      4136-2.18775E+01 4.47361E-01 1.83438E+00 1.73141E-01 8.36120E-02 7.56186E-01
 -1      4137-2.04913E+01-3.44330E+00-2.93751E-01 1.09851E+00 4.30879E-01 7.76779E-01
 -1      4138-2.29872E+01 3.75854E-01 2.77391E+00 1.88614E-01-7.71020E-02-9.87831E-01
 -1      4139-2.25250E+01 4.10088E-01 2.26751E+00 1.13352E-01-3.59740E-02-8.49657E-01
 -1      4140-2.02244E+01-5.90132E-02 5.83826E-03 2.43865E-01-1.86444E-01-4.04569E-02
 -1      4141-2.02929E+01-3.95768E+00-4.43001E-01 2.33934E-02 1.24224E-02 1.05901E+00
 -1      4142-1.98571E+01-3.24091E-01-1.94185E-03 1.34235E-01-1.85058E-01 8.43513E-02
 -1      4143-1.36367E+01 2.06725E-01 2.09617E-02-1.88028E-01 1.62539E-01 3.48640E-02
 -1      4144-2.00508E+01-8.97849E-02 8.59420E-02-1.92053E-01-1.32249E-01-3.76355E-02
 -1      4145-1.41888E+01-8.70727E-01 1.53579E-01-3.97823E-01-4.31795E-01 4.33137E-01
 -1      4146-2.49774E+01 2.03871E-01 3.46908E+00-2.77030E-01 2.13567E-02-1.67641E+00
 -1      4147-2.01303E+01 5.93467E-02 2.88927E-01 2.96762E-02-3.69708E-02 1.56962E-01
 -1      4148-2.06855E+01-9.83659E-03 2.58544E-01-2.16378E-01 1.55202E-01 1.40178E-01
 -1      4149-1.34975E+01 4.28020E-01 2.56209E-01 7.30121E-02 1.62437E-01 1.52216E-01
 -1      4150-1.25444E+01-2.45382E+00-5.69823E-01 2.95125E-01-1.40336E-01-8.18467E-01
 -1      4151-2.09717E+01-1.16903E+00 8.88003E-02 1.71524E-01 2.01588E-01 2.81927E-01
 -1      4152-2.16175E+01-4.11057E+00-5.67313E-01-1.03564E+00-3.74687E-01 9.48653E-01
 -1      4153-1.41181E+01-8.27981E-02 9.42621E-02-6.66497E-02 4.09632E-01-2.01446E-01
 -1      4154-2.07929E+01-1.39679E-02 2.48706E-01-2.20683E-01-1.53341E-01-1.39507E-01
 -1      4155-2.55783E+01 1.93854E-01 3.59483E+00 3.80906E-02-1.31124E-02 2.03253E+00
 -1      4156-2.12299E+01-7.50037E-01 1.21495E-02-7.09311E-03-1.05471E-01-1.98283E-01
 -1      4157-1.24244E+01 2.35588E-01 1.72234E-02 2.31944E-01-1.79549E-01-7.10801E-04
 -1      4158-2.37227E+01 1.37515E-01 2.99528E+00-6.66982E-01 2.05107E-02-9.80819E-01
 -1      4159-1.38977E+01 2.05745E-01 7.36742E-01-1.69018E-01-3.12229E-01-4.48147E-01
 -1      4160-2.11157E+01-1.35473E+00 8.94356E-02-9.03600E-02 1.09610E-01-3.05796E-01
 -1      4161-2.23801E+01-6.57917E-01-2.59463E-03-2.56320E-02 4.63680E-02 1.25386E-01
 -1      4162-2.52634E+01 1.48958E-01 2.85349E+00 7.15394E-01-9.74840E-02-1.78552E+00
 -1      4163-1.16520E+01 4.30484E-01 2.81295E-03 4.81584E-02-3.52238E-02 8.95003E-02
 -1      4164-2.53483E+01 1.83319E-01 3.18146E+00 5.00942E-01-1.11809E-01 2.35052E+00
 -1      4165-2.75188E+01 1.44472E-02 2.75400E+00-7.54945E-01 6.14732E-02 2.74012E+00
 -1      4166-1.19097E+01-2.47198E+00-8.83344E-01 3.95950E-01 2.15085E-01 6.75080E-01
 -1      4167-2.18854E+01-1.25505E+00 1.35480E-01-6.47243E-01 4.22366E-01 7.04439E-03
 -1      4168-1.18851E+01 3.63276E-01 2.32280E-01-7.09254E-02-1.72673E-01 1.57496E-01
 -1      4169-2.24319E+01-1.49744E-01 2.85334E-01-4.03204E-02-2.43651E-02-1.96652E-01
 -1      4170-1.20789E+01 5.49433E-02 2.23744E-02 2.49356E-01 2.51499E-01 1.53544E-01
 -1      4171-1.29231E+01-1.17593E-01 1.73816E-01-7.93325E-02 4.91641E-01 2.12237E-01
 -1      4172-1.09180E+01 1.04376E-01 3.87563E-03 2.47902E-01 1.68223E-01 6.80234E-02
 -1      4173-1.14624E+01-2.41974E+00-8.86432E-01-3.20103E-01-1.75189E-01 6.64753E-01
 -1      4174-2.23760E+01-1.57030E-01 2.20863E-01 1.29152E-01 7.46303E-02-1.80506E-01
 -1      4175-1.15307E+01 3.29660E-01 2.10962E-03-5.71664E-02-5.33012E-02-1.43489E-01
 -1      4176-2.04658E+01-4.57123E+00-1.13992E+00-2.37882E-01 6.81978E-02-1.25749E+00
 -1      4177-2.57532E+01 2.40476E-01 3.28198E+00-3.83678E-01 4.84307E-02-2.49910E+00
 -1      4178-2.20951E+01-1.28974E+00 1.44695E-01 4.81863E-01-3.83097E-01-7.79286E-02
 -1      4179-2.26081E+01-5.71757E-01-9.13818E-04 4.73731E-02 5.25642E-02-1.00590E-01
 -1      4180-1.07774E+01-2.21077E+00-9.85504E-01 7.37251E-01-3.56356E-01-4.08194E-01
 -1      4181-2.25165E+01-4.14031E-01-3.41542E-03-1.30831E-01 1.92905E-01 3.21971E-02
 -1      4182-2.56465E+01 2.14405E-01 3.26212E+00-3.17626E-01 4.47721E-02 1.79108E+00
 -1      4183-1.11704E+01 1.50091E-01 2.11809E-02-4.97306E-02 6.04704E-02 2.51636E-01
 -1      4184-2.23149E+01-1.28150E+00 5.26657E-02-1.07774E-01-1.19415E-01 2.57709E-01
 -1      4185-1.15630E+01 6.58800E-01 1.12134E-01 2.49358E-02 4.74328E-02 5.65039E-02
 -1      4186-2.25361E+01-1.92888E+00 1.52149E-01 2.86767E-01-1.86688E-01-2.95986E-01
 -1      4187-1.16426E+01-8.13945E-01 6.27942E-02-4.52521E-01 4.42629E-01-5.30188E-01
 -1      4188-1.33844E+01 1.05738E+00 8.16967E-01-5.43200E-02-6.71230E-02-1.67997E+00
 -1      4189-1.12041E+01 5.28986E-01 4.67554E-02-9.75630E-02-9.56854E-02 8.79079E-03
 -1      4190-2.30082E+01-2.13030E-01 2.18318E-01-8.77555E-02 4.51738E-02 1.70049E-01
 -1      4191-1.23704E+01 3.88864E-02 4.33412E-02 2.25993E-01-2.83125E-01-1.97155E-01
 -1      4192-2.88074E+01-2.95816E-01 2.94989E+00 2.40849E-01-3.11838E-02 3.59020E+00
 -1      4193-2.33894E+01-3.97682E+00-3.22332E-01 1.50729E+00-4.49572E-01-7.27777E-01
 -1      4194-2.31107E+01-2.59051E+00 1.58139E-01 9.01719E-03-1.43436E-02 3.46936E-01
 -1      4195-2.27840E+01-1.91895E-01 2.15519E-01 1.84362E-01-8.94593E-02 1.55757E-01
 -1      4196-2.37472E+01-3.81119E+00-9.70436E-02-1.46232E+00 4.46284E-01-6.32940E-01
 -1      4197-2.83099E+01-1.42802E-01 2.61261E+00 1.77908E-01-1.02747E-01-4.76857E+00
 -1      4198-1.08172E+01 4.31063E-01 5.63003E-03 9.91637E-02 7.30018E-02-1.15520E-01
 -1      4199-1.13016E+01-2.63552E-01 1.02312E-01-2.87560E-02-1.86739E-01 4.42574E-01
 -1      4200-1.15244E+01 7.53038E-02 3.22638E-02-1.73818E-01 2.64133E-01 1.60729E-01
 -1      4201-1.16557E+01-1.09513E+00-1.22047E+00 1.30146E+00-5.54555E-01 7.68647E-01
 -1      4202-1.13168E+01 1.15006E+00 6.43731E-01 3.53359E-02-4.61271E-02 6.88877E-01
 -1      4203-2.26095E+01-5.23865E-01 1.82286E-04 1.02465E-01 1.62199E-01-7.49289E-02
 -1      4204-2.28653E+01-3.44916E-01-7.55250E-03-1.73625E-01-1.91149E-01-5.36820E-03
 -1      4205-1.06992E+01 6.68218E-01 2.32122E-01 3.90390E-02-1.30473E-01-1.64672E-01
 -1      4206-1.13858E+01-8.17529E-01 8.68971E-02 3.73760E-01 3.86581E-01 5.97225E-01
 -1      4207-2.36580E+01-1.74705E-01 1.60215E-02-2.31283E-02 2.19518E-01 2.94961E-01
 -1      4208-2.31478E+01-1.77873E+00 1.07247E-01-4.61619E-01-2.74281E-01 2.16055E-01
 -1      4209-1.05382E+01 1.09655E+00 5.63610E-01 1.20939E-01 1.40465E-01-7.74295E-01
 -1      4210-1.06778E+01 4.51356E-01-1.65738E-03-1.06321E-01 8.43022E-02 1.04079E-01
 -1      4211-1.10463E+01 3.36890E-01 1.72023E-01-8.30517E-02 1.83966E-01-1.29633E-01
 -1      4212-1.17252E+01-1.10657E+00-1.21304E+00-1.32766E+00 5.46212E-01 7.62570E-01
 -1      4213-1.08399E+01-1.03312E+00 1.02663E-01 6.35782E-03 1.10780E-03 7.94767E-01
 -1      4214-2.52034E+01-1.97487E+00-5.72890E-01 2.38880E+00 4.39381E-01-2.40774E-01
 -1      4215-2.31754E+01-6.11372E-01 1.62653E-03 5.68551E-02-7.57163E-02 8.74529E-02
 -1      4216-1.06424E+01 2.74777E-01 1.94820E-03 1.47893E-01-1.40761E-01 1.66878E-01
 -1      4217-1.16954E+01-1.06355E+00-1.17451E+00 1.34823E+00 5.96657E-01-7.90362E-01
 -1      4218-1.16570E+01-1.13649E+00-1.22774E+00-1.34360E+00-5.41065E-01-7.96776E-01
 -1      4219-2.51547E+01-2.52687E+00-1.22028E+00-2.79552E+00 4.64531E-01-8.86085E-03
 -1      4220-1.06755E+01-3.48693E-01 1.27212E-01-5.18075E-02 1.14861E-01-5.61983E-01
 -1      4221-1.08947E+01 2.15889E-01 8.50472E-03-2.34892E-01-2.22505E-01-1.08270E-01
 -1      4222-2.24316E+01-1.16049E+00 3.30925E-02 2.60631E-02 3.79252E-02 2.39850E-01
 -1      4223-2.17695E+01-1.71523E-01 1.79608E-02 5.20222E-03-2.65158E-01 3.09011E-01
 -1      4224-2.50226E+01-2.61542E+00-1.31252E+00 2.80816E+00-4.40237E-01-4.25572E-02
 -1      4225-1.06496E+01-1.91306E+00-8.04686E-01 8.92378E-01 4.46106E-01 1.94302E-01
 -1      4226-8.95961E+00 5.82096E-01 1.30230E-01 6.21971E-01 7.65553E-01-1.76025E+00
 -1      4227-1.06409E+01 1.24255E+00 8.76089E-02-4.54305E-01-3.49101E-01-2.17009E+00
 -1      4228-2.31211E+01-7.55911E-02 5.37052E-01 1.28448E-01 9.28002E-02-4.05210E-01
 -1      4229-8.41125E+00 5.94921E-01 1.50366E-01 5.72808E-01-6.41753E-01 1.45440E+00
 -1      4230-1.07974E+01 9.42155E-02 1.36618E-02-2.69760E-01 1.88879E-01-8.99824E-02
 -1      4231-1.17349E+01-5.15672E-01 1.54308E-01 3.06436E-01-4.57200E-01-4.15074E-01
 -1      4232-2.51059E+01-2.35167E+00-1.09902E+00-2.64187E+00-4.40246E-01-1.19417E-01
 -1      4233-2.34934E+01 1.42302E-01 9.23274E-01 1.95045E-02-2.30153E-02 7.56553E-01
 -1      4234-2.16966E+01-9.42339E-02-2.43985E-02-1.80939E-01-1.89841E-01 1.00567E-01
 -1      4235-1.11089E+01-1.70585E+00-4.43381E-01-7.71967E-01-4.58355E-01 5.30440E-01
 -1      4236-1.29771E+01 8.97928E-02 1.75588E-01 1.38034E-01-1.78830E-01-6.01055E-02
 -1      4237-2.33284E+01-2.84301E+00 2.03339E-01-4.63245E-01 2.03895E-01-3.32644E-01
 -1      4238-2.74378E+01 2.63954E-02 3.16240E+00 4.54858E-01-2.49594E-02 2.90095E+00
 -1      4239-2.36204E+01-3.51393E-01 9.79694E-02-3.37425E-01 3.41313E-01 5.23253E-01
 -1      4240-2.24055E+01-4.94684E-01 9.37769E-02 4.95795E-01 4.07401E-01-5.33013E-01
 -1      4241-1.00324E+01 9.94532E-01 2.39941E-01-8.18374E-03-4.96638E-03-2.13150E-01
 -1      4242-2.27662E+01-1.01078E-01-1.48065E-02 1.88854E-01 1.78027E-01 8.35195E-02
 -1      4243-2.29429E+01-4.17915E-01 2.05249E-02-1.33481E-01 9.82897E-02 5.00311E-02
 -1      4244-2.32007E+01-3.24832E-01 2.17271E-03 2.30957E-01 1.48168E-01-8.55828E-03
 -1      4245-1.14157E+01 3.02341E-01 2.54354E-02 2.05033E-01 1.70497E-01-5.58978E-03
 -1      4246-1.06649E+01-3.30116E-01 1.11273E-01 6.33983E-02-2.12665E-01-4.92876E-01
 -1      4247-1.04416E+01 7.64954E-02 6.58989E-02 1.30344E-01 3.06589E-01-2.28309E-01
 -1      4248-2.34864E+01-9.92466E-02 5.06805E-01-1.95814E-01-1.09602E-01-4.16271E-01
 -1      4249-1.00909E+01 1.08227E-01 7.97006E-03 2.50155E-01-1.67602E-01-8.04425E-02
 -1      4250-2.27616E+01-5.10552E-01 2.91599E-02-6.31815E-02-2.75833E-01 3.80192E-03
 -1      4251-1.02903E+01-1.62711E-01 9.72967E-02 2.16906E-02 2.21025E-01 4.30748E-01
 -1      4252-2.44834E+01-2.57101E+00 9.94370E-02-1.21690E+00-4.04556E-01 8.49877E-02
 -1      4253-2.33005E+01-1.88950E-01-4.14188E-04 1.25552E-02 2.38049E-01-2.54036E-01
 -1      4254-2.32144E+01-3.24271E-01 1.52308E-02 2.31319E-01-1.41940E-01 2.05706E-02
 -1      4255-1.12791E+01 1.39979E+00 3.08961E-01 1.89947E-01-1.62673E-01 2.36721E+00
 -1      4256-2.28474E+01-7.85175E-01 2.91425E-02 8.54430E-02 2.46791E-01 1.03570E-01
 -1      4257-2.34463E+01-1.85392E-01-1.89977E-02-1.84065E-01 1.93754E-01-4.67390E-02
 -1      4258-2.36259E+01-5.23955E+00-1.14843E+00 8.42675E-01-2.54124E-01-1.23810E+00
 -1      4259-2.37523E+01-2.31655E+00 1.41203E-01 7.51501E-01 3.03420E-01 1.92119E-01
 -1      4260-2.29523E+01-4.52129E-01 2.54823E-02-1.07545E-01-8.18193E-02-5.43283E-02
 -1      4261-2.40812E+01-5.47996E+00-9.39150E-01 7.40595E-01 2.09892E-01 1.24784E+00
 -1      4262-1.04193E+01 1.97391E-01 4.33574E-01-3.50154E-01 4.47754E-01 1.21454E+00
 -1      4263-1.18948E+01 1.34945E+00 5.05851E-01-4.06170E-02 3.73333E-02 2.10574E+00
 -1      4264-2.13485E+01-7.97339E-01 5.88332E-02-1.58316E-01 2.94984E-01-1.17683E-01
 -1      4265-1.10324E+01 3.43096E-01 1.64275E-02-2.03382E-01-1.57666E-01-6.58031E-03
 -1      4266-1.02913E+01 1.37471E-01 1.44093E-02-2.93203E-01-1.91116E-01 6.28119E-02
 -1      4267-1.05828E+01 2.18626E-01 4.03953E-01 4.29643E-02 2.47426E-01-3.37269E-01
 -1      4268-2.37867E+01-3.16223E-01 1.14606E-01 3.72897E-01-3.25613E-01 5.15501E-01
 -1      4269-2.43434E+01-8.17120E-01 6.22806E-03 3.56533E-02-1.81444E-01-9.91558E-02
 -1      4270-2.32261E+01-6.95523E-02 2.45250E-01 2.94444E-01-1.36317E-01 2.05385E-01
 -1      4271-1.07476E+01 1.54471E-01 2.58078E-01 6.25659E-02 1.77205E-01 1.30856E-01
 -1      4272-1.03091E+01 7.86763E-01 1.39831E-01-3.69386E-02 7.01450E-02-1.20332E-01
 -1      4273-1.08870E+01 6.30991E-02 4.56347E-02-2.32291E-01-2.68705E-01 2.24230E-01
 -1      4274-9.00808E+00-1.40019E+00-2.04151E-01-1.29311E-01 8.69885E-02-8.14568E-01
 -1      4275-1.04530E+01 2.07615E-01 2.34553E-02-8.89015E-02-1.23277E-01-2.35562E-01
 -1      4276-1.22946E+01-2.50623E+00-1.24845E+00-1.05506E+00 4.69409E-01-1.80142E-01
 -1      4277-9.91129E+00 2.32195E-01 3.27590E-01 4.70635E-02-2.24187E-01 3.14044E-01
 -1      4278-9.80213E+00 1.14944E-01 7.10820E-02-1.48143E-01-1.39939E-01 6.71498E-02
 -1      4279-2.36524E+01-1.21111E-01-1.24834E-02 1.00826E-01-1.73910E-01-1.63944E-01
 -1      4280-1.36543E+01 4.29135E-01 8.93248E-01-8.52817E-01-7.06680E-01-2.23813E+00
 -1      4281-2.84741E+01 2.29279E-01 1.15125E+00-8.02829E-01-5.41845E-01-5.94171E+00
 -1      4282-1.03985E+01-8.34215E-02 1.12711E-01 8.92186E-02-4.99024E-01 2.27887E-01
 -1      4283-1.04741E+01 2.62977E-01-7.23357E-04-2.82612E-01 2.04185E-01 4.55115E-02
 -1      4284-1.04176E+01 1.14788E-01 4.42241E-02 2.07996E-01-3.01780E-01 1.03313E-01
 -1      4285-2.35657E+01-3.01504E-01 2.48352E-02-2.55073E-01 1.29440E-01 1.64197E-02
 -1      4286-1.39915E+01-1.31465E-01 2.51643E-01-1.44000E-01-5.32333E-01-4.01040E-01
 -1      4287-1.02462E+01 1.40116E-01 3.06833E-02 7.00983E-02 1.07831E-01-2.92963E-01
 -1      4288-2.35375E+01-1.11616E-01 5.90106E-01-1.55426E-01 7.80272E-02 4.92973E-01
 -1      4289-1.16791E+01-1.12674E-01 1.31566E-01 1.25130E-01 5.00584E-01-2.47035E-01
 -1      4290-2.60293E+01 3.65649E-01 2.82771E+00 4.97100E-01 1.63303E-01-4.85050E+00
 -1      4291-2.27179E+01-3.06494E-01 9.39858E-02 4.32015E-02 2.99475E-02-9.55515E-02
 -1      4292-2.17597E+01 5.71991E-03 3.35868E-01 2.60726E-01 1.20030E-01-2.68066E-01
 -1      4293-1.01307E+01 8.24715E-02 4.84417E-02-1.72252E-01-3.01483E-01-1.63878E-01
 -1      4294-1.18970E+01 8.54412E-02 1.11287E-01-1.52066E-01 1.56834E-01-5.57870E-02
 -1      4295-7.56218E+00 1.48096E+00-4.52831E-01-7.16399E-01 7.08752E-01 2.14204E+00
 -1      4296-1.05333E+01 9.56107E-01 4.12618E-01-6.29659E-02 1.06265E-01 4.20696E-01
 -1      4297-2.74237E+01 1.91952E-01 8.99534E-01-4.74477E-01-2.32109E-01-6.03241E+00
 -1      4298-2.35756E+01 1.23589E-01 9.29041E-01 5.94262E-02 6.20701E-02-9.04370E-01
 -1      4299-8.58102E+00 1.22614E+00 1.84643E-01 3.51667E-01-2.33307E-01 1.30694E+00
 -1      4300-3.04900E+01-9.50223E-01-7.65202E-01-4.45024E-02 1.57536E-01 5.92561E+00
 -1      4301-9.59821E+00 2.39546E-01 7.37895E-03 3.13088E-01 2.27686E-01-5.01996E-02
 -1      4302-2.35071E+01-9.56032E-01 1.48511E-02-2.96322E-02 1.23806E-01-1.67808E-01
 -1      4303-2.30605E+01-6.56692E-01 3.73990E-02 1.62025E-01-2.83725E-01-6.53026E-03
 -1      4304-9.93554E+00 8.84643E-01 1.59116E-01-2.43866E-02-3.25062E-02 1.43514E-01
 -1      4305-2.78876E+01 3.67811E-01 6.04470E-01 7.53819E-01 6.69570E-01-5.99419E+00
 -1      4306-2.36018E+01 6.44350E-02 1.26263E+00 1.05595E-01-5.31291E-02 1.17899E+00
 -1      4307-2.84124E+01-1.78223E-01-1.12051E+00 5.65165E-01-4.53258E-01 5.85884E+00
 -1      4308-2.21830E+01 1.01959E-01 1.20555E+00-8.66524E-02 1.26445E-01 7.93615E-01
 -1      4309-1.18247E+01 2.51161E-01 5.14555E-03 1.84720E-01 1.61083E-01-8.73919E-02
 -1      4310-9.64450E+00 8.36040E-01 1.15337E-01 2.58032E-02-5.40409E-02-8.75947E-02
 -1      4311-1.03810E+01 7.43223E-01 4.96278E-01-1.93104E-01-2.49446E-01-6.91969E-01
 -1      4312-1.03792E+01 2.74301E-01 6.34719E-04 2.68120E-01-1.97518E-01 6.85063E-02
 -1      4313-2.44824E+01-4.66822E+00-9.86417E-01 2.19859E+00 4.34990E-01 8.33652E-01
 -1      4314-2.40907E+01-1.55937E+00 4.31961E-02 4.40681E-02-3.77990E-02-2.34935E-01
 -1      4315-1.07423E+01 1.18871E+00 6.57496E-02 4.46131E-01 4.70564E-01-2.12683E+00
 -1      4316-2.74322E+01 2.23781E-01 3.13840E+00-6.18566E-01 1.95514E-01 4.50360E+00
 -1      4317-2.29100E+01-4.51056E+00-1.03938E+00-1.94146E+00-4.81189E-01 8.70809E-01
 -1      4318-2.72826E+01 2.47935E-01 2.50367E-01 4.79104E-01 3.08499E-01-6.11512E+00
 -1      4319-2.38056E+01 3.30920E-02 8.80555E-01-1.97987E-01-3.13591E-02-7.79088E-01
 -1      4320-2.39427E+01-7.46724E-01-4.06746E-03-1.93197E-02-3.02954E-02-1.00402E-01
 -1      4321-2.94350E+01-5.05884E-01-3.83969E-01 1.03217E-01-5.73626E-02-6.13662E+00
 -1      4322-2.71821E+01 2.90246E-01 1.36225E+00-1.29550E-01-4.52493E-02-6.38815E+00
 -1      4323-2.27485E+01-3.21311E+00 1.17843E-01 3.61153E-01-1.62631E-01-4.43251E-01
 -1      4324-2.40229E+01-5.35481E-01 3.18672E-02 2.06005E-02-1.39896E-02 6.65038E-02
 -1      4325-2.55359E+01 7.85995E-02 8.85703E-01-2.20040E-02-9.30493E-03 1.29484E+00
 -1      4326-1.62551E+01 8.40810E-01 1.15876E+00 2.27519E-01 1.59047E-01-2.37630E+00
 -1      4327-2.43641E+01-1.01172E+00 5.40572E-02-8.81038E-01-4.13302E-01-3.07915E-01
 -1      4328-2.22320E+01-1.19050E-01 2.61558E-02-2.93426E-03-2.32911E-01-3.29725E-01
 -1      4329-3.24955E+01 1.01083E-01-1.55728E-01 1.41524E-02-1.20572E+00-2.06239E-02
 -1      4330-2.87241E+01 1.78417E-01-1.09197E+00-6.11736E-01 1.01639E+00 5.81854E+00
 -1      4331-9.65018E+00 8.84095E-02 3.11581E-02-2.84173E-01 2.31296E-01-1.90181E-01
 -1      4332-9.45376E+00-7.28100E-01 5.70579E-02 9.99651E-02-1.09691E-01-7.33531E-01
 -1      4333-9.54147E+00 7.64546E-01 1.85077E-01-7.20828E-03-1.18110E-01 1.98909E-01
 -1      4334-9.43707E+00 2.56642E-01 3.23028E-02 6.80159E-02-7.38579E-02 2.71632E-01
 -1      4335-2.45755E+01-1.00788E+00 4.59250E-03-3.56761E-02-1.15088E-01 1.30225E-01
 -1      4336-9.77676E+00 4.79988E-01-1.81413E-03 1.78381E-01-1.17222E-01 7.42106E-02
 -1      4337-2.40646E+01-1.12209E-01 4.58362E-01 2.25894E-01-7.20459E-02 4.40618E-01
 -1      4338-2.39941E+01-2.77342E-01-8.78968E-03 7.30553E-02 2.17731E-01 6.82566E-02
 -1      4339-9.59958E+00 8.59469E-01 4.12678E-01-2.11819E-01 2.39126E-01 6.84659E-01
 -1      4340-2.45027E+01-5.66465E+00-1.01827E+00-5.48179E-01-1.52657E-01 1.32259E+00
 -1      4341-2.45130E+01-4.02370E-01-2.16137E-03 1.68146E-01-1.72880E-01 9.25364E-04
 -1      4342-1.15242E+01-2.47588E+00-1.65470E+00 1.25346E+00-4.57694E-01 2.47084E-01
 -1      4343-8.28948E+00-1.98135E+00-9.93552E-01 2.66249E-02 4.01028E-03 2.61524E-01
 -1      4344-2.38509E+01-7.32697E-02 2.70910E-02-2.43304E-01-1.32972E-01 7.21708E-03
 -1      4345-2.84671E+01-5.59628E-01-2.20521E+00 2.41749E-01-1.30911E-01 5.34073E+00
 -1      4346-2.53675E+01-7.99248E-01-4.12883E-03-5.58874E-02 1.12085E-01 7.73031E-02
 -1      4347-2.47185E+01-2.12831E-02 7.48231E-01-3.84155E-02-1.76464E-02-8.63791E-01
 -1      4348-3.30274E+01 1.59455E-01-2.63437E-02-4.27968E-02 1.28440E+00 1.91984E-02
 -1      4349-2.51002E+01-3.91923E-01 1.38163E-01-1.52781E-01-5.97403E-02-1.53706E-01
 -1      4350-2.48034E+01-1.94526E+00 1.40779E-01 1.17415E+00 3.90853E-01-1.60962E-01
 -1      4351-2.84209E+01-1.66758E-01-9.58995E-01-7.08492E-01-6.69772E-01-5.64593E+00
 -1      4352-9.38948E+00 7.77984E-02 5.82425E-02 2.61953E-01 2.94792E-01 2.45076E-01
 -1      4353-2.50857E+01-2.93131E-01 7.31887E-02-3.14955E-01-1.19197E-01-5.14311E-02
 -1      4354-9.30999E+00-9.01413E-01-2.33400E-02-3.01324E-01-2.57229E-01 7.05844E-01
 -1      4355-2.44005E+01-2.44244E+00 1.40425E-01 3.37851E-02-1.61644E-02-2.79740E-01
 -1      4356-9.76242E+00-5.77884E-01 9.29011E-02-1.97444E-01 2.58021E-01-6.43441E-01
 -1      4357-2.49658E+01-1.91344E-02 7.52558E-01 6.98594E-03-1.21587E-02-8.45212E-01
 -1      4358-7.08169E+00 1.38695E+00-5.81688E-01-7.03562E-01-7.54783E-01-2.06281E+00
 -1      4359-2.93791E+01-5.68516E-01-1.99816E+00-2.08898E-01 1.44259E-01 5.21851E+00
 -1      4360-2.56605E+01 9.93999E-01-4.10879E-01 1.71020E-01-3.72352E-02 3.72380E+00
 -1      4361-1.66531E+01 3.76292E+00-1.81709E-01 2.33277E-01 4.49066E-01 4.71417E+00
 -1      4362-1.89983E+01 2.91477E+00-1.43383E+00-2.86789E-01 1.76483E-01 3.36359E+00
 -1      4363-2.44316E+01 1.06438E+00 5.29203E-01 5.35018E-02 1.56780E-02 2.73217E+00
 -1      4364-2.61980E+01 1.36681E-01 3.55685E+00-1.32718E-01-2.37397E-02 1.99308E+00
 -1      4365-2.40679E+01 1.09394E+00 6.84645E-01 7.70989E-02-3.35087E-02 2.91024E+00
 -1      4366-2.44208E+01 1.75510E+00 2.99915E-02 3.36595E-02 6.68420E-02 3.32095E+00
 -1      4367-3.02182E+01-1.12433E+00 9.81135E-01-2.23839E-02 9.31800E-02 4.48345E+00
 -1      4368-3.08668E+01-1.12061E+00 4.78020E-01-1.87422E-01 2.30428E-01 4.46250E+00
 -1      4369-2.67772E+01-2.11825E-02 1.33483E+00 3.27374E-01-9.37977E-03-1.26262E+00
 -1      4370-1.98126E+01 2.06010E-01 1.53203E+00-3.17599E-01 1.66075E-01-2.54507E-01
 -1      4371-2.44943E+01-9.22176E-02 5.99198E-01 3.75969E-01 7.49693E-02-4.58967E-01
 -1      4372-2.73530E+01-4.56078E-02 1.08845E+00 2.78135E-01-3.94856E-02-1.34143E+00
 -1      4373-2.09229E+01 3.30320E-01 1.78416E+00-2.74751E-01 9.03994E-02-5.43977E-01
 -1      4374-2.45815E+01 3.41255E-01 3.49563E+00-5.49977E-01 1.71725E-01-1.73866E+00
 -1      4375-3.24500E+01-1.38670E+00-1.97569E+00-2.63228E-01 5.66020E-01 4.82826E-01
 -1      4376-3.28894E+01-1.68132E+00-1.43513E+00-2.85365E-01 6.48912E-01 6.38682E-01
 -1      4377-4.66855E+01-5.97199E+00-2.79079E+00-8.28181E-01 5.65959E-01 6.84509E-02
 -1      4378-2.73721E+01-2.11875E-01 3.70859E-01 5.59877E-01-7.87171E-02-4.30981E-01
 -1      4379-2.00547E+01 1.50422E-01 7.57884E-01 6.75797E-02 1.67161E-01-2.72533E-01
 -1      4380-2.34056E+01 1.90767E-01 1.45518E+00-9.98689E-02-6.24205E-03-1.01834E+00
 -1      4381-2.52173E+01-1.44273E-01 2.81721E-03-2.55392E-01 1.30189E-01-2.53605E-02
 -1      4382-2.08615E+01-3.00660E-02 3.08535E-02-1.67512E-01 1.35220E-01-3.40165E-02
 -1      4383-2.93438E+01-7.57265E-02-1.31660E-02-1.41962E-01 1.58619E-02-2.62617E-02
 -1      4384-2.71829E+01-1.11899E-01 7.31183E-02-2.94926E-01 9.72274E-02 4.00926E-02
 -1      4385-2.28849E+01-4.20023E-02 8.54295E-02-1.66056E-01 1.01840E-01 5.04417E-02
 -1      4386-1.86749E+01-7.77003E-04 1.22499E-01-2.42315E-01 1.91986E-01 1.51484E-02
 -1      4387-1.08875E+01 6.40001E-01 1.75013E-01 3.47039E-02 1.75755E-01-3.66115E-01
 -1      4388-1.42198E+01 3.15335E-01 5.58410E-01 9.54830E-02 2.35447E-01-2.66225E-01
 -1      4389-1.39514E+01 8.48288E-01 9.38240E-01 1.19158E-01 2.29409E-01-5.32276E-01
 -1      4390-1.08260E+01 1.13915E+00 7.15495E-01 2.43578E-01 2.30608E-01-1.24841E+00
 -1      4391-1.49199E+01 5.35428E-01 6.01292E-01 4.31093E-01 4.45669E-01-1.34441E+00
 -1      4392-1.11230E+01 7.30964E-01 3.15229E-01 1.76873E-01 2.63293E-01-7.17990E-01
 -1      4393-1.36323E+01 6.14173E-01 3.57936E-01 1.01259E-02 1.67629E-01-3.85539E-01
 -1      4394-1.69348E+01 3.12643E-01 6.49123E-01 3.16670E-02 2.20765E-01-1.15153E-01
 -1      4395-1.37260E+01 3.65062E-01 2.68362E-01-8.06715E-02 1.64761E-01-1.35099E-01
 -1      4396-3.24840E+01-1.00726E+00-1.25443E+00-5.56322E-01 5.77618E-01-8.76662E-01
 -1      4397-3.26134E+01 4.94129E-02-1.89207E+00-8.05840E-01 8.03936E-01-3.43813E-01
 -1      4398-5.07313E+01-3.69161E+00-9.73484E-01-6.90348E-01 7.44520E-01-9.61026E-01
 -1      4399-4.98411E+01-2.54117E+00-1.45463E+00-1.02853E+00 1.03967E+00-6.27392E-01
 -1      4400-1.65697E+01 3.03442E+00 3.26601E-01 3.06463E-01 9.34531E-01 5.45072E-01
 -1      4401-1.67142E+01 7.72289E-03 7.91822E-02-1.43299E-01 1.30122E-01-1.48634E-02
 -1      4402-1.87230E+01-2.81920E-03 1.91217E-01-1.41571E-01 1.15111E-01 7.96723E-02
 -1      4403-3.29991E+01-1.48013E+00-1.97533E+00-1.73299E-01-3.40109E-01-6.93080E-01
 -1      4404-3.27772E+01-1.23460E+00-2.19616E+00-1.90532E-01-2.84078E-01 5.38364E-01
 -1      4405-3.28446E+01-1.07329E+00-1.97760E+00-4.41402E-01-3.06730E-01 4.92896E-01
 -1      4406-3.29571E+01-1.45914E+00-1.73438E+00-3.97339E-01-1.37537E-01-7.64500E-01
 -1      4407-2.52500E+01-7.53766E-01 2.56343E-02-4.15780E-01 2.36529E-01 8.04013E-02
 -1      4408-2.51630E+01-5.37055E-01 2.04778E-02-2.42675E-01 2.34561E-01 1.04070E-01
 -1      4409-2.87060E+01-6.27009E-01 3.86027E-02-4.06129E-01 1.41948E-01 1.37982E-01
 -1      4410-2.86073E+01-3.79532E-01 3.62123E-02-2.45570E-01 1.15713E-01 1.53684E-01
 -1      4411-2.02238E+01-2.52953E-01 2.64635E-02-1.30919E-02 3.11671E-01 1.92824E-01
 -1      4412-3.32980E+01-1.49207E+00-2.13671E+00-5.39786E-01-1.51235E-01-5.43549E-01
 -1      4413-1.91698E+01 2.74936E+00-9.11666E-01-6.37035E-02-8.89772E-02-3.90901E+00
 -1      4414-1.90185E+01 2.37875E+00-8.72253E-01-2.10203E-01-1.90170E-01-3.66753E+00
 -1      4415-4.38488E+01-4.68033E+00-8.49232E-01-8.83572E-01-1.15746E-01-7.05592E-01
 -1      4416-2.57591E+01 6.68110E-01 4.65988E-01 3.18018E-01 8.93963E-02 3.78563E+00
 -1      4417-2.76926E+01-1.15937E-01 2.92087E+00-6.10906E-01 5.78808E-01 2.70643E+00
 -1      4418-2.38108E+01 9.04828E-01 1.20193E+00 1.24830E-01-2.47841E-02 3.22561E+00
 -1      4419-2.88466E+01-4.44103E-01 4.22563E-01-5.07421E-01-5.12693E-02 5.60545E+00
 -1      4420-5.67033E+00 7.12187E-02 8.93430E-02 8.34915E-02 2.67240E-01-2.89645E-01
 -1      4421-1.23212E+01-4.48793E-01 1.21128E-01-2.52711E-01 5.09179E-01-1.41352E-01
 -1      4422-6.38805E+00 2.24352E-01 7.23224E-02 2.26832E-01 2.81923E-01 3.42452E-02
 -1      4423-5.12238E+00 3.75942E-01 3.21457E-02 3.38866E-01 1.86543E-01-1.53205E-01
 -1      4424-1.16843E+01-6.49491E-02 8.50343E-02 2.75716E-02 4.03302E-01-4.69169E-02
 -1      4425-1.09926E+01-3.06775E-01 1.17338E-01-1.22826E-01 3.89295E-01-3.54963E-01
 -1      4426-4.33459E+01-5.03261E+00-1.71190E+00-6.94653E-01-1.00787E-01-4.80808E-01
 -1      4427-3.35160E+01-5.28926E-01-3.61404E-02-1.91095E-01-3.42855E-01-2.98791E-01
 -1      4428-3.38028E+01-4.87124E-01-8.56991E-02-6.14878E-02-2.46485E-01-1.58151E-01
 -1      4429-3.33792E+01-1.35147E+00-2.07611E+00-1.13240E-01-7.53485E-02 7.98986E-01
 -1      4430-3.20121E+01 1.98939E-01-1.15434E+00 5.49724E-01-7.09501E-01-5.75486E-01
 -1      4431-3.24455E+01 5.24773E-01 6.17108E-02 4.53070E-02-6.53449E-01 2.10351E-01
 -1      4432-5.01870E+01-2.54236E+00-1.32531E+00 1.12238E+00-9.34144E-01-9.00584E-01
 -1      4433-4.97302E+01-1.98790E+00-6.57567E-02 6.72873E-01-8.70407E-01-2.82668E-01
 -1      4434-1.63348E+01 2.77014E+00-4.10752E-01-6.58710E-01-9.85342E-01 4.57543E-01
 -1      4435-3.41823E+01-3.94271E-01-1.80177E-02-1.43832E-01-2.47110E-01 3.30456E-01
 -1      4436-3.36988E+01-6.43155E-01 2.26483E-01-5.45651E-02-1.19862E-01-3.33504E-01
 -1      4437-3.43523E+01-7.72733E-01-3.74993E-02-9.37712E-02-1.67238E-01 2.47919E-01
 -1      4438-3.38271E+01-1.34601E+00-1.46936E+00-4.50842E-03-1.92796E-02 5.18873E-01
 -1      4439-4.58013E+01-5.58150E+00-9.52342E-01 2.97131E-02-9.46505E-04-4.41951E-01
 -1      4440-1.85990E+01 3.13733E+00-1.95557E+00 5.86906E-02-9.55168E-02-2.66659E+00
 -1      4441-4.41566E+01-5.67704E+00-2.32554E+00-4.52867E-02-4.74223E-01-6.06041E-01
 -1      4442-3.32266E+01-1.43421E+00-2.40415E+00 2.19930E-01 2.98601E-01 7.29231E-01
 -1      4443-3.31208E+01-1.31323E+00-2.24669E+00 7.68209E-02-7.82733E-03 5.08719E-01
 -1      4444-3.37909E+01-5.56531E-01 2.10863E-01 7.21147E-02 3.30092E-02-3.31100E-01
 -1      4445-3.38202E+01-6.74849E-01-1.18417E-01 1.89829E-01 1.74268E-01-1.61951E-01
 -1      4446-1.43309E+01 4.12866E-02 1.37195E-01-9.10210E-02 9.87298E-02-6.47084E-03
 -1      4447-1.43338E+01 5.67809E-02 6.64719E-02-1.95658E-01 1.85533E-01-5.29190E-02
 -1      4448-1.63442E+01 1.40911E-02 1.97125E-01-1.76163E-01 1.74909E-01 2.38590E-02
 -1      4449-3.39607E+01-1.41761E+00-1.44392E+00 3.88424E-02 4.84739E-02 5.91964E-01
 -1      4450-3.40741E+01-7.25136E-01 7.33470E-02-1.10426E-01 3.07377E-02-1.98904E-01
 -1      4451-3.35828E+01-3.36029E-01 8.61086E-03 1.52770E-01 2.98024E-01-2.99429E-01
 -1      4452-3.41145E+01-1.76359E-01-1.92611E-02 4.12746E-02-3.91472E-01 2.80728E-02
 -1      4453-3.41925E+01-2.66460E-01-7.95363E-02-7.95582E-03-3.48789E-01-9.36740E-03
 -1      4454-3.42962E+01-6.14676E-01-3.10639E-02-2.39978E-02-2.39670E-01 1.90933E-02
 -1      4455-3.43379E+01-6.65571E-01-3.20457E-02-1.56626E-04-2.77633E-01 1.69652E-02
 -1      4456-4.94290E+01-1.89885E+00-1.15440E-01-5.34903E-01 8.56240E-01 8.23442E-02
 -1      4457-2.75159E+01-4.04799E-01 9.07252E-02-4.07910E-01-5.72192E-02-3.94859E-01
 -1      4458-2.03807E+01 2.63405E-01 1.00062E+00-5.61507E-02-1.50545E-01-4.04638E-01
 -1      4459-2.44009E+01 8.42577E-02 6.59821E-01-4.17433E-01-4.35972E-02-5.71590E-01
 -1      4460-2.77102E+01-5.92921E-02 9.45727E-01-6.99567E-03 1.51951E-01-1.51302E+00
 -1      4461-2.31356E+01-8.74844E-02 1.91992E+00 5.16035E-01 4.13421E-02-1.42529E+00
 -1      4462-2.47560E+01-1.13452E-01 1.00330E+00 4.17400E-01 3.25707E-02-1.31149E+00
 -1      4463-3.35557E+01-6.27801E-01 8.01603E-02-9.86056E-04 1.84617E-01 3.71706E-01
 -1      4464-3.38176E+01-1.15536E+00-1.02554E+00-1.01345E-01 1.49666E-01-9.41838E-01
 -1      4465-3.34750E+01-1.38246E+00-1.62720E+00-1.64148E-02 1.17941E-01-6.80616E-01
 -1      4466-3.43148E+01-5.56574E-01-2.18146E-02 4.20999E-03 2.13171E-01 5.50227E-03
 -1      4467-3.42404E+01-2.27056E-01-9.34156E-02-2.19864E-02 3.20370E-01 6.72987E-03
 -1      4468-3.43013E+01-4.56155E-01-7.86084E-02 9.98591E-02 2.58835E-01 2.90556E-01
 -1      4469-2.96727E+01 3.56481E-01-5.93175E-01 5.79838E-01-1.29051E-01 2.31367E+00
 -1      4470-2.75275E+01 3.49153E-01-2.08836E+00 5.45250E-01-4.95763E-01 1.48993E+00
 -1      4471-2.79242E+01 6.07063E-01-2.35045E+00 7.66177E-01-5.75700E-01 1.32029E+00
 -1      4472-2.83855E+01-2.26372E+00 4.79185E-02-9.02912E-01-1.69182E-01 6.88269E-02
 -1      4473-2.07672E+01-1.03151E+00 7.89447E-02-3.35067E-01-3.61771E-01 3.39531E-02
 -1      4474-2.60632E+01-1.42398E+00 7.39215E-02-7.73711E-01-2.61384E-01-9.50006E-02
 -1      4475-2.89454E+01-1.93782E+00 4.69492E-02-1.20639E+00-2.19971E-01-1.49067E-01
 -1      4476-2.12829E+01-6.63552E-01 1.08927E-01-4.99883E-01-4.17145E-01-2.43141E-01
 -1      4477-2.37125E+01-1.56274E+00 1.09440E-01-7.37502E-01-3.37934E-01-7.79035E-03
 -1      4478-3.39547E+01-5.32928E-01 5.75241E-02-2.18194E-02 5.19845E-01-1.16766E-02
 -1      4479-3.38591E+01-5.30895E-01 9.59969E-02-3.58464E-02 5.64739E-01 2.65546E-02
 -1      4480-3.35767E+01 2.33181E-01 3.90326E-02 5.93803E-03 6.42658E-01 4.48615E-03
 -1      4481-3.36973E+01 2.46079E-01 1.46708E-02 5.28037E-02 6.81684E-01 2.86819E-02
 -1      4482-3.38562E+01-6.54419E-01 6.80598E-02 1.37525E-01-3.92513E-01 2.11088E-01
 -1      4483-3.35340E+01-1.21911E+00-1.44251E+00 2.55998E-01-5.15799E-01-9.27599E-01
 -1      4484-3.32583E+01-9.26574E-01-1.43577E+00 2.63151E-01-3.11535E-01-8.28586E-01
 -1      4485-3.38199E+01-4.77149E-01 7.50381E-02 2.06704E-01-2.28833E-01 2.46978E-01
 -1      4486-2.76787E+01-7.80971E+00-2.20870E+00-1.36364E+00 2.06069E-01-1.38717E+00
 -1      4487-2.51148E+01-5.22804E+00-7.53193E-01-1.05098E+00 2.21943E-01-8.65630E-01
 -1      4488-1.91476E+01-5.62686E+00-3.67253E+00-9.16993E-01 2.57797E-01-1.16535E+00
 -1      4489-2.14436E+01-6.62386E+00-4.32533E+00-6.83544E-01-1.31663E-02-1.42453E+00
 -1      4490-1.78279E+01-3.50911E+00-7.57042E-01-4.68431E-01 2.69212E-01-1.00659E+00
 -1      4491-2.74974E+01-6.14887E+00-8.27103E-01-7.92826E-01 1.18576E-02-9.88432E-01
 -1      4492-3.42737E+01-6.56313E-01-4.41346E-02 2.59529E-03 9.44353E-02-2.23998E-01
 -1      4493-3.42633E+01-4.38500E-01-3.55566E-03-3.18945E-02 1.55544E-01 3.25163E-02
 -1      4494-3.40542E+01-4.55172E-01-5.14069E-02-2.21650E-01 2.25341E-01-2.28164E-01
 -1      4495-1.77659E+01 3.19879E+00-2.74281E+00 3.98974E-02 1.52172E-01 2.32223E+00
 -1      4496-4.83583E+01-6.14760E+00-1.60451E+00-1.39845E-01 1.94658E-01-1.15120E-01
 -1      4497-4.64245E+01-6.38434E+00-2.68931E+00-3.40670E-01 4.29433E-03-9.16893E-02
 -1      4498-1.98971E+01-1.34884E+00 9.05578E-02 7.81660E-01-4.67680E-01-5.29244E-02
 -1      4499-2.76882E+01-2.09871E+00 1.56315E-01 1.34533E+00-2.27528E-01 7.22056E-02
 -1      4500-2.57395E+01-2.46650E+00-1.24799E-01 1.79581E+00-3.48930E-01 1.52872E-01
 -1      4501-2.03833E+01-2.71737E+00-4.03790E-01 1.43152E+00-4.96353E-01-2.93438E-01
 -1      4502-2.83540E+01-3.73652E+00-1.52451E-01 1.92213E+00-2.63128E-01-1.01431E-01
 -1      4503-2.24696E+01-2.36543E+00 5.05692E-02 9.54455E-01-3.94084E-01-1.90650E-01
 -1      4504-3.38247E+01-1.30715E+00-1.11374E+00 2.38105E-01-2.13526E-01-8.90326E-01
 -1      4505-3.42945E+01-6.99806E-01 6.14877E-03-9.47829E-02-5.54282E-03 2.32532E-01
 -1      4506-3.43009E+01-6.84251E-01-4.98623E-03 1.12667E-01 2.40929E-02 2.45453E-01
 -1      4507-3.43316E+01-6.53209E-01 3.87110E-03 2.38134E-02 9.02397E-02 3.98882E-02
 -1      4508-3.43012E+01-6.38610E-01 2.32757E-02 8.81358E-02 1.45098E-01 2.94634E-01
 -1      4509-3.43132E+01-6.35353E-01-3.63607E-02-2.12209E-02 2.65841E-01-3.51744E-03
 -1      4510-3.41091E+01-1.75252E-01-3.50965E-02-4.57239E-02 3.67920E-01 2.17965E-02
 -1      4511-4.94070E+01-1.54888E+00-1.54901E-01 1.36392E-01-7.09351E-01-1.19731E-01
 -1      4512-4.89108E+01-7.43225E-01-1.28283E-01-8.35720E-02-8.26731E-01-3.33975E-02
 -1      4513-4.94690E+01-1.94315E+00-7.31069E-02-3.72818E-01-8.58119E-01 1.04316E-02
 -1      4514-3.34882E+01-3.95944E-01-5.50513E-03-2.37660E-01 2.46220E-01 3.14855E-01
 -1      4515-3.30814E+01-9.24509E-01-1.33250E+00-5.17614E-01 3.35814E-01-7.48599E-01
 -1      4516-3.27184E+01-4.41970E-01-1.48957E+00 6.14940E-01-6.10300E-01-7.12954E-01
 -1      4517-1.90809E+01 2.46351E+00-2.44988E+00-1.00376E-02-3.89805E-01 2.39229E+00
 -1      4518-4.63083E+01-5.61517E+00-1.74796E+00 5.40210E-01-3.76029E-01 5.82262E-01
 -1      4519-4.52087E+01-4.73028E+00-2.64232E+00 1.55960E+00-6.96526E-01 6.75425E-01
 -1      4520-2.66125E+01 4.64999E-01 1.45836E+00 9.61060E-03 3.22998E-03 2.15679E+00
 -1      4521-2.68662E+01 3.17599E-01 1.23104E+00-1.16191E-01-1.84514E-02 2.24614E+00
 -1      4522-1.93536E+01-2.66414E+00-6.01128E-02-5.66328E-01 2.50515E-01-6.28403E-01
 -1      4523-2.81900E+01-4.97214E+00-1.03819E-01-9.30170E-01 1.93731E-01-1.95099E-01
 -1      4524-2.18156E+01-3.57317E+00-1.57078E-01-4.47636E-01 1.61704E-01-6.87979E-01
 -1      4525-3.25904E+01-9.17819E-01-1.71590E+00 4.78760E-01-5.18578E-01 2.51907E-01
 -1      4526-1.91664E+01 2.64700E+00-8.16889E-01-1.15119E-01-5.22932E-01 3.42703E+00
 -1      4527-8.16030E+00 7.19716E-01 9.94045E-02-1.10968E-01 9.47222E-02-5.72598E-02
 -1      4528-1.50957E+01 2.09739E-01 1.06044E-01-1.36071E-01 1.44787E-01-8.81483E-03
 -1      4529-6.80080E+00 6.88928E-01-1.13275E-03-1.97024E-01 9.31821E-02 2.49946E-02
 -1      4530-5.13943E+00 1.01012E+00 3.78310E-02-8.91746E-02 4.24848E-02-3.08804E-02
 -1      4531-1.19832E+01 4.73841E-01 6.93400E-02-1.11224E-01 1.02014E-01-1.30660E-02
 -1      4532-1.34234E+01 5.23128E-01 2.21948E-01-7.34767E-02 1.16106E-01-1.09356E-01
 -1      4533-4.73273E+01-6.28888E+00-2.33075E+00 3.61436E-01-2.00305E-01 5.15256E-01
 -1      4534-4.57985E+01-5.72296E+00-2.91185E+00 4.46870E-01-1.91150E-01 1.67689E-01
 -1      4535-1.80921E+01 3.16073E+00-2.26823E+00 4.29251E-02-1.93975E-01 2.32569E+00
 -1      4536-3.26660E+01-1.73404E+00-2.04491E+00 2.34878E-01 2.48692E-01-7.56162E-01
 -1      4537-3.34642E+01-1.29618E+00-1.90483E+00 4.55729E-01 2.64385E-01-5.28543E-01
 -1      4538-4.39227E+01-4.40134E+00-1.09223E+00 8.42587E-01 3.63245E-01-6.97980E-01
 -1      4539-1.85305E+01 2.63045E+00-9.99061E-01 2.34892E-01 2.10684E-01-3.55369E+00
 -1      4540-4.27571E+01-5.15281E+00-2.15943E+00 7.35553E-01-2.54335E-01-9.93960E-01
 -1      4541-3.38637E+01-7.82660E-01-1.70095E-01 1.13923E-01 4.52333E-01-1.70825E-01
 -1      4542-3.27366E+01-1.14601E+00-1.54361E+00 3.23274E-01 4.87494E-01 3.13008E-01
 -1      4543-3.28360E+01-8.43025E-01-1.69960E+00 4.02010E-01 3.45789E-01 2.97942E-01
 -1      4544-1.85950E+01 3.00983E+00-1.89126E+00 2.41102E-01-2.47516E-01 2.14724E+00
 -1      4545-3.40640E+01-2.39561E-01 1.11790E-02 1.29031E-02 4.44420E-01-2.62963E-02
 -1      4546-3.40727E+01-6.37580E-01 4.87710E-02 8.63921E-02 4.46827E-01 2.53039E-01
 -1      4547-3.27161E+01-8.81080E-01-1.59782E+00 3.49241E-01-7.48243E-01 1.17128E+00
 -1      4548-3.27472E+01-2.06406E-02-9.61041E-01 2.69040E-01-8.67874E-01 1.01344E+00
 -1      4549-3.43775E+01-5.49658E-01-4.30537E-02-2.86772E-02-1.13940E-01 1.94625E-02
 -1      4550-3.43270E+01-7.27080E-01-3.45453E-02-1.65769E-03-1.51937E-02-1.86588E-01
 -1      4551-3.43426E+01-6.44634E-01-1.93910E-02-1.07380E-02 5.29914E-02 3.90039E-02
 -1      4552-2.75451E+01-9.17302E-01 1.83628E-02-1.29021E-01 1.46200E-01-4.89015E-02
 -1      4553-2.19802E+01-6.49433E-01 1.88609E-02-1.23563E-02 2.24731E-01-1.08796E-01
 -1      4554-2.82181E+01-8.28725E-01-1.17872E-02 3.08356E-02 9.66533E-02-3.26491E-02
 -1      4555-2.89131E+01-6.76045E-01-4.40037E-03-5.42100E-03 1.15228E-01 2.29143E-02
 -1      4556-2.33209E+01-4.42357E-01-3.81700E-03 7.62346E-02 1.83853E-01-1.06727E-03
 -1      4557-2.26708E+01-5.33253E-01 2.48514E-02-5.05346E-02 2.52322E-01-1.07174E-02
 -1      4558-3.43253E+01-6.10808E-01 1.57151E-03-4.37512E-03-1.60221E-02-4.31920E-04
 -1      4559-3.41010E+01-8.08611E-01-6.43809E-02 5.12254E-02-2.05543E-01 1.29510E-01
 -1      4560-3.42023E+01-5.02174E-01-5.41751E-02 1.62851E-01-2.32999E-01-2.01424E-01
 -1      4561-3.42949E+01-7.08159E-01-2.41131E-02 1.96550E-02-1.62984E-01-2.13353E-01
 -1      4562-4.47105E+01-1.54608E+00-2.19374E+00-1.79467E+00 7.58098E-01 8.71496E-01
 -1      4563-4.49309E+01-3.92880E+00-1.80008E+00-1.24263E+00 4.11647E-01 4.95171E-01
 -1      4564-1.85621E+01 1.54671E+00-2.17206E+00 3.17745E-01 7.36191E-01 2.42724E+00
 -1      4565-2.54842E+01-3.11519E+00 6.07139E-02 3.37311E-01 1.09789E-01 2.24433E-01
 -1      4566-2.55106E+01-2.91323E+00 6.84491E-02 5.96432E-01 1.43405E-01 2.00173E-01
 -1      4567-2.73292E+01-2.42891E+00 5.79165E-02 5.11273E-01 1.35982E-01 1.01887E-01
 -1      4568-1.90194E+01-1.44591E+00 1.51372E-01 2.20047E-01 2.08578E-01 4.16473E-01
 -1      4569-2.73468E+01-2.65256E+00 4.28948E-02 3.05411E-01 9.73727E-02 1.13264E-01
 -1      4570-3.35914E+01-1.54082E+00-1.99679E+00 1.97050E-01 1.78160E-01-9.88404E-01
 -1      4571-1.99559E+01 2.76189E+00-8.58340E-01-5.05115E-02 1.74548E-01-3.52085E+00
 -1      4572-3.25595E+01-4.02492E-01-5.95738E-02-4.84417E-02-8.76559E-01-2.49433E-01
 -1      4573-3.22697E+01 2.99878E-01-2.31041E-01 1.28863E-01-7.80105E-01-2.13753E-01
 -1      4574-1.58735E+01 1.23462E+00-8.36051E-02 3.55687E-01-8.55426E-01-1.14356E-01
 -1      4575-3.40848E+01-6.26655E-01-5.80852E-02-1.84766E-01 3.34419E-01-2.71969E-01
 -1      4576-3.33507E+01 6.37446E-02 1.31894E-01 2.64355E-01-4.51221E-01 2.44015E-01
 -1      4577-3.39241E+01-1.63115E-01-1.46345E-01 2.89170E-01-4.43097E-01-3.05038E-01
 -1      4578-3.41571E+01-6.37908E-01-4.85406E-02 1.14352E-01-3.51391E-01-2.00606E-01
 -1      4579-3.43243E+01-4.88029E-01-8.77575E-03 1.45441E-02-1.73810E-01 2.51195E-02
 -1      4580-3.43703E+01-6.58576E-01-2.14456E-02 6.40828E-03-6.94002E-02-4.23409E-03
 -1      4581-3.37664E+01-5.12396E-01 2.71589E-01 3.39850E-02 3.84556E-02 1.87968E-01
 -1      4582-3.35872E+01-1.25818E+00-1.35768E+00-2.77616E-02-8.16967E-02-9.77903E-01
 -1      4583-4.96795E+01-1.64312E+00-6.45012E-02-4.86166E-02 7.37289E-01-6.02084E-02
 -1      4584-4.95548E+01-1.80726E+00-6.56989E-02 3.00672E-01 9.42836E-01-2.39958E-02
 -1      4585-4.88720E+01-6.87376E-01-4.83228E-02 8.41185E-02 8.45173E-01-2.45515E-02
 -1      4586-3.36239E+01-5.67261E-01-8.14329E-03-2.35701E-01 3.96964E-01 8.90711E-02
 -1      4587-3.27642E+01-9.39871E-01-1.23021E+00-3.22203E-01 7.35207E-01-8.46761E-01
 -1      4588-3.37971E+01-1.14465E+00-8.67217E-01 1.91494E-01 1.76872E-03-7.82654E-01
 -1      4589-3.36996E+01-5.73696E-01 3.67184E-01 3.29618E-02-4.43691E-02 2.84038E-01
 -1      4590-1.47448E+01-1.58280E-01 1.26168E-01-3.34750E-02 3.94932E-01 1.50649E-01
 -1      4591-1.73753E+01-6.46742E-01 1.59278E-01-3.33797E-01 4.50395E-01 1.19610E-01
 -1      4592-1.92981E+01-7.14497E-01 1.19189E-01-3.09121E-01 3.87970E-01 4.22626E-02
 -1      4593-1.35959E+01-1.15691E-01 5.04203E-02 9.90539E-02 3.09584E-01-1.14955E-01
 -1      4594-1.61725E+01-6.02634E-01 1.06276E-01-2.12068E-01 3.84248E-01-1.42377E-01
 -1      4595-4.99763E+01-2.71547E+00 4.40294E-02-2.09721E-02 8.62921E-01-7.65206E-02
 -1      4596-8.09878E+00 7.17117E-01 1.44856E-01-4.59481E-02 1.07964E-01-1.13663E-01
 -1      4597-6.71516E+00 6.50908E-01 1.89456E-02-1.36825E-01 1.01952E-01-1.22214E-02
 -1      4598-5.53671E+00 1.19650E-01 6.57842E-02-1.14862E-01 2.30162E-01 3.02825E-01
 -1      4599-1.44936E+01-7.74237E-01 7.88840E-02 2.91179E-01 4.01711E-01 3.85990E-01
 -1      4600-8.70865E+00 1.43226E-02 5.59639E-02-1.43519E-01 2.84170E-01 1.77629E-01
 -1      4601-5.75542E+00 2.61853E-01 4.09732E-02-2.42051E-01 2.94876E-01-4.32237E-02
 -1      4602-1.45656E+01-4.14598E-01 1.74039E-01 1.84867E-01 4.73357E-01 5.02580E-03
 -1      4603-1.15743E+01-4.80081E-01 1.06189E-01 2.73969E-01 4.96421E-01 1.71006E-01
 -1      4604-5.07906E+00 1.00243E+00 6.45796E-02-2.86906E-02 5.65938E-02-7.30610E-02
 -1      4605-2.45459E+01 4.37314E-02 6.74790E-01 1.85109E-01-8.20301E-02 5.05331E-01
 -1      4606-2.43837E+01 6.45381E-02 7.03841E-01 5.59016E-02-5.59376E-02 5.25133E-01
 -1      4607-2.71049E+01 8.92498E-02 1.19937E+00 1.28426E-01-2.70498E-02 1.26082E+00
 -1      4608-2.67799E+01 6.52829E-02 1.23401E+00 5.27159E-02 4.51040E-02 1.33442E+00
 -1      4609-2.08510E+01 3.98090E-01 1.69822E+00-1.37705E-01-7.22619E-02 4.55082E-01
 -1      4610-2.56767E+01-1.11486E+00 3.90351E-02 5.31236E-01 2.31060E-01 2.66073E-02
 -1      4611-2.00274E+01-7.46845E-01 1.11112E-01 4.20365E-01 3.86711E-01-1.43217E-01
 -1      4612-2.79903E+01-9.38332E-01 6.73897E-02 7.17450E-01 2.04973E-01-2.36406E-01
 -1      4613-2.85658E+01-7.27374E-01-1.93218E-03 4.05198E-01 1.43521E-01-1.07521E-01
 -1      4614-2.26981E+01-3.07358E-01 9.47127E-02 2.33899E-01 3.25220E-01-3.94586E-01
 -1      4615-2.04707E+01-4.53816E-01 6.43331E-02 1.29580E-01 3.27992E-01-5.56739E-02
 -1      4616-2.60411E+01-8.68285E-01 8.72667E-02-4.91706E-01-2.68487E-01-8.34726E-02
 -1      4617-2.84589E+01-1.74666E+00 2.05370E-02-6.68513E-01-1.69912E-01 5.61887E-02
 -1      4618-2.46522E+01-1.00051E-01 4.94709E-01 2.61688E-01 1.54356E-01-3.26106E-01
 -1      4619-2.70473E+01 6.00372E-02 1.09748E+00 3.88734E-01 3.35407E-02-1.04081E+00
 -1      4620-3.28511E+01-1.59022E+00-1.44513E+00 3.34306E-01-8.16211E-01 6.44611E-01
 -1      4621-1.74431E+01 2.95401E+00 7.43911E-03-8.77963E-01-9.21771E-01 4.80041E+00
 -1      4622-2.57842E+01-3.42085E-01 4.48614E-02 3.11271E-01 9.67635E-02 6.26937E-03
 -1      4623-2.81679E+01-5.12684E-01 1.52342E-01 3.12522E-01 5.22745E-02-1.12387E-01
 -1      4624-2.05109E+01-5.28885E-02 2.43719E-01 2.03004E-01 1.48758E-01-1.30590E-01
 -1      4625-2.05885E+01-1.26318E-01 4.21877E-02 2.30137E-01 1.47315E-01 2.08301E-03
 -1      4626-2.30358E+01-1.97236E-01 1.98177E-01 2.24473E-01 1.26200E-01-1.17483E-01
 -1      4627-2.84042E+01-6.20915E-01-1.25086E-02 3.05399E-01 8.54065E-02 1.44497E-02
 -1      4628-2.33069E+01-6.44715E+00-3.73686E+00-1.51717E+00 4.26113E-01-1.47704E+00
 -1      4629-2.86022E+01-5.65729E+00-2.49727E-01-1.53311E+00 3.29278E-01-6.00600E-01
 -1      4630-1.95612E+01-3.32719E+00-4.05246E-01-9.63554E-01 2.71910E-01-7.98648E-01
 -1      4631-1.88453E+01 3.26745E+00-1.96553E+00 2.15008E-01-3.19486E-03 2.12779E+00
 -1      4632-3.36295E+01-2.19208E-01-3.02592E-01-2.01328E-01-5.02287E-01-2.15406E-01
 -1      4633-2.75041E+01-8.67177E-01 2.08035E-02-3.40979E-01 1.81852E-01 3.40076E-03
 -1      4634-2.75679E+01-1.13253E+00-2.50576E-03-4.90099E-01 1.88033E-01-2.96584E-02
 -1      4635-1.90063E+01-4.84262E-01 8.89139E-02-7.28065E-02 3.32068E-01-1.07602E-03
 -1      4636-5.12029E+00 9.98877E-01 1.37770E-01 1.14784E-01 9.80921E-02-1.41818E-01
 -1      4637-4.89649E+00 1.39779E+00 1.86726E-01 1.84589E-01 7.40217E-02-4.80263E-01
 -1      4638-4.92031E+00 1.48988E+00 7.99550E-02 2.96225E-01 1.55069E-01-8.22323E-01
 -1      4639-3.32438E+01 5.84634E-02 6.72592E-02 2.82336E-01 4.94873E-01-3.27095E-01
 -1      4640-5.62847E+00 6.71453E-01 1.29925E-02-1.86761E-01 6.31478E-02 1.60937E-01
 -1      4641-5.66448E+00 7.56633E-01 6.24001E-03-1.41758E-01 3.69248E-02 1.35474E-01
 -1      4642-5.80281E+00 6.79787E-01 1.51163E-02-2.33734E-01 1.24704E-01 1.16075E-01
 -1      4643-1.13505E+01 1.07881E-01 3.98776E-02-1.05035E-01 1.65524E-01 2.20297E-01
 -1      4644-5.79138E+00 5.94829E-01 1.58168E-02-2.64245E-01 1.34032E-01 1.25593E-01
 -1      4645-2.89904E+01-2.60285E+00 5.09118E-02-1.31915E+00-2.08910E-01-7.31974E-03
 -1      4646-2.36982E+01-2.12687E+00 1.21429E-01-7.92588E-01-3.12271E-01 1.61111E-01
 -1      4647-2.43669E+01-1.82947E+00 1.32531E-01-1.11526E+00-4.10004E-01-1.15349E-01
 -1      4648-1.86320E+01 3.18868E+00-1.91875E+00-4.98752E-02 2.36625E-01-2.70924E+00
 -1      4649-4.43543E+01-5.89148E+00-2.91415E+00 1.04838E-01 5.89901E-01-7.72893E-01
 -1      4650-2.36726E+01 2.75404E-01 1.77396E+00 3.17273E-02-1.67877E-02 9.91656E-01
 -1      4651-2.67271E+01 3.28053E-02 4.49328E-01 5.07651E-02 6.16943E-03 1.16687E+00
 -1      4652-2.35888E+01 3.34475E-01 1.92148E+00-1.21796E-01 4.86873E-02 1.26629E+00
 -1      4653-1.87841E+01 2.98900E+00-2.29722E+00-2.07296E-01 8.74985E-02 1.90074E+00
 -1      4654-3.37020E+01-4.73035E-01 3.83485E-02 2.45836E-01 6.09812E-01 3.25193E-01
 -1      4655-3.23437E+01-3.65474E-01-1.20490E+00-4.78003E-01 4.56309E-01-7.22205E-01
 -1      4656-3.28569E+01-8.55450E-01-1.30852E+00-6.09417E-01 1.86426E-01 7.38713E-01
 -1      4657-1.91962E+01 1.69764E-01 7.56143E-01 1.84074E-02 1.33643E-01-2.67976E-01
 -1      4658-2.75783E+01-2.64752E-01 1.07197E-02 4.67934E-01 1.12441E-01-1.83272E-01
 -1      4659-2.18640E+01 8.98970E-02 1.12525E+00 9.77709E-02 9.40537E-02-6.26802E-01
 -1      4660-2.54474E+01-3.73960E+00 4.62556E-02-5.66448E-01-1.00254E-01 2.32705E-01
 -1      4661-2.55454E+01-2.94185E+00 9.30937E-02-5.99775E-01-1.34414E-01 1.97732E-01
 -1      4662-2.74507E+01-3.82594E+00-9.08486E-02-1.01355E+00-2.42550E-01 2.61901E-01
 -1      4663-1.92773E+01-2.89098E+00-1.32013E-01-6.02772E-01-2.72827E-01 6.80526E-01
 -1      4664-2.75252E+01-4.88061E+00-2.37242E-01-1.00197E+00-2.09217E-01 3.44758E-01
 -1      4665-2.13724E+01-1.29198E+00 8.26024E-02-6.75708E-01-3.84396E-01-5.23267E-02
 -1      4666-3.23748E+01-1.66106E+00-2.03469E+00 2.42154E-01 8.36529E-01-8.18076E-01
 -1      4667-3.23494E+01-4.89068E-01-1.84245E+00 3.90486E-01 6.55226E-01-1.12075E+00
 -1      4668-4.32286E+01-1.24373E+00-1.22768E+00 2.10861E+00 2.71125E-01-8.78868E-01
 -1      4669-1.94017E+01 6.77363E-01-6.18047E-01-5.75085E-01 6.54612E-01-3.70146E+00
 -1      4670-4.23176E+01-3.17047E+00-2.14168E+00 1.89857E+00 3.12137E-01-8.85791E-01
 -1      4671-2.34729E+01-3.35293E+00-2.19901E-02-8.74299E-01 2.84029E-01-3.56037E-01
 -1      4672-3.23674E+01-1.11667E+00-1.49074E+00 4.44095E-01-6.36996E-01-6.98107E-01
 -1      4673-2.83400E+01-3.42977E+00 8.70135E-02 1.61821E-01 8.84315E-04 1.36325E-01
 -1      4674-2.20180E+01-1.86286E+00 1.22872E-01 1.43475E-01 1.25439E-01 3.32685E-01
 -1      4675-2.01535E+01-2.25835E+00 1.36206E-01 1.69350E-01 1.31962E-01 4.58439E-01
 -1      4676-1.41057E+01-8.19625E-02 1.16823E-02-7.08157E-02 1.18592E-01 2.15069E-01
 -1      4677-8.55042E+00 5.10116E-01 5.83423E-03-1.61813E-01 9.82665E-02 1.35031E-01
 -1      4678-1.42874E+01-1.18360E-01 1.91932E-02-1.24383E-01 2.12359E-01 1.65863E-01
 -1      4679-3.33245E+01-2.86827E-01 4.81629E-02-7.21727E-02 7.38004E-01 5.66403E-03
 -1      4680-1.69667E+01 2.38421E+00-2.05480E-01-6.69091E-02 8.15726E-01-3.13271E-02
 -1      4681-1.63299E+01 1.91507E+00-6.48107E-03-1.65507E-01 9.56184E-01 8.70522E-03
 -1      4682-2.03325E+01 2.69164E+00-8.83586E-01 3.74982E-01 1.20001E-01-3.72734E+00
 -1      4683-4.56748E+01-6.11095E+00-2.60079E+00 3.66031E-01-6.46094E-02 1.69436E-01
 -1      4684-1.84566E+01 3.28112E+00-2.36763E+00 1.75607E-02-1.83207E-02 2.40539E+00
 -1      4685-1.44626E+01-1.18930E+00-8.05991E-02 7.33603E-01 4.90391E-01 3.54248E-01
 -1      4686-5.57193E+00 1.06033E-02 6.97907E-02 2.40506E-02 2.86383E-01 3.71746E-01
 -1      4687-8.68103E+00-3.18643E-01-7.17298E-02 3.66040E-01 3.91138E-01 1.53494E-01
 -1      4688-1.45167E+01-6.42316E-01 1.30597E-01 6.48791E-01 5.58983E-01-9.14109E-02
 -1      4689-5.71215E+00 2.39564E-01 7.47065E-02-1.63137E-01 3.10686E-01 3.04026E-03
 -1      4690-5.93254E+00 9.45898E-01-4.21830E-04 7.00567E-02-2.65288E-02 5.80964E-02
 -1      4691-5.94558E+00 9.36869E-01-2.05184E-03-1.58182E-02-8.54967E-03 6.00493E-02
 -1      4692-5.69037E+00 8.34039E-01 1.39269E-02-8.04571E-02 2.25510E-02 1.16681E-01
 -1      4693-1.14339E+01 2.95476E-01-2.37596E-03-1.37208E-03 3.29195E-03 1.55394E-01
 -1      4694-5.68818E+00 8.40155E-01 6.25367E-03 1.16251E-03 9.20991E-03 1.17968E-01
 -1      4695-2.38852E+01 2.96561E-01 9.81170E-01-3.24647E-01 4.05554E-02-8.77454E-01
 -1      4696-2.72908E+01 2.67582E-01 1.39324E+00-2.63154E-01 1.33685E-01-2.11177E+00
 -1      4697-1.54728E+01-4.33374E-01 5.04228E-02 8.14926E-03-1.47837E-02-3.28163E-01
 -1      4698-6.99820E+00 4.75516E-01 4.61799E-02-4.46684E-02-3.99173E-02-2.52339E-01
 -1      4699-8.53910E+00 5.00745E-01 1.64027E-02-2.95792E-02-2.07152E-03-1.73424E-01
 -1      4700-1.36306E+01-1.31782E-01 1.54710E-02 3.66917E-02 7.99202E-02-2.63006E-01
 -1      4701-5.17343E+00 8.01995E-01 1.73225E-02 1.44690E-02 3.03026E-02-1.69123E-01
 -1      4702-1.20702E+01-1.51778E-01 6.51322E-02 2.35121E-02 2.82794E-02-3.76696E-01
 -1      4703-1.07322E+01-4.63721E-03 3.54618E-02-2.98398E-02 1.42111E-01 3.38473E-01
 -1      4704-5.15869E+00 5.78558E-01 6.50067E-02-1.85360E-01 1.11844E-01 2.23153E-01
 -1      4705-1.09468E+01-5.09009E-02 3.69014E-02-6.90114E-02 2.26404E-01 2.72029E-01
 -1      4706-1.43233E+01 8.29475E-02 2.34380E-02 4.03659E-02-4.90137E-02 1.54095E-01
 -1      4707-8.58292E+00 5.93434E-01 3.69115E-03 6.75456E-02-4.14701E-02 1.25071E-01
 -1      4708-1.40937E+01-9.96335E-02 1.42717E-02-6.52637E-03 7.50629E-03 2.39096E-01
 -1      4709-2.88797E+01-1.21222E+00 5.34224E-02-9.01352E-01-2.05337E-01-1.53510E-01
 -1      4710-5.18543E+00 2.23445E-01 6.50768E-02-1.90585E-02 2.54672E-02 4.51225E-01
 -1      4711-1.27501E+01-8.45647E-01 7.37951E-02 8.64963E-03 8.02981E-03 6.06567E-01
 -1      4712-7.18271E+00 2.35920E-01 4.91341E-02-3.37849E-02 2.93680E-02 3.51121E-01
 -1      4713-5.00986E+00 5.63845E-01 4.34233E-02-7.65150E-02 1.18205E-01 2.92635E-01
 -1      4714-1.24388E+01-4.37801E-01 1.14202E-01 1.96965E-02 1.21579E-01 4.63713E-01
 -1      4715-1.05423E+01-5.66641E-01 9.67949E-02 4.82456E-02 1.13886E-01 5.89444E-01
 -1      4716-2.01756E+01-7.39366E-01 1.07030E-01 1.63747E-01 3.37910E-01 1.17784E-01
 -1      4717-2.83244E+01-1.11623E+00-2.60004E-03 4.28664E-01 1.52903E-01 3.76861E-02
 -1      4718-2.31438E+01-5.27922E-01-7.65767E-03 7.49997E-02 2.68469E-01-5.87746E-02
 -1      4719-8.50267E+00 7.87330E-01 2.08836E-02 1.66914E-02 3.45781E-03-4.29606E-02
 -1      4720-1.42036E+01 1.94501E-01 1.59767E-02-3.80680E-02-3.64864E-02-1.02165E-01
 -1      4721-5.84995E+00 9.39078E-01 7.47785E-04 1.14719E-03-8.51262E-03-7.52576E-02
 -1      4722-5.50915E+00 9.68887E-01-1.28106E-03 8.29084E-02 3.91432E-02-6.44893E-02
 -1      4723-1.11725E+01 3.97601E-01 1.16693E-02 1.87839E-02 1.46415E-02-1.31847E-01
 -1      4724-1.38478E+01 2.50107E-01 2.10066E-02 2.96459E-02 2.98318E-02-9.45642E-02
 -1      4725-8.50212E+00 7.76069E-01 1.71997E-02-4.68904E-02-2.18745E-02-4.59271E-02
 -1      4726-5.86447E+00 9.28322E-01 4.06269E-04-6.85644E-02-2.62070E-02-7.60055E-02
 -1      4727-3.38578E+01-4.98186E-02 1.89898E-02 3.11631E-01 4.69520E-01 2.80828E-01
 -1      4728-3.18065E+01 3.02302E-01-4.00925E-01 4.46587E-03 6.26239E-01-6.86884E-01
 -1      4729-3.24733E+01-3.82168E-01-7.69494E-02-7.54768E-02 9.42309E-01-3.10252E-01
 -1      4730-3.19410E+01 3.25285E-01-1.83375E-01-6.89813E-02 7.83287E-01-3.31397E-01
 -1      4731-2.25671E+01 2.08488E-01 1.31262E+00-6.35416E-04-1.34972E-01-6.78451E-01
 -1      4732-2.64152E+01-1.12002E-01 9.52909E-01-1.48682E-01-2.45339E-02-1.14298E+00
 -1      4733-2.50065E+01 2.30781E-01 2.38490E+00 3.38140E-01 3.84782E-01-2.19825E+00
 -1      4734-3.37884E+01-3.21557E-01-5.48143E-02-2.07280E-01 6.50380E-01-3.26817E-01
 -1      4735-3.40697E+01-1.06615E-01-1.74704E-01-2.50268E-01 4.46883E-01-3.47155E-01
 -1      4736-6.33146E+00 2.55143E-01 7.42429E-02 3.07880E-01 2.61493E-01 2.46619E-02
 -1      4737-5.17884E+00 4.25646E-01 2.97353E-02 3.99891E-01 1.70556E-01-1.41125E-01
 -1      4738-5.30365E+00 7.87843E-01 3.37108E-03-1.04750E-01-5.78507E-02-1.37345E-01
 -1      4739-1.37164E+01-8.01387E-02 3.36680E-02-2.34033E-02-4.34722E-02-2.48963E-01
 -1      4740-1.21854E+01-1.31791E-01 6.45381E-02-2.74393E-02-8.61524E-02-3.38314E-01
 -1      4741-2.78635E+01-2.92925E-01 2.89498E-01 5.30786E-02-3.65984E-02 5.81708E-01
 -1      4742-2.03556E+01 4.39575E-01 1.06453E+00-2.43583E-02-8.92718E-02 4.95236E-01
 -1      4743-2.80293E+01-6.00946E-01-2.11559E+00-4.78758E-01 1.50714E-01 2.06185E-01
 -1      4744-2.81894E+01-3.23872E-01-2.86350E-01-4.48145E-01 6.93967E-02 1.22149E+00
 -1      4745-3.69792E+01-3.41466E+00-2.96984E+00-1.43148E+00-6.18056E-02-7.76362E-01
 -1      4746-7.14176E+00 2.64472E-01 5.42850E-02 9.79236E-03 1.97074E-04 3.50365E-01
 -1      4747-5.18124E+00 2.46777E-01 7.21600E-02 5.92275E-03 4.17190E-03 4.30370E-01
 -1      4748-2.68296E+01-4.81043E+00-1.87822E-01 3.49194E-01 4.07015E-02 3.88995E-01
 -1      4749-1.85477E+01-2.74854E+00-2.77578E-02 2.35734E-01 1.24186E-01 7.43510E-01
 -1      4750-2.53223E+01-3.66222E+00 5.22666E-02 5.64967E-01 1.59197E-01 2.24805E-01
 -1      4751-2.82136E+01-4.02607E+00 7.58869E-02 3.34249E-01 3.56425E-02 1.11071E-01
 -1      4752-2.16023E+01-3.16716E+00-8.98994E-02 3.09868E-02-1.21670E-02 6.14334E-01
 -1      4753-5.45544E+00 9.42831E-01-1.43053E-04-1.00509E-01 4.13154E-02 6.47135E-02
 -1      4754-1.11720E+01 4.58872E-01 3.33710E-03-2.18873E-02 1.99283E-02 9.66725E-02
 -1      4755-1.09422E+01 2.99148E-01-4.07128E-03-7.94796E-02 7.06112E-02 1.66300E-01
 -1      4756-1.41676E+01 1.03739E+00 2.84093E-01 7.40752E-01-7.72383E-01 3.25821E+00
 -1      4757-8.22115E+00 1.17450E+00-1.12459E-01 4.42918E-01-5.37707E-01 1.11168E+00
 -1      4758-7.96251E+00 1.78155E+00-5.94774E-01 7.93084E-01-6.26851E-01 2.85830E+00
 -1      4759-3.13113E+00 1.89648E+00-4.35037E-01 5.46814E-01-5.28925E-01 6.54181E-01
 -1      4760-1.34414E+01 7.32947E-01 6.57723E-01 3.18784E-01-2.79740E-01 1.13012E+00
 -1      4761-8.89022E+00 5.09883E-02 6.81018E-02 2.54911E-01-2.76080E-01-1.49912E-01
 -1      4762-1.43629E+01-1.13082E-01 6.31091E-02 1.25690E-02-3.63378E-01-4.95416E-04
 -1      4763-4.97369E+00 2.67849E-01 2.61771E-02 4.76391E-01-1.90704E-01 3.64229E-03
 -1      4764-6.65505E+00 6.09606E-02 9.66929E-02 2.59375E-01-2.68368E-01-2.50087E-01
 -1      4765-1.20729E+01-2.58690E-03 1.34638E-01 1.23998E-02-4.06811E-01-7.17943E-02
 -1      4766-1.60608E+01-2.89499E-01 1.91868E-01-1.58938E-01-4.75242E-01-3.00471E-01
 -1      4767-3.16845E+01-5.86110E-01-1.51754E+00 3.17947E-01 9.16757E-01 4.54921E-02
 -1      4768-3.34635E+01-1.45403E-01 1.88108E-01-2.78965E-01-5.35750E-01-2.08861E-01
 -1      4769-3.29422E+01-1.23292E+00-1.68328E+00-4.69481E-01-4.26683E-01 4.98473E-01
 -1      4770-3.34148E+01-6.24967E-01 8.91377E-02-9.55610E-02-7.26054E-01-1.35454E-01
 -1      4771-3.34186E+01-1.37088E+00-1.53995E+00-5.22899E-01-7.25712E-01 6.34747E-01
 -1      4772-3.27277E+01 6.54054E-01 2.42965E-01-1.45075E-01-8.38019E-01-3.96491E-01
 -1      4773-8.58365E+00 5.37351E-01 1.14666E-02 2.30121E-02-1.85576E-02 1.51345E-01
 -1      4774-5.67428E+00 8.00266E-01 1.59558E-02-3.30979E-02 2.48501E-02 1.41771E-01
 -1      4775-8.47498E+00 8.79373E-01 4.87727E-02-6.41612E-03-8.64292E-03-1.46767E-02
 -1      4776-2.75352E+01-1.67989E+00 3.39589E-02 2.16796E-01-8.97037E-02-1.20199E-01
 -1      4777-1.91753E+01-6.56572E-01 4.06433E-02 2.80155E-02-1.80506E-01-2.31253E-01
 -1      4778-2.54977E+01-1.61555E+00 4.90249E-02 2.91996E-01-1.56972E-01-1.38907E-01
 -1      4779-2.90969E+01-1.67904E+00 3.05331E-02 2.92043E-01-1.01914E-01-6.19287E-02
 -1      4780-2.07261E+01-7.04288E-01 2.96472E-02 4.21780E-02-2.22459E-01-1.59134E-01
 -1      4781-2.28097E+01-8.32414E-01-4.09684E-03 1.20016E-02-1.43916E-01-1.57948E-01
 -1      4782-5.17742E+00 1.16082E+00 6.22420E-02-1.45367E-02 3.43923E-02-6.88353E-02
 -1      4783-3.32670E+01-1.82626E-02-5.33922E-03-1.81768E-01 4.72259E-01 1.46377E-01
 -1      4784-2.82512E+01-1.12107E+00 1.04515E-02-8.42613E-02 9.81896E-02-5.24475E-02
 -1      4785-2.76035E+01-1.26234E+00 3.09954E-02-2.59291E-01 1.59358E-01-6.39025E-02
 -1      4786-8.04514E+00 6.45053E-01 5.60840E-01 2.39690E-01 1.92710E-01-5.68274E-01
 -1      4787-5.12918E+00 5.56477E-01 9.50294E-02 6.01074E-02 9.45899E-02-7.74118E-02
 -1      4788-4.84670E+00 1.15321E+00 8.35619E-02 3.63833E-01 2.72169E-01-6.93254E-01
 -1      4789-2.05111E+01-2.16051E+00 1.22778E-01 4.88213E-01 2.51127E-01 3.62835E-01
 -1      4790-2.22976E+01-1.71656E+00 1.33546E-01 4.12481E-01 2.55894E-01 2.62738E-01
 -1      4791-2.86786E+01-3.05339E+00 8.53961E-02 8.65998E-01 1.72155E-01 3.18365E-02
 -1      4792-2.86513E+01-5.49683E+00-3.53287E-01 8.39316E-01 1.13394E-01 4.35251E-01
 -1      4793-2.21933E+01-4.70865E+00-6.47644E-01 2.62841E-01 7.59375E-02 1.23450E+00
 -1      4794-2.05213E+01-3.53762E+00-3.45713E-01 5.16554E-01 2.17071E-01 7.23073E-01
 -1      4795-3.36244E+01-5.87096E-01-1.24116E+00-6.36530E-01-5.77497E-01 6.44444E-01
 -1      4796-3.34103E+01-6.15855E-01-3.40027E-01 1.77108E-01-6.29635E-01 8.72966E-02
 -1      4797-3.26233E+01 6.78969E-01 4.71729E-02 1.19233E+00-7.83423E-03 3.41387E+00
 -1      4798-2.30924E+01 5.87752E-01 1.43645E+00-1.22324E+00-2.65863E-01 4.83409E+00
 -1      4799-2.65575E+01 2.10786E-01 2.33798E+00 2.49646E-01-1.60615E-01 4.09585E+00
 -1      4800-2.55099E+01-7.35333E-01 1.06005E+00 2.12055E-01-2.95305E-01 3.29531E+00
 -1      4801-3.16894E+01 1.73642E-01 1.24343E+00 1.47600E+00-2.19504E-01-2.35981E-01
 -1      4802-2.83888E+01-2.85354E+00 7.43737E-02 2.03363E-01 4.81265E-02 1.50384E-01
 -1      4803-2.74086E+01-2.10160E+00 4.09884E-02 3.03902E-01 1.12789E-01 1.41234E-01
 -1      4804-2.81128E+01-2.08129E+00 2.39892E-02 1.88403E-01 4.61409E-02 1.15386E-01
 -1      4805-2.17020E+01-1.19720E+00 5.76238E-02 9.50402E-02 1.11402E-01 2.73254E-01
 -1      4806-2.27093E+01-1.83253E+00 9.56823E-02 3.20259E-02 2.64241E-02 2.90329E-01
 -1      4807-5.86446E+00 8.44849E-01-1.73934E-03-1.33417E-01-3.15224E-02-8.50146E-02
 -1      4808-1.42051E+01 1.04350E-01 2.14468E-03-1.03335E-01-1.14989E-01-1.20380E-01
 -1      4809-8.52236E+00 5.85129E-01 1.98950E-03-1.72362E-01-9.00682E-02-7.59756E-02
 -1      4810-5.30827E+00 8.09834E-01 1.68638E-02-1.55181E-01-6.49175E-02-1.23187E-01
 -1      4811-1.36861E+01 4.61431E-02 5.59620E-04-1.19001E-01-1.43403E-01-1.53882E-01
 -1      4812-1.09991E+01 2.70911E-01 8.64665E-03-7.72484E-02-8.64264E-02-1.89402E-01
 -1      4813-2.82014E+01-4.80159E-01 5.50248E-02 4.10514E-01-1.42109E-02 4.40728E-01
 -1      4814-2.36711E+01 1.04696E-01 1.22780E+00-3.01649E-02-9.91344E-02 9.60429E-01
 -1      4815-2.05294E+01 3.14934E-01 9.66307E-01 5.14281E-02-4.76078E-02 3.16112E-01
 -1      4816-3.32548E+01-5.10326E-01-1.28781E-01 2.41866E-01 6.93299E-01-7.53643E-02
 -1      4817-2.10836E+01 3.38377E-01 2.00935E+00-6.18068E-02-1.73066E-01 1.35520E-01
 -1      4818-1.73994E+01-1.03167E+00 5.02781E-02 6.15428E-01 4.73076E-01 1.43474E-01
 -1      4819-2.75305E+01-1.48589E+00 1.00889E-02 9.12614E-02-5.99593E-02-1.14397E-01
 -1      4820-2.91020E+01-1.51909E+00 1.62936E-02 1.44129E-01-8.78651E-02-5.68440E-02
 -1      4821-2.50952E+01-1.28229E-01 5.67259E-01-3.39307E-01 4.06713E-02-6.24210E-01
 -1      4822-2.81039E+01-4.89846E-01 1.28611E-01-4.88093E-01-5.92917E-02-4.47304E-01
 -1      4823-5.85499E+00 1.17152E+00 5.06519E-02 1.85475E-02 1.46951E-02 2.62025E-02
 -1      4824-5.86346E+00 1.06399E+00 2.76833E-02 4.82049E-02 2.30606E-02-1.18253E-03
 -1      4825-1.41992E+01 3.70377E-01 8.75966E-02 6.44382E-03 1.20947E-02-1.19754E-02
 -1      4826-3.18298E+01 4.39116E-02-1.86147E+00 6.74891E-01 8.62529E-01 1.71329E-01
 -1      4827-3.26386E+01-1.35238E+00-2.57342E+00 4.40290E-01 8.48584E-01 8.79762E-01
 -1      4828-3.35012E+01-1.66490E+00-1.50569E+00 2.13270E-01 6.16252E-01-5.32320E-01
 -1      4829-2.20563E+01 7.98515E-02 7.54414E-01 2.63279E-02 6.85159E-02 4.09188E-01
 -1      4830-2.79392E+01-6.27334E-01 7.93876E-02-1.80700E-01-4.82515E-03 8.97501E-02
 -1      4831-2.66432E+01-2.75238E-01 5.01218E-01-8.73294E-02 5.34657E-02 5.33804E-01
 -1      4832-2.21731E+01 2.88456E-01 1.37114E+00-2.07421E-02 4.67159E-02 7.48782E-01
 -1      4833-2.81258E+01-5.38125E-01 2.20771E-01-2.43611E-01 3.03711E-02 2.53999E-01
 -1      4834-2.31945E+01-1.34406E-01 3.76559E-01-1.17208E-01 5.10327E-02 2.75265E-01
 -1      4835-2.62489E+01 4.73321E-01 1.18198E+00 2.04494E-01-1.00224E-01-2.14785E+00
 -1      4836-2.52546E+01 3.28684E-01 3.41042E+00-3.43951E-01 1.10580E-03-1.88745E+00
 -1      4837-2.57039E+01 4.51135E-01 1.39086E+00 1.19613E-01-9.32881E-02-2.29587E+00
 -1      4838-2.60161E+01 9.27468E-01 7.41196E-01-3.74737E-02-1.35102E-01-2.87557E+00
 -1      4839-2.90344E+01-1.02619E+00 7.18697E-01-2.32093E-01-8.54039E-02-3.48078E+00
 -1      4840-2.86108E+01-5.23581E-01 1.88914E+00-6.54431E-01 1.47494E-01-4.12484E+00
 -1      4841-2.04931E+01-4.04753E-01 1.11208E-01-1.19907E-01-3.44381E-01-4.63449E-02
 -1      4842-2.82705E+01-9.25332E-01 3.68538E-02-4.22509E-01-1.72391E-01-9.13075E-03
 -1      4843-2.29506E+01-1.09763E+00 6.36648E-02-2.88027E-01-2.82564E-01 6.91412E-02
 -1      4844-3.28550E+01-9.31699E-01-1.96482E+00 7.04554E-01 4.92303E-01-1.00519E+00
 -1      4845-3.24167E+01-5.75987E-01-2.40305E+00 6.17817E-01 3.07191E-01 6.10245E-01
 -1      4846-3.92193E+01-4.35422E-01-2.86967E+00 1.62501E+00-3.95035E-01 4.47293E-01
 -1      4847-2.52671E+01-6.06039E-01 3.65124E-01-2.09486E-01-4.88735E-01 5.54497E+00
 -1      4848-1.81641E+01 6.72211E-01-1.85625E-01-1.25408E-01-4.58949E-01 5.64882E+00
 -1      4849-8.56978E+00 5.58553E-01 1.24402E-02 2.02753E-02 1.27500E-02-1.53217E-01
 -1      4850-5.88191E+00 8.84923E-01-4.12680E-03-2.90324E-02-1.71484E-02-8.60999E-02
 -1      4851-1.42355E+01-2.73449E-03 1.68004E-02-1.11024E-02-8.53160E-03-2.03793E-01
 -1      4852-5.86172E+00 8.27176E-01-1.54285E-02-8.83042E-02-3.08664E-02-1.05541E-01
 -1      4853-3.09479E+01-2.97544E-01-7.96504E-01 2.45255E-01-9.16738E-01-4.77537E-01
 -1      4854-1.60779E+01 1.09180E+00-9.96340E-02-4.88864E-01-9.41714E-01 3.54968E-01
 -1      4855-3.40702E+01-4.65554E-01-6.85709E-02 3.34817E-02-4.68552E-01 8.44143E-03
 -1      4856-5.41609E+00 6.66895E-01 4.85751E-02-4.53578E-02 8.46841E-02-8.49578E-02
 -1      4857-1.23568E+01 2.86451E-01 9.57945E-02-1.55027E-01 1.67655E-01-5.93733E-02
 -1      4858-3.34519E+01-5.18396E-01-8.37540E-02-2.12539E-01 7.01045E-01 3.11960E-02
 -1      4859-1.70275E+01 2.85448E+00-1.73934E-01 9.45268E-03 8.20454E-01-2.20233E-02
 -1      4860-5.00647E+01-3.19700E+00 1.08998E-01-5.01301E-01 8.76396E-01-2.53499E-01
 -1      4861-2.82201E+01-4.08105E+00 3.81802E-02-3.27624E-01-6.80908E-02 1.04221E-01
 -1      4862-2.02332E+01-2.29007E+00 1.98805E-01-1.62341E-01-1.27684E-01 4.45241E-01
 -1      4863-2.07217E+01-3.64863E+00-3.78153E-01-4.67645E-01-1.42447E-01 7.70029E-01
 -1      4864-2.35432E+01-3.90706E+00-1.58442E-01-2.68613E-01-4.40031E-02 5.71088E-01
 -1      4865-2.88722E+01-5.63312E+00-3.47333E-01-7.02215E-01-7.96918E-02 4.81299E-01
 -1      4866-2.01678E+01 2.79060E+00-9.34172E-01-3.12945E-01-4.50661E-03-3.79303E+00
 -1      4867-2.05096E+01 2.44964E+00-9.23262E-01-7.08635E-02-1.35051E-01-3.80531E+00
 -1      4868-4.41894E+01-5.33706E+00-1.08775E+00-2.99422E-01-2.39283E-03-7.76144E-01
 -1      4869-2.85113E+01-1.33453E-01 4.93841E-01-6.06873E-01 3.09117E-02-6.63134E+00
 -1      4870-2.83812E+01-2.92474E+00 8.09375E-02-1.30957E-03-5.13115E-03 1.79267E-01
 -1      4871-2.81046E+01-2.16131E+00 2.59156E-02 2.39390E-02 9.81910E-03 1.28821E-01
 -1      4872-3.40865E+01-6.60393E-01-2.88449E-02-8.72322E-02-4.01561E-01 3.09626E-01
 -1      4873-2.70962E+01 1.06691E-02 1.12328E+00 3.19901E-01 9.86462E-02-1.37630E+00
 -1      4874-2.75304E+01-4.69175E-01 1.47329E-01 2.80320E-01 2.69946E-02-3.52045E-01
 -1      4875-2.71970E+01-5.13508E+00-5.70973E-01-5.33010E-01 5.72989E-02-5.96470E-01
 -1      4876-2.81488E+01-4.06916E+00 1.03657E-01-7.00113E-01 9.53262E-02 3.07649E-02
 -1      4877-3.30321E+01-2.17040E-01-1.79488E-02 1.12764E-01 8.98876E-01 1.11422E-01
 -1      4878-3.37216E+01-3.12015E-01-4.42573E-02 2.54092E-01-5.66551E-01-2.98461E-01
 -1      4879-3.52492E+01-2.46029E+00-4.15802E-01-1.09789E+00-1.38707E-01-1.25436E+00
 -1      4880-1.90236E+01 2.29219E+00-3.74060E-01 1.43775E-01 6.71389E-01-3.78359E+00
 -1      4881-4.96257E+01-4.20803E-01-1.18954E-02 3.25403E-01 3.32564E-01-4.69376E-01
 -1      4882-1.75392E+01 4.55383E-01-3.02792E-01-4.29624E-01 4.90954E-01-7.59983E-01
 -1      4883-4.99688E+01-6.04838E-01 2.27649E-02 2.09367E-01 4.48879E-01-3.56822E-01
 -1      4884-2.15084E+01-2.06863E+00-7.45624E-01-1.88329E+00 5.98731E-01 1.61280E-01
 -1      4885-2.05073E+01-6.52696E-01-2.41258E-01-9.33236E-01 2.92802E-01 1.12087E+00
 -1      4886-1.72263E+01-4.78977E-01 2.00037E-01-5.50000E-01 5.20314E-01 8.47082E-01
 -1      4887-2.07235E+01-7.43230E-01 7.44444E-02-7.25249E-01 5.15788E-01 4.05492E-01
 -1      4888-1.97974E+01-5.02668E-02 3.34576E-01-6.52610E-02 3.01380E-01 1.11775E+00
 -1      4889-2.39769E+01-9.97561E-01-1.57260E-01-1.31678E+00 3.33425E-01 4.85102E-01
 -1      4890-2.64560E+01 3.31499E-01 1.35539E+00 7.47273E-02 5.91605E-02 2.01038E+00
 -1      4891-2.72405E+01 2.39709E-02 7.75301E-01 8.57149E-02-2.23590E-01-6.12969E+00
 -1      4892-3.26408E+01 5.21883E-01 1.23770E-02 6.20228E-02 8.62227E-01-3.26748E-01
 -1      4893-3.34102E+01 2.69771E-01-7.78089E-02 1.88034E-01 7.61743E-01 2.80740E-01
 -1      4894-2.57227E+01 9.39951E-01 8.83415E-01 1.63385E-02-7.78080E-02-2.70677E+00
 -1      4895-2.85133E+01-7.65716E-01 1.12010E+00-1.50755E-01-9.67599E-02-3.83663E+00
 -1      4896-1.11845E+01 5.27188E-01 4.23500E-02 5.84179E-02 6.23990E-02-4.03577E-02
 -1      4897-1.52964E+01-1.23627E-01 1.16405E-01 3.27166E-02-3.54596E-01-1.82126E-01
 -1      4898-5.93490E+00 1.74086E-01 4.32733E-02 4.21603E-01-1.87765E-01-1.54263E-01
 -1      4899-1.14483E+01 4.23339E-02 1.67648E-02 2.22783E-01-3.06623E-01-6.00703E-02
 -1      4900-2.45500E+01 9.31241E-01 2.38604E-02-2.63981E-01-4.13208E-01 3.43458E+00
 -1      4901-2.01817E+01-2.24289E+00 2.74047E-02-7.57658E-01 3.67716E-01-3.74801E-01
 -1      4902-2.26085E+01-2.37819E+00 5.46600E-02-1.09945E+00 4.43379E-01-1.33403E-01
 -1      4903-1.95047E+01-1.21184E+00 1.19680E-01-4.43065E-01 3.57172E-01-1.56383E-01
 -1      4904-2.01114E+01-1.85320E+00 2.24610E-01-3.63957E-01 2.77690E-01-3.70118E-01
 -1      4905-2.26077E+01-2.14102E+00 9.60008E-02-6.15682E-01 3.23318E-01-1.79736E-01
 -1      4906-1.68038E+01-1.06338E+00 1.20305E-01-5.15196E-01 4.33729E-01-2.50628E-01
 -1      4907-5.66083E+00 1.36017E-01 3.12799E-02 7.15859E-03 2.51581E-01-3.22049E-01
 -1      4908-5.06657E+00 5.23455E-01 2.40406E-02 2.70297E-01 1.82351E-01-1.80341E-01
 -1      4909-1.86084E+01 2.20857E+00-2.05213E+00-8.37059E-02-5.17057E-01-2.40239E+00
 -1      4910-4.52113E+01-5.22436E+00-2.92937E+00-1.04401E+00-1.09370E-01-3.67392E-01
 -1      4911-2.01528E+01 2.24893E+00-1.16922E+00-8.29574E-03-4.25092E-01-3.52681E+00
 -1      4912-8.07611E+00 3.81096E-01 1.38238E-01 6.94376E-02-1.34803E-01-8.81710E-02
 -1      4913-1.45364E+01 1.95790E-01 1.35839E-01 1.91838E-01-1.79379E-01-5.52997E-02
 -1      4914-6.05304E+00 3.81688E-01-2.73903E-02 1.46866E-01-1.03699E-01-2.23224E-02
 -1      4915-6.19373E+00 3.07223E-01 9.23092E-02 8.81600E-02-8.62271E-02-4.97221E-02
 -1      4916-1.26622E+01 1.76598E-01 9.97275E-02 1.95170E-01-1.83067E-01-4.59369E-02
 -1      4917-1.48405E+01 1.29445E-01 1.90860E-01 1.37086E-01-1.83285E-01-5.82465E-02
 -1      4918-3.20657E+01-8.07511E-01-1.57206E+00-3.33503E-01 9.66996E-01-1.88665E-01
 -1      4919-1.66507E+01 1.26132E+00 1.81261E-01 5.32237E-01 9.71118E-01 3.23970E-01
 -1      4920-4.18676E+01-4.15937E+00-2.41597E+00 7.68745E-01 9.98472E-01-1.07896E+00
 -1      4921-1.81832E+01-2.55777E-01 1.16127E-01 1.87721E-01 4.33972E-01-3.89398E-01
 -1      4922-1.58510E+01-3.41757E-01 1.15287E-01 9.38069E-02 3.98211E-01 2.61712E-02
 -1      4923-1.87381E+01-1.38606E-01 4.18092E-02-3.33999E-02 3.40271E-01-2.52262E-01
 -1      4924-8.46160E+00 6.07713E-01 1.48271E-02-1.85234E-01-9.62180E-02-6.00828E-02
 -1      4925-5.81749E+00 8.61269E-01 5.79571E-03-1.34626E-01-3.97001E-02-6.65061E-02
 -1      4926-2.81388E+01-1.67417E+00 5.64651E-03 1.39324E-01 5.35663E-02 1.28184E-01
 -1      4927-1.96915E+01-6.71213E-01 2.97498E-02-1.30950E-02 1.06016E-01 2.08559E-01
 -1      4928-2.54309E+01-1.15048E+00 1.48076E-03 9.53857E-02 1.20721E-01 9.53555E-02
 -1      4929-2.96018E+01-1.39650E+00 1.18807E-02 1.11136E-01 7.06417E-02 5.40372E-02
 -1      4930-2.11974E+01-5.33132E-01-5.42281E-03-6.89549E-02 1.46475E-01 1.24340E-01
 -1      4931-2.38812E+01-9.68374E-01 1.59462E-02-1.34867E-03 8.26832E-02 1.53917E-01
 -1      4932-8.52267E+00 4.25429E-01 3.36216E-03-2.51453E-01 1.27798E-01 1.21787E-01
 -1      4933-5.79893E+00 5.74261E-01 8.97429E-03-3.32593E-01 1.44386E-01 8.71840E-02
 -1      4934-2.01217E+01-2.95504E-01 9.17486E-02-2.97724E-01-2.83464E-01-7.43390E-01
 -1      4935-2.40070E+01-2.84576E-01 5.83533E-02-3.25305E-01-2.28934E-01-5.95784E-01
 -1      4936-2.30127E+01-7.12757E-02 4.12743E-02 2.35885E-02-1.24005E-01-5.93279E-01
 -1      4937-2.31653E+01-4.13788E-01 4.82344E-02-3.61680E-01-2.99248E-01-3.45134E-01
 -1      4938-1.90019E+01-8.43912E-03 1.58091E-01 4.25689E-02-2.01393E-01-7.18972E-01
 -1      4939-1.43121E+01-8.59768E-01 1.96192E-01-3.28494E-01 3.89346E-01-4.29818E-01
 -1      4940-1.75590E+01-2.35638E+00-2.14995E-01-9.35256E-01 4.29303E-01-4.98025E-01
 -1      4941-1.73753E+01-1.75562E+00 1.41160E-01-5.02165E-01 3.89573E-01-4.82759E-01
 -1      4942-2.14731E+01-4.55458E-02 2.66382E-02 1.57432E-01 1.18704E-01 2.23538E-02
 -1      4943-2.58471E+01-1.56567E-01 8.55366E-03 2.65946E-01 1.12941E-01 2.52390E-02
 -1      4944-2.93165E+01-6.17950E-02-1.17600E-03 1.44067E-01 3.31918E-02 2.72002E-02
 -1      4945-2.33934E+01-4.98525E-02 1.13146E-01 1.51003E-01 9.02646E-02-9.84499E-02
 -1      4946-2.77555E+01-1.19452E-01 6.67764E-02 2.77779E-01 7.54515E-02-4.06536E-02
 -1      4947-1.98410E+01 3.05340E-02 1.68513E-01 2.26058E-01 1.58527E-01-8.12075E-02
 -1      4948-3.39212E+01-5.71009E-01 2.87807E-02 3.66243E-02-5.16702E-01-6.76804E-03
 -1      4949-2.65174E+01-1.24669E-01 6.57482E-01-7.77298E-02 2.80967E-02 7.86307E-01
 -1      4950-2.79760E+01-4.69447E-01 1.81759E-01-3.07980E-01 5.16396E-04 3.85561E-01
 -1      4951-1.66138E+01 4.82311E-04 3.33213E-03-1.62786E-01 1.41795E-01-1.01074E-01
 -1      4952-2.41601E+01-6.99949E-02-3.94625E-04-1.27173E-01 1.09610E-01-6.53284E-02
 -1      4953-2.00845E+01-9.81606E-02-1.58096E-03-2.18158E-01 2.05074E-01-4.27763E-02
 -1      4954-1.99187E+01-5.26679E-02-7.73350E-03-1.18693E-01 1.25339E-01-1.19131E-01
 -1      4955-2.74726E+01 2.52698E-01-6.94348E-02-5.15335E-01-7.06798E-01-6.08913E+00
 -1      4956-1.36670E+01-2.23048E-01 3.56482E-02-3.29409E-02 1.90372E-01 2.72439E-01
 -1      4957-2.80270E+01-6.19264E-01-3.27125E-01 1.32436E+00-4.68567E-01 7.12258E-01
 -1      4958-2.98836E+01-9.29867E-01 1.21479E+00 2.34180E+00 5.86679E-02-1.79737E+00
 -1      4959-2.28144E+01 3.01718E-01 2.43082E+00-3.00823E-01-1.53987E-01 7.81421E-01
 -1      4960-2.57657E+01-3.61848E-02 7.66417E-01 2.48182E-01-6.70051E-02 7.04172E-01
 -1      4961-2.20184E+01 1.70932E-01 1.09165E+00 5.44000E-03-1.11615E-01 5.48504E-01
 -1      4962-2.04744E+01-6.36026E-01-2.15225E-01 9.27267E-01-3.02826E-01 1.13318E+00
 -1      4963-2.13926E+01-2.15697E+00-9.07302E-01 1.80382E+00-5.30031E-01 2.43563E-01
 -1      4964-1.72186E+01-5.10580E-01 9.48066E-02 5.60073E-01-4.91869E-01 8.32128E-01
 -1      4965-1.98638E+01-5.95573E-02 3.30982E-01 8.69958E-02-2.93222E-01 1.13943E+00
 -1      4966-2.07529E+01-7.30210E-01 3.55197E-02 7.12683E-01-5.05650E-01 3.52254E-01
 -1      4967-2.39918E+01-9.45069E-01-1.37718E-01 1.31878E+00-3.53316E-01 4.80993E-01
 -1      4968-2.89789E+01-2.21002E+00 1.16162E-02 2.55651E-01-4.99588E-02-1.18656E-01
 -1      4969-2.89719E+01-1.95588E+00 1.23067E-02 1.29674E-01-1.65045E-02-1.25557E-01
 -1      4970-2.26508E+01-1.12581E+00 3.35961E-02 2.25511E-02-7.70636E-02-2.11998E-01
 -1      4971-8.46869E+00 5.08542E-01-7.39251E-04-2.51766E-01-1.07235E-01-6.41522E-02
 -1      4972-5.24187E+00 7.24928E-01 1.09196E-02-2.47667E-01-7.88246E-02-1.05065E-01
 -1      4973-2.58971E+01-2.47935E-01 4.70530E-02 3.28224E-01 9.82387E-02 5.20499E-03
 -1      4974-2.85052E+01-4.82360E-01-3.61567E-03 3.10829E-01 8.31495E-02 8.15253E-03
 -1      4975-2.68580E+01-1.38456E-01 1.82695E-01 9.56419E-02-2.80512E-02-1.08302E+00
 -1      4976-2.38369E+01 3.32582E-01 1.72196E+00-1.36513E-01 7.70277E-02-1.14450E+00
 -1      4977-2.30714E+01 4.73554E-01 2.07377E+00-4.72680E-02 1.19113E-01-1.19451E+00
 -1      4978-2.94949E+01-7.71408E-02 2.88233E-02-1.56584E-01 2.41703E-02 8.60493E-02
 -1      4979-2.29710E+01-2.89345E-02 1.91660E-01-1.69885E-01 1.13949E-01 2.03748E-01
 -1      4980-2.08126E+01 1.66154E+00-5.99433E-01-3.29281E-01 5.36814E-01-3.37834E+00
 -1      4981-1.29993E+01-3.37629E-03 1.37227E-01 7.46243E-02-3.71985E-01-2.91294E-01
 -1      4982-2.85846E+01-1.79119E-01-2.16743E-02-1.98002E-01 9.77917E-02-4.54449E-02
 -1      4983-1.71506E+01-1.35963E-01 1.32174E-01-3.08412E-02-3.23327E-01-6.02944E-01
 -1      4984-2.02012E+01-2.09018E-01 1.02369E-01-8.43860E-02-3.34772E-01-2.78401E-01
 -1      4985-2.73900E+01-1.62994E+00 3.51412E-02 2.49191E-01 1.13460E-01 1.38195E-01
 -1      4986-1.89479E+01-7.11477E-01 4.51697E-02 4.61532E-02 1.91466E-01 2.04409E-01
 -1      4987-2.15498E+01-5.91165E-02 2.57684E-01-1.51443E-02 2.06067E-02 1.58496E-01
 -1      4988-2.80139E+01-6.92262E-01 4.79669E-02-7.91973E-02 3.44590E-02 1.28774E-01
 -1      4989-2.65821E+01-5.26820E-01 1.36889E-01-8.63994E-03-7.48006E-03 1.55853E-01
 -1      4990-2.18055E+01 4.82281E-02 4.70971E-01 3.18448E-02-4.03695E-02 4.02778E-01
 -1      4991-2.80681E+01-5.03266E-01 2.94154E-01-6.36801E-03 1.52508E-02 3.39001E-01
 -1      4992-2.31958E+01-6.29271E-02 4.27359E-01-3.27854E-02-5.75071E-04 3.13200E-01
 -1      4993-2.52011E+01-3.05047E-01 3.93777E-01-7.81686E-02 1.16372E-02 2.77586E-01
 -1      4994-2.03900E+01 1.19858E-01 5.08797E-01-6.83321E-02 3.20486E-02 1.18176E-01
 -1      4995-2.04510E+01 4.03543E-01 1.03655E+00 2.70149E-02 2.91354E-02 4.88987E-01
 -1      4996-2.67948E+01-4.85858E+00-1.52588E-01-3.11556E-01-4.13646E-02 3.93230E-01
 -1      4997-2.22308E+01-4.74900E+00-7.24530E-01-1.90146E-01-3.77099E-03 1.11828E+00
 -1      4998-2.00312E+01-1.50564E-01-4.82356E-03-7.16320E-02 2.77382E-01-1.47076E-01
 -1      4999-1.70985E+01-3.40781E-01 9.92444E-02 1.32350E-02 3.15510E-01 3.16439E-02
 -1      5000-1.97889E+01-3.93209E-01 2.09204E-02-3.19019E-02 2.62800E-01 2.04965E-02
 -1      5001-3.25421E+01 3.52101E-01-1.51299E-01-2.48410E-02 8.31629E-01-2.22425E-02
 -1      5002-2.90040E+01-3.44825E-02 2.00147E-01 4.49187E-01-2.62346E-03-6.47831E-01
 -1      5003-2.38330E+01 7.86118E-02 1.45244E+00-9.52683E-02 8.03580E-02-1.21236E+00
 -1      5004-2.37234E+01 1.36675E-02 4.92736E-01 2.61179E-01 4.19120E-02-7.51304E-01
 -1      5005-2.58785E+01 1.24637E-01 1.21388E+00 2.93602E-01 4.79714E-02-2.05925E+00
 -1      5006-2.57003E+01 3.93032E-01 1.21932E+00 1.30538E-01-6.66016E-02-2.14143E+00
 -1      5007-3.21922E+01-1.71765E-01-2.10459E+00-5.70705E-01-8.06090E-01 2.55952E-01
 -1      5008-1.88116E+01 1.25276E+00-2.22666E+00 3.22390E-01-7.29954E-01-2.61124E+00
 -1      5009-4.40044E+01-3.02119E+00-2.69746E+00-1.62589E+00-9.43178E-01-7.09132E-01
 -1      5010-4.57491E+01-3.88960E+00-1.07523E+00-1.45200E+00-5.49873E-01-3.70215E-01
 -1      5011-2.57939E+01-2.68638E-01 6.57459E-02 4.04487E-01 9.27306E-02-3.94471E-02
 -1      5012-2.81384E+01-4.14831E-01 2.48464E-01 4.22614E-01 2.54163E-02-1.92069E-01
 -1      5013-2.67673E+01-5.06983E-02 4.40412E-01-4.89269E-01-2.12633E-02-9.98607E-01
 -1      5014-2.06836E+01 1.93091E-01 1.22584E+00 6.52091E-02 3.01928E-02-4.99478E-01
 -1      5015-2.54782E+01-1.29673E-01 1.17930E+00-1.67497E-01 2.73146E-02-1.54416E+00
 -1      5016-2.48538E+01-9.09435E-01-3.35555E-01-1.24307E+00 2.66044E-01 1.14495E+00
 -1      5017-2.38677E+01-2.21628E-01 9.87961E-02-2.36609E-01 1.37545E-01 1.19575E+00
 -1      5018-5.12898E+00-3.20026E-01-2.00874E-01 2.79606E-01 2.61709E-01 2.02671E-01
 -1      5019-1.42878E+01-1.88447E+00-6.64584E-01 1.05107E+00 4.81392E-01 1.91045E-01
 -1      5020-1.08882E+01-1.27748E+00-2.69386E-01 6.20991E-01 4.03201E-01 4.86893E-01
 -1      5021-1.33408E+01-1.61650E+00-1.55706E-01-5.87527E-01 3.71007E-01-7.12653E-01
 -1      5022-6.94234E+00-1.19694E-01 5.08490E-02-1.17551E-01-3.25480E-01 3.56995E-01
 -1      5023-1.59543E+01-1.17634E+00-7.93251E-02-7.19799E-01-5.19272E-01 2.26479E-01
 -1      5024-8.71758E+00-4.12519E-01-1.08388E-01-4.62999E-01-4.07033E-01 2.33408E-01
 -1      5025-6.96428E+00 1.01435E-01 4.13286E-02 7.71190E-03-3.34328E-01 5.35675E-03
 -1      5026-1.58641E+01-6.43420E-01 2.09212E-01-6.79569E-01-6.02181E-01-2.21179E-01
 -1      5027-1.41252E+01-5.69053E-01 1.41866E-01-2.87494E-01-5.22826E-01 6.69493E-02
 -1      5028-2.34865E+01 6.46155E-01-8.41667E-01-6.89412E-01 3.56008E-01 3.96675E+00
 -1      5029-1.91151E+01 2.15493E+00-1.02480E+00-2.74733E-01 4.29568E-01 4.29261E+00
 -1      5030-3.65231E+01-2.21676E+00-2.56771E+00-1.14935E+00 4.45697E-01-1.00931E+00
 -1      5031-2.87578E+01-2.80389E-01 9.56908E-02-3.91366E-01 6.45864E-01 5.50116E+00
 -1      5032-1.86475E+01-2.81532E+00 9.61869E-03-2.14117E-01-1.05122E-01 7.67892E-01
 -1      5033-1.89375E+01 2.28895E-01 5.32659E-01 8.45085E-03-7.63323E-03 7.78779E-02
 -1      5034-8.14343E+00 6.13656E-01 1.35277E-01 5.75130E-02-1.16606E-01-8.49640E-02
 -1      5035-6.09579E+00 6.16987E-01-8.20776E-03 1.31635E-01-9.40520E-02-2.15467E-02
 -1      5036-2.43902E+01 7.22071E-01 5.37951E-01-2.03865E-01 2.36956E-01 2.95154E+00
 -1      5037-2.40711E+01 8.01178E-01-3.64012E-02 2.92039E-01 6.22957E-01 3.25156E+00
 -1      5038-3.34977E+01-7.10951E-01 3.26524E-02-1.86040E-01-6.26916E-01 1.99823E-01
 -1      5039-3.31717E+01 5.01943E-01 4.08931E-02-3.28595E-01-6.94815E-01 7.08233E-02
 -1      5040-5.00686E+01-4.12647E-01 1.71518E-02-1.63998E-01-4.54743E-01-3.28323E-01
 -1      5041-1.75710E+01 6.34124E-01-2.73332E-01 4.36232E-01-5.29314E-01-5.92061E-01
 -1      5042-3.19512E+01 3.65328E-01-3.14642E-01 3.66367E-02-6.65886E-01-4.96245E-01
 -1      5043-4.98332E+01-4.52976E-01-4.78652E-02-2.98227E-01-3.09867E-01-4.56346E-01
 -1      5044-1.79271E+01 8.18551E-01-2.14149E-01-2.03004E-01 6.30411E-01-3.91441E-01
 -1      5045-8.48014E+00 1.31142E+00 4.50190E-01-6.73600E-02-5.48451E-02-4.82591E-01
 -1      5046-1.55025E+01 7.87751E-01 9.81914E-01-5.81886E-02-5.82073E-02-7.89050E-01
 -1      5047-5.92195E+00 1.75327E+00 3.75280E-01-5.92209E-02-3.67911E-02-7.01708E-01
 -1      5048-4.65502E+00 1.43767E+00 4.03146E-02-2.35424E-02-2.28385E-02-1.30677E-01
 -1      5049-1.11883E+01 1.04154E+00 5.11437E-01-2.24662E-02-5.81859E-02-4.81655E-01
 -1      5050-1.34961E+01 6.68190E-01 5.13903E-01-2.04568E-02-8.64400E-02-2.59441E-01
 -1      5051-8.57835E+00 6.54182E-01 1.72302E-02 1.59802E-01 7.42934E-02-3.17830E-02
 -1      5052-8.58494E+00 7.63988E-01 3.25120E-02 9.21301E-02 6.26679E-02-4.81734E-03
 -1      5053-5.82150E+00 9.81137E-01 3.63779E-02 9.39037E-02 4.46758E-02-1.10875E-02
 -1      5054-5.82876E+00 1.11512E+00 4.49002E-02 2.93028E-02 3.18636E-02 2.28003E-02
 -1      5055-1.43379E+01 3.31174E-01 7.17349E-02 8.01380E-02 8.68600E-02 2.29147E-03
 -1      5056-2.59755E+01 4.78950E-01 1.02557E+00 4.89354E-02 4.48281E-03-2.14462E+00
 -1      5057-2.39336E+01 3.57937E-01 3.11472E+00-2.01171E-01-1.52504E-01-1.10128E+00
 -1      5058-2.47264E+01 5.66099E-01 9.13893E-01 8.47211E-02 7.32763E-02-1.63444E+00
 -1      5059-2.63563E+01 1.02171E+00 1.03343E+00-7.13585E-02-5.01797E-03-3.18664E+00
 -1      5060-2.73543E+01-2.06054E-01 2.39929E+00 6.92430E-02 9.65649E-02-3.03318E+00
 -1      5061-2.95053E+01-7.96157E-01 1.48914E+00-1.04569E-01 1.66537E-01-3.92420E+00
 -1      5062-2.71727E+01-5.72677E-01-2.24052E+00 8.78560E-01-4.70398E-01 1.04863E-01
 -1      5063-3.59561E+01-2.79839E+00-3.38554E+00 2.19456E+00 1.12755E-01-6.13567E-01
 -1      5064-3.38364E+01-9.93321E-02-6.21960E-02-1.88539E-01-5.25804E-01 2.65444E-01
 -1      5065-8.08287E+00-4.25125E-01 1.34624E-02 1.14428E-01 1.03986E-01 5.45123E-01
 -1      5066-8.15963E+00-4.27603E-01 1.34787E-02 1.10991E-01 1.54636E-01 5.21838E-01
 -1      5067-5.40209E+00-4.74706E-01-2.12170E-01 1.61733E-01 1.40609E-01 4.65390E-01
 -1      5068-1.44940E+01-2.07925E+00-1.72465E-01 3.47378E-01 2.18165E-01 7.46531E-01
 -1      5069-5.23043E+00-4.13008E-01-1.70379E-01 1.50719E-01 1.18133E-01 5.20514E-01
 -1      5070-2.40725E+01-4.29461E-01 1.32580E-01-4.53174E-01-2.44682E-01-8.81711E-01
 -1      5071-2.89851E+01-5.45593E-01-1.50163E+00 4.72000E-01-5.45995E-03 5.39372E+00
 -1      5072-3.69381E+01-6.32202E-01 7.60870E-01 2.67487E+00-2.11091E-02-5.67419E-01
 -1      5073-2.48063E+01 8.08467E-01 4.73573E+00 2.70305E-01-2.63990E-01 3.97863E+00
 -1      5074-4.27760E+01-5.25597E+00-6.80614E-01 3.17620E-01 1.35681E-01-2.33579E-01
 -1      5075-2.09368E+01 2.21822E+00-4.83200E-01 1.84233E-01 8.58877E-02-3.64008E+00
 -1      5076-2.76416E+01-2.64834E-02 1.09382E+00-5.72073E-02 5.12813E-01-5.63764E+00
 -1      5077-2.67348E+01-1.80940E-01 2.10236E-01 1.46894E-01 1.11402E-01-8.08446E-01
 -1      5078-2.34575E+01-1.41003E-02 6.68663E-01 9.82016E-02 1.17816E-01-6.89769E-01
 -1      5079-1.69564E+01-1.06778E-02 8.25570E-03-1.95067E-01-1.81213E-01-7.00401E-03
 -1      5080-1.09713E+01 2.84944E-01 4.93181E-03-2.20262E-01-1.82605E-01-5.11476E-02
 -1      5081-1.68742E+01-8.03700E-02 1.85186E-03-1.92737E-01-2.15619E-01-6.22794E-02
 -1      5082-1.65762E+01-6.28859E-02 1.18167E-02-2.31290E-01-1.97992E-01 3.55216E-02
 -1      5083-1.05964E+01 2.01580E-01 3.57484E-04-2.82323E-01-2.11792E-01-1.39971E-02
 -1      5084-1.06751E+01 2.49460E-01 4.68056E-03-2.53569E-01-1.78105E-01 2.42256E-02
 -1      5085-2.49987E+01 2.31593E-01 9.70591E-01 1.37576E-01 2.86568E-02 1.21793E+00
 -1      5086-2.67140E+01 1.62648E-01 1.28666E+00 1.11431E-01 7.44408E-02 2.02101E+00
 -1      5087-2.47493E+01-8.99386E-01-3.65056E-01 1.21852E+00-2.52356E-01 1.16555E+00
 -1      5088-2.39219E+01-2.21232E-01 8.66619E-02 2.63326E-01-1.26705E-01 1.18903E+00
 -1      5089-2.60759E+01 4.65560E-01 1.15459E+00-1.78751E-01-1.29266E-02-2.02124E+00
 -1      5090-2.58413E+01 9.84373E-01 9.01100E-01 1.54069E-02 3.05501E-02-2.54932E+00
 -1      5091-7.27728E+00 1.62775E+00 3.05283E-01-3.14135E-01 1.41322E-01 1.03263E+00
 -1      5092-1.44151E+01 9.60495E-01 1.04442E+00-1.25134E-01 1.47423E-01 1.46305E+00
 -1      5093-4.65825E+00 2.13700E+00-2.23263E-02-1.77322E-01 3.39927E-02 1.14178E+00
 -1      5094-4.68035E+00 1.73392E+00 1.25361E-02-1.85307E-01 2.02553E-03 4.67194E-01
 -1      5095-1.13741E+01 1.10002E+00 5.27923E-01-6.11807E-02 5.21036E-02 1.04686E+00
 -1      5096-1.31400E+01 8.71777E-01 8.72086E-01-1.06594E-01 1.77070E-01 5.98129E-01
 -1      5097-2.08567E+01-2.72524E+00-3.59943E-01-1.43535E+00 5.07395E-01-3.51419E-01
 -1      5098-1.90608E+01-4.88968E+00-2.63596E+00-1.79153E+00 3.43836E-01-2.48473E-01
 -1      5099-1.67147E+01-3.75972E+00-2.77383E+00-1.71862E+00 3.09551E-01 1.66311E-01
 -1      5100-1.96473E+01-4.82046E+00-3.45906E+00-2.52200E+00 2.70716E-01 1.50308E-01
 -1      5101-2.43057E+01-3.51221E+00-4.40243E-01-2.08025E+00 5.22286E-01-4.73269E-01
 -1      5102-2.42498E+01 6.54448E-01 8.91322E-01-5.16786E-01-7.28755E-02 3.31146E+00
 -1      5103-3.29381E+01-1.89600E+00-3.29835E-01 1.59065E+00 5.32727E-01-2.60154E+00
 -1      5104-2.89429E+01-5.51113E-01-8.66053E-01 1.04660E+00-3.59406E-03 8.85850E-01
 -1      5105-3.02709E+01-1.21543E+00-4.63714E-02 6.09994E-01-2.41424E-01 5.29139E+00
 -1      5106-2.40877E+01 1.41047E+00 3.28196E-01-2.90972E-02-8.37883E-03-3.44462E+00
 -1      5107-2.33745E+01 1.71127E+00 8.27583E-01-5.26281E-02-1.45683E-01-3.39398E+00
 -1      5108-1.52004E+01 7.94915E-02 1.42412E-02-2.22218E-01 1.91918E-01-3.69794E-03
 -1      5109-6.71552E+00 5.25842E-01 1.61296E-02-2.43307E-01 1.08231E-01 1.37959E-02
 -1      5110-8.23107E+00 3.69924E-01 1.81771E-02-2.57463E-01 1.26198E-01-1.24825E-02
 -1      5111-1.39070E+01 1.88292E-01 8.21586E-02-1.75794E-01 1.93967E-01-7.23718E-02
 -1      5112-5.40662E+00 5.05832E-01 4.10415E-02-1.68583E-01 1.02594E-01-5.82922E-02
 -1      5113-4.94622E+01-3.08343E+00-8.09414E-04 6.23869E-01-7.12824E-01-2.99531E-01
 -1      5114-2.76884E+01-2.37884E+00 9.13933E-02-8.65206E-01 2.16394E-01 3.16544E-02
 -1      5115-2.53937E+01-2.28765E+00 9.42922E-02-5.95253E-01 1.80481E-01-1.38802E-01
 -1      5116-2.84628E+01-3.28995E+00 1.01771E-01-6.84970E-01 1.29222E-01-1.09174E-01
 -1      5117-2.81539E+01-3.38873E-01 3.17232E-01-5.81635E-01-7.26797E-03-5.51481E-01
 -1      5118-8.52886E+00 5.06860E-01 8.26126E-03-1.86384E-01 1.06294E-01 1.11374E-01
 -1      5119-2.70675E+01 5.21328E-03 4.75253E-01-3.26895E-02 4.82117E-03 1.03527E+00
 -1      5120-2.77160E+01-3.48403E-01 1.29565E-02 5.14921E-01 7.02959E-04-3.14130E-01
 -1      5121-2.49931E+01-1.90912E-01 5.24919E-01 9.01836E-02-7.90029E-02 3.27677E-01
 -1      5122-2.53733E+01-1.11383E+00 4.19641E-03-1.12229E-02 2.20849E-02-1.27065E-01
 -1      5123-2.54034E+01-1.34971E+00 9.90117E-03-4.42403E-03 1.40481E-02-1.49782E-01
 -1      5124-2.88467E+01-1.31299E+00-2.62609E-03-1.01556E-02-4.56040E-03-5.67996E-02
 -1      5125-2.88887E+01-1.52783E+00-5.21658E-03 7.65302E-03-1.06018E-02-7.66834E-02
 -1      5126-2.04701E+01-5.57136E-01 8.50187E-03-7.08853E-03 4.76024E-03-1.70430E-01
 -1      5127-5.14314E+00 4.95305E-01-4.90636E-03-3.13147E-01 1.10311E-01 1.99835E-02
 -1      5128-1.35791E+01 1.32602E-01 4.19741E-03-2.56640E-01 2.03398E-01-1.21480E-02
 -1      5129-1.20668E+01 2.24171E-01 7.74918E-03-2.29665E-01 1.81514E-01 5.19925E-02
 -1      5130-2.81459E+01-4.46355E+00-3.83904E-02-1.24507E+00 1.97143E-01-9.00631E-02
 -1      5131-2.58236E+01 1.02378E-01 2.64523E+00 4.42838E-01-3.10619E-01-3.01601E+00
 -1      5132-2.15654E+01 1.16060E-01 2.19062E+00 8.83167E-01-1.16166E-01-1.97356E-01
 -1      5133-2.36709E+01 2.89630E-01 1.89501E+00 1.11681E-01-4.88295E-02-1.21970E+00
 -1      5134-3.37257E+01 1.63682E-01-1.39216E-02 2.68380E-02-6.37291E-01 3.32661E-02
 -1      5135-4.95468E+01-2.58993E+00 5.35119E-02 1.29912E-01-7.64855E-01-7.51665E-02
 -1      5136-1.68378E+01 2.89439E+00-2.86093E-01-1.24066E-01-8.12747E-01-2.47409E-02
 -1      5137-2.80885E+01-1.48743E+00 1.17716E-02 5.38601E-02 2.77277E-02 1.14451E-01
 -1      5138-2.95641E+01-1.28704E+00-7.76756E-04 1.06963E-02 5.29194E-02 4.38166E-02
 -1      5139-1.91083E+01-3.84123E-01 3.98154E-02 5.38862E-02 2.52556E-01-5.18997E-02
 -1      5140-1.97384E+01-2.47257E-01 6.18344E-03 1.54227E-01 1.98500E-01-3.32750E-02
 -1      5141-2.04404E+01-1.79006E-01-1.43196E-02 1.29028E-01 2.21848E-01 3.13293E-02
 -1      5142-2.79434E+01-6.37769E-01 6.86957E-02 2.13362E-01-4.74698E-02 1.14891E-01
 -1      5143-2.14507E+01-6.69618E-02 2.64665E-01 8.10643E-02-7.18611E-02 1.60352E-01
 -1      5144-2.65509E+01-4.93067E-01 1.48194E-01 1.30590E-01-2.64487E-02 1.50717E-01
 -1      5145-2.80554E+01-4.64103E-01 3.24339E-01 1.33288E-01-3.94897E-02 3.34472E-01
 -1      5146-2.30652E+01-5.26815E-02 4.21456E-01 8.98361E-02-5.55087E-02 3.23462E-01
 -1      5147-6.97862E+00 2.64523E-01 2.62350E-02-3.32382E-01 2.57545E-01-2.37556E-02
 -1      5148-1.27901E+01-5.09458E-02 1.44147E-01 1.45839E-02 4.59992E-01-2.55254E-01
 -1      5149-1.40511E+01 8.95736E-01 8.94873E-02 9.90805E-01-9.37090E-01 3.09999E+00
 -1      5150-2.63692E+00 1.81242E+00-2.69145E-01 5.31575E-01-7.02433E-01 5.89530E-01
 -1      5151-7.44553E+00 1.63576E+00-5.46135E-01 1.08769E+00-1.24875E+00 2.75229E+00
 -1      5152-1.37222E+01 3.81397E-01 6.20746E-01 5.01073E-01-5.70102E-01 1.31885E+00
 -1      5153-3.39024E+01 1.58018E-01-1.35816E-01 2.64565E-02-5.80519E-01-1.38914E-02
 -1      5154-2.91111E+01-1.30730E+00 7.35832E-03 1.99069E-01-9.98518E-02-5.33731E-02
 -1      5155-1.66382E+01 2.11591E+00-1.18389E-01 1.65543E-01 7.55423E-01-3.57420E-02
 -1      5156-8.36008E+00 1.48556E+00 4.61640E-01-2.81387E-02 6.68651E-03 3.76724E-01
 -1      5157-8.31830E+00 1.44285E+00 4.65914E-01-8.14155E-02 5.10639E-02 3.55522E-01
 -1      5158-8.61115E+00 1.24567E+00 3.60306E-01-1.14549E-02 2.07383E-02 3.28287E-01
 -1      5159-2.68664E+01-8.98747E-01 8.85086E-03-7.98065E-02-1.31165E-01 5.06916E-02
 -1      5160-2.13185E+01-4.23228E-01-1.27165E-03 4.14464E-02-2.27814E-01 6.09168E-02
 -1      5161-2.83170E+01-9.73755E-01 1.31668E-02-2.27701E-01-1.46753E-01 1.17589E-02
 -1      5162-2.92093E+01-1.30093E+00-4.94076E-03-1.89023E-01-8.70795E-02 5.90727E-02
 -1      5163-2.37016E+01-7.97893E-01 1.17709E-02-5.60840E-02-1.93020E-01 8.34772E-02
 -1      5164-2.22187E+01-6.47961E-01 1.49149E-02 4.46861E-02-1.51006E-01 1.08100E-01
 -1      5165-2.52317E+01-6.09527E-01 3.01647E-02 1.20384E-01-7.02795E-02 3.08279E-02
 -1      5166-2.51922E+01-5.00042E-01 4.63934E-02 1.92300E-01-7.43997E-02 2.20297E-02
 -1      5167-2.51563E+01-5.75098E-01 4.30246E-02 1.35475E-01-6.22292E-02 2.29159E-02
 -1      5168-8.52788E+00 1.39679E+00 4.17601E-01-1.52642E-02-1.65739E-02-4.56297E-01
 -1      5169-8.49453E+00 1.34607E+00 4.30761E-01 7.91203E-02 4.32807E-02-4.84123E-01
 -1      5170-7.93400E+00 1.79093E+00 5.65924E-01 1.12911E-01 4.34635E-02-6.60495E-01
 -1      5171-2.77094E+01-3.19497E-01 1.10027E-01 4.48352E-01 7.64740E-02-1.57872E-01
 -1      5172-2.25175E+01-1.28967E-01 2.71534E-01 2.26211E-01 1.22882E-01-2.48477E-01
 -1      5173-2.68534E+01-4.98697E+00-1.72607E-01 3.11511E-02-9.48650E-03 2.91885E-01
 -1      5174-2.81182E+01-4.10005E+00 1.24382E-01 1.28503E-02-1.88982E-02 5.21970E-02
 -1      5175-8.19682E+00-6.12420E-01-6.69004E-02 2.41854E-01-2.51688E-01-4.98400E-01
 -1      5176-1.40924E+01-2.01767E+00-3.39005E-01 6.49255E-01-3.60008E-01-6.17818E-01
 -1      5177-4.86341E+00-5.02710E-01-3.82747E-01 3.14635E-01-2.20220E-01-3.07351E-01
 -1      5178-4.08475E+00 1.60958E-01 2.07779E-02 5.28384E-02-1.15520E-01-4.71864E-01
 -1      5179-1.00433E+01-1.34582E+00-2.58640E-01 3.57901E-01-2.14086E-01-6.40066E-01
 -1      5180-1.34274E+01-1.40096E+00 3.52894E-02 3.02278E-01-2.43042E-01-7.17720E-01
 -1      5181-2.39536E+01-8.36696E-02 1.97430E-03-1.04709E-01 1.20665E-01-1.37959E-01
 -1      5182-1.97876E+01-6.94558E-02-6.69673E-03-1.30994E-01 1.39410E-01-2.17829E-01
 -1      5183-2.38708E+01-1.05785E-01-6.98377E-03-8.92153E-02 1.15824E-01-2.19188E-01
 -1      5184-1.05755E+01-1.24835E-01 8.17373E-02 2.82116E-02 2.23401E-01-3.83356E-01
 -1      5185-5.19409E+00 5.78706E-01 1.56914E-02 2.78350E-01 1.58779E-01-1.51715E-01
 -1      5186-5.25714E+00 4.77445E-01 6.28993E-02 1.58956E-01 8.73219E-02-2.89729E-01
 -1      5187-1.04584E+01-9.76120E-02 6.48628E-02-3.15835E-04 1.19191E-01-4.01833E-01
 -1      5188-5.11128E+00 6.44812E-01 1.41302E-02 2.11673E-01 7.75700E-02-1.81088E-01
 -1      5189-1.03428E+01 1.02128E-01 6.03770E-02 8.91745E-02 2.18765E-01-2.69090E-01
 -1      5190-2.89384E+01-4.51488E-01 1.13258E+00 4.50101E-01-7.12050E-01-5.69084E+00
 -1      5191-5.16058E+00 2.00871E+00 1.61851E-01 1.58482E-02 8.46554E-03 1.01995E+00
 -1      5192-5.23393E+00 1.93896E+00 1.21863E-01-1.01393E-01 1.16917E-02 1.02458E+00
 -1      5193-1.49192E+01 9.57614E-01 1.04371E+00-4.79032E-02 1.07897E-01 7.94907E-01
 -1      5194-3.01816E+01-1.09064E+00 1.20626E+00 1.44521E-02 1.22403E-01 4.58398E+00
 -1      5195-2.44253E+01 1.61533E+00 2.95749E-01 2.52039E-02 1.07496E-01 3.50098E+00
 -1      5196-3.01762E+01-9.04798E-01-1.15190E+00 9.79672E-02 2.65962E-01 5.72043E+00
 -1      5197-2.74865E+01-2.05814E+00 2.41404E-02-2.68345E-01 8.15105E-02-1.41358E-01
 -1      5198-1.90699E+01-1.22523E+00 1.35067E-01-1.63575E-01 1.96950E-01-3.36475E-01
 -1      5199-2.54230E+01-1.86342E+00 9.11470E-02-3.81490E-01 1.58313E-01-1.60991E-01
 -1      5200-2.83926E+01-2.71572E+00 1.06002E-01-4.83955E-01 1.20727E-01-1.31101E-01
 -1      5201-2.21130E+01-2.04350E+00 1.39964E-01-2.59075E-01 1.59931E-01-3.36859E-01
 -1      5202-2.53091E+01-5.70513E-01 3.50010E-02 1.67151E-01 7.69437E-02-3.61996E-02
 -1      5203-2.53873E+01-6.86050E-01 2.11611E-02 1.02037E-01 7.03932E-02-4.01634E-02
 -1      5204-2.81665E+01-8.89046E-01 3.08565E-02 7.07857E-02 1.59580E-02-3.62335E-02
 -1      5205-1.99172E+01-1.32112E-01 7.55878E-02 8.66539E-02 7.58666E-02-7.30596E-02
 -1      5206-2.80994E+01-7.92689E-01 3.44247E-02 1.24793E-01 2.87205E-02-4.21290E-02
 -1      5207-6.57542E+00 5.75527E-01 1.14511E-01 9.09850E-02 1.05430E-01 1.03561E-01
 -1      5208-1.57473E+01 1.78176E-01 1.49727E-01 1.39729E-01 1.64774E-01 7.18361E-02
 -1      5209-8.79633E+00 3.19660E-01 6.14571E-02 1.70257E-01 1.23154E-01 2.90913E-02
 -1      5210-5.16850E+00 3.94971E-01 8.97622E-02 8.19318E-02 9.54035E-02 7.22521E-02
 -1      5211-1.43512E+01 1.05596E-01 1.95758E-01 1.69279E-01 1.92636E-01 5.27437E-02
 -1      5212-1.21073E+01 3.29292E-01 2.51186E-01 5.11243E-02 1.83945E-01 1.34332E-01
 -1      5213-5.26820E+00 6.50856E-01-6.96154E-04-3.71342E-01 1.18620E-01 4.17642E-02
 -1      5214-5.28209E+00 7.26976E-01-3.14873E-03-2.95777E-01 9.73392E-02 3.99951E-02
 -1      5215-1.37169E+01 5.25927E-02 1.67200E-02-1.80703E-01 1.97093E-01 1.14977E-01
 -1      5216-1.61422E+01-1.69258E+00 1.95085E-02-4.37479E-01 3.18062E-01-5.89188E-01
 -1      5217-2.36791E+01-8.02486E-02 1.92410E-02 4.73044E-03 1.20678E-01-3.68495E-01
 -1      5218-1.96549E+01-5.66430E-02 4.85224E-02-3.61348E-02 1.51869E-01-3.73182E-01
 -1      5219-2.33718E+01-1.94923E-01-7.14728E-03-8.44888E-02 2.09519E-01-1.11602E-01
 -1      5220-1.95022E+01 3.05211E+00-1.95472E+00-3.63308E-02-6.01866E-02 2.59317E+00
 -1      5221-4.74483E+01-6.64819E+00-2.16828E+00-1.25714E-02 1.49662E-01 2.12711E-01
 -1      5222-8.33755E+00-2.23892E-01 6.72767E-02 6.29137E-02 1.30306E-01 4.73266E-01
 -1      5223-1.37698E+01 5.30969E-02 3.65021E-02-2.54246E-01 1.99436E-01-6.88083E-02
 -1      5224-5.30931E+00 3.47492E-01-4.92581E-03-2.99092E-01 1.05579E-01-1.96504E-02
 -1      5225-1.06398E+01 1.88833E-01 7.78174E-03-2.90497E-01 2.06215E-01-2.16023E-02
 -1      5226-1.97400E+01 5.70303E-01 2.15674E+00-2.18834E-01-9.33949E-02-6.97672E-01
 -1      5227-9.92691E+00 1.68758E+00-5.06369E-01-1.15512E-01-2.66120E-01-3.08995E+00
 -1      5228-1.64348E+01 1.27756E+00 9.54161E-01-5.59536E-01-3.86940E-01-2.49857E+00
 -1      5229-1.88481E+01 5.63041E-01 1.70822E+00-3.08748E-01-2.51623E-01-1.25305E+00
 -1      5230-8.30244E+00 1.83717E+00-9.22836E-01-4.70181E-01-4.88378E-01-3.12177E+00
 -1      5231-1.27444E+01 9.53139E-01 3.63592E-01-2.38099E-01-1.92967E-01-2.15702E+00
 -1      5232-1.39140E+01 4.56956E-02 6.91662E-03-1.78642E-01-1.89159E-01-1.06365E-01
 -1      5233-5.46466E+00 6.75607E-01-2.50277E-03-3.28905E-01-1.13016E-01-5.81887E-02
 -1      5234-1.06651E+01 2.22299E-01 2.88119E-02-1.69122E-01-1.78511E-01-1.82765E-01
 -1      5235-2.99893E+01-9.35099E-01-1.56923E+00-2.52605E-02-3.09204E-01 5.56471E+00
 -1      5236-2.76446E+01-3.35161E-01 1.45652E-01 3.40752E-01 1.91054E-02 8.76380E-01
 -1      5237-2.69576E+01-3.59732E-01-3.23690E-03 3.11474E-01-9.91578E-02-2.45878E-02
 -1      5238-1.84656E+01 3.33695E-02 8.87881E-02 1.88271E-01-1.59172E-01-6.74980E-03
 -1      5239-2.51540E+01-3.04596E-01 8.99107E-02 2.86864E-01-1.04255E-01 2.81845E-02
 -1      5240-2.84488E+01-3.91456E-01 6.55183E-02 3.86427E-01-7.75462E-02 5.98577E-02
 -1      5241-1.99901E+01-2.29000E-03 2.58426E-01 2.19513E-01-1.57547E-01 1.29622E-01
 -1      5242-2.17355E+01-7.17802E-02 1.07187E-01 2.56038E-01-1.59236E-01 5.82958E-02
 -1      5243-2.36328E+01-1.82103E-01 2.20637E-01-9.30219E-02 1.81933E-01 1.00442E+00
 -1      5244-3.22447E+01-7.20345E-01-2.11847E+00-2.12484E-01-1.11491E+00-1.14124E+00
 -1      5245-2.00173E+01 1.18903E+00-1.00528E+00 3.86925E-01-6.37028E-01-3.47455E+00
 -1      5246-1.46721E+01 1.56537E-01 6.29601E-02 2.13489E-01 1.69720E-01 1.47008E-02
 -1      5247-5.56032E+00 5.04194E-01 2.21176E-02 1.73345E-01 9.75503E-02 9.29550E-03
 -1      5248-1.24940E+01 3.43390E-01 1.04930E-01 1.43613E-01 1.59792E-01 5.65248E-02
 -1      5249-2.83361E+01-3.46817E+00 7.32208E-02-1.37308E-01-2.19513E-02 1.31796E-01
 -1      5250-2.55543E+01-3.17310E+00 5.31190E-02-3.40576E-01-1.01581E-01 2.39020E-01
 -1      5251-2.02531E+01-1.87629E+00 1.33993E-01-3.67519E-01-2.44818E-01 3.84826E-01
 -1      5252-2.83765E+01-3.03434E+00 5.47255E-02-4.68002E-01-1.09857E-01 6.63176E-02
 -1      5253-2.30873E+01-2.26068E+00 1.46060E-01-2.68757E-01-1.53829E-01 2.97276E-01
 -1      5254-6.09005E+00 2.50983E-01 1.39575E-02 4.33915E-01-1.67902E-01-6.34875E-02
 -1      5255-5.06689E+00 3.39558E-01 3.91356E-02 4.73821E-01-1.69409E-01 4.24901E-02
 -1      5256-2.00540E+01 1.95686E-01 6.00445E-01 5.11435E-02-1.07450E-01 2.04386E-01
 -1      5257-2.78288E+01-1.76755E+00 6.44373E-02 9.29431E-01-2.17080E-01 4.76163E-02
 -1      5258-2.82300E+01-3.14741E+00-2.10456E-02 1.50467E+00-2.38554E-01-6.63278E-02
 -1      5259-2.33486E+01-6.27385E+00-4.00075E+00-2.52590E+00 3.27105E-01-1.15090E+00
 -1      5260-2.36789E+01-5.80704E+00-4.71433E+00-3.39914E+00 2.11687E-01-7.31525E-01
 -1      5261-2.52253E+01-3.15008E-01 3.43859E-02-3.14422E-01 1.33278E-01-2.33335E-02
 -1      5262-2.71539E+01-3.09974E-01 1.21735E-01-3.46460E-01 8.91625E-02 6.88090E-02
 -1      5263-5.40289E+00 8.54140E-01 1.06006E-03-1.96928E-01 4.98075E-02 5.58053E-02
 -1      5264-5.44394E+00 8.74335E-01-9.99418E-03-1.62188E-01 4.20033E-02 7.73956E-02
 -1      5265-1.38157E+01 1.09922E-01 6.05757E-03-9.31596E-02 1.29768E-01 1.48010E-01
 -1      5266-2.05240E+01-9.41742E-01 3.41347E-02 1.76400E-02-5.62590E-03-2.36656E-01
 -1      5267-2.89582E+01-1.97870E+00 1.52523E-02 2.28858E-02-1.72470E-02-1.33581E-01
 -1      5268-2.40192E+01-1.10569E+00 1.95802E-02 1.35964E-02-3.40876E-02-1.59836E-01
 -1      5269-6.92548E+00 1.97988E-01 1.32480E-02-3.91588E-01 2.24583E-01-8.79699E-02
 -1      5270-7.06551E+00 3.05884E-01 2.50288E-02-3.28813E-01 2.25994E-01-3.41931E-03
 -1      5271-5.67353E+00 3.67048E-01 2.20707E-02-4.38350E-01 1.60697E-01 6.84699E-02
 -1      5272-5.74655E+00 5.10459E-01 2.29060E-02-3.74055E-01 1.69735E-01 1.15330E-01
 -1      5273-1.27932E+01-1.47406E-02 6.92048E-02-1.16619E-01 3.17001E-01 3.38118E-02
 -1      5274-1.83928E+01 1.36414E-01 3.75641E-01 9.28232E-02 1.51287E-01-1.06917E-01
 -1      5275-1.84065E+01 5.96224E-03 7.56146E-02 1.65728E-01 1.56669E-01 3.07268E-02
 -1      5276-2.00341E+01-4.37573E-02 1.27004E-01-1.69412E-01 1.19266E-01 3.38210E-02
 -1      5277-2.84675E+01-7.35908E-01-3.41358E-02-2.60750E-01 7.41796E-02 2.24679E-02
 -1      5278-2.48514E+01-3.96957E-01 1.23687E-01-1.82726E-01 5.89902E-02 9.20494E-02
 -1      5279-2.00623E+01 7.37180E-02 4.57820E-01-1.48316E-01 1.24725E-01 2.47635E-01
 -1      5280-2.34022E+01-1.64655E-01 2.58757E-01-2.55995E-01 1.13591E-01 1.79702E-01
 -1      5281-6.29907E+00 3.59410E-01 5.20945E-02 1.92210E-01-1.02729E-01-4.17735E-02
 -1      5282-6.10932E+00 4.57146E-01-8.25236E-04 2.51898E-01-9.82642E-02 3.22379E-03
 -1      5283-4.89246E+00 3.65463E-01-4.47309E-03 2.74306E-01-9.40097E-02-2.64448E-02
 -1      5284-1.12516E+01 1.82224E-01 1.16850E-02 2.54690E-01-1.87425E-01-4.44629E-02
 -1      5285-1.15328E+01 8.19764E-02 5.57313E-02 2.01460E-01-1.69834E-01-6.67221E-02
 -1      5286-1.27252E+01-5.28726E-01 9.65078E-02-1.76686E-01-2.92604E-01 4.41839E-01
 -1      5287-1.41691E+01-3.75490E-01 6.70303E-02 1.72346E-04-2.32183E-01 3.22446E-01
 -1      5288-1.55489E+01-6.79315E-01 1.34636E-01-1.73274E-01-3.23108E-01 3.01021E-01
 -1      5289-1.22891E+01-3.38543E-01 1.27874E-01-7.31239E-02-3.56511E-01 2.44131E-01
 -1      5290-1.37216E+01-1.63846E-01 4.79723E-02 9.44936E-02-2.87166E-01 1.73524E-01
 -1      5291-1.08583E+01-4.17504E-02 7.33081E-02 8.15065E-02-2.61914E-01 2.66478E-01
 -1      5292-1.38437E+01 8.44732E-02 7.03488E-03-2.77476E-02 2.68396E-02 1.61289E-01
 -1      5293-4.94334E+00 1.58536E+00 1.31501E-01-1.34059E-01 3.98234E-02 3.23638E-01
 -1      5294-2.77364E+01-5.76627E-01 4.31906E-02 3.07961E-01-1.18973E-02 2.68731E-01
 -1      5295-1.90906E+01 4.72226E-01 1.01505E+00-2.70929E-01 9.63881E-02 3.64258E+00
 -1      5296-1.89787E+01 3.66431E-01 2.84915E-01 2.50026E-02 4.78066E-02 3.72251E+00
 -1      5297-2.65306E+01-2.07742E+00-3.13501E+00 2.17344E-01-1.01330E-01 2.08036E+00
 -1      5298-2.84843E+01-3.83932E+00 6.63510E-02 9.09116E-01 1.49853E-01 3.68272E-02
 -1      5299-1.60590E+01-5.26177E-01 5.95876E-02 4.04658E-02 1.44183E-01 2.79340E-01
 -1      5300-1.56187E+01-6.69833E-01 9.79087E-02 9.81374E-02 2.25425E-01 3.52908E-01
 -1      5301-2.47493E+01 2.81620E-02 7.43253E-01-4.45487E-01-4.29925E-04 5.59551E-01
 -1      5302-2.20958E+01 3.64233E-01 2.10245E+00 4.32775E-01 9.10056E-02 6.43634E-01
 -1      5303-2.76313E+01 4.06570E-02 1.06585E+00-3.29252E-01-6.94583E-02 1.44086E+00
 -1      5304-2.79421E+01-4.33571E-01 1.12410E-01-4.52990E-01-2.84421E-02 3.99225E-01
 -1      5305-2.41906E+01 6.67616E-02 1.31803E+00-2.95287E-02-7.70889E-02 1.29991E+00
 -1      5306-2.05738E+01 1.60751E-01 9.68238E-01 3.20762E-02 1.81766E-01 3.07883E-01
 -1      5307-5.34938E+00 1.06733E-01 3.03130E-02 4.34217E-02 2.35923E-01 4.00715E-01
 -1      5308-3.20437E+01 2.03904E-01-1.00387E-02-6.81414E-02-6.79046E-01-6.77429E-02
 -1      5309-1.55829E+01 1.06952E+00 1.06889E-01-1.59244E-02-7.95265E-01 1.81522E-02
 -1      5310-4.63783E+00-4.27204E-01-3.39194E-01 2.56774E-01-1.59679E-01-3.60310E-01
 -1      5311-3.92566E+00 2.58671E-01 4.45090E-02 2.98257E-02-7.74052E-02-4.71552E-01
 -1      5312-8.48935E+00 6.61482E-01 3.62083E-02 1.12663E-01 8.26654E-02-1.19315E-02
 -1      5313-5.72736E+00 1.03168E+00 6.02957E-02 4.78670E-02 5.37695E-02 3.78699E-02
 -1      5314-1.97430E+01 6.06341E-02 2.92265E-01-8.64604E-02 9.36668E-02 9.76289E-02
 -1      5315-2.32489E+01-2.84812E-01 9.80509E-02-1.49609E-01 1.03573E-01 7.84494E-02
 -1      5316-7.31308E+00 3.61522E-01 4.33249E-02-3.76764E-02 3.87271E-03 2.96433E-01
 -1      5317-5.12952E+00 6.21725E-01 4.06419E-02-8.92387E-02 9.84455E-02 2.36229E-01
 -1      5318-1.85126E+01 6.58855E-02 1.64345E-01 6.27416E-02-6.60698E-02 5.91304E-02
 -1      5319-2.67283E+01-6.03956E-01 1.30040E-01 9.33179E-02-1.87979E-02 8.69255E-02
 -1      5320-2.81124E+01-7.36678E-01 7.06086E-02 1.76848E-01-4.20607E-02 5.28092E-02
 -1      5321-1.98158E+01-5.59691E-02 1.46474E-01 1.49630E-01-1.05237E-01 6.72047E-02
 -1      5322-5.25645E+00 5.59432E-01 6.75713E-02 1.07441E-01 7.38909E-02-2.94009E-01
 -1      5323-5.10877E+00 7.03738E-01 3.04540E-04 1.41547E-01 6.43121E-02-1.80504E-01
 -1      5324-1.39739E+01 2.17893E-01 1.10993E-02 1.17897E-01 9.21035E-02-7.72506E-02
 -1      5325-5.44965E+00 8.92956E-01 6.60653E-03 1.52327E-01 4.89970E-02-6.80443E-02
 -1      5326-5.07837E+00-6.41769E-01-4.51189E-01 2.06318E-01 1.39419E-01 3.72227E-01
 -1      5327-2.54278E+01-1.26340E+00 2.96892E-02-1.54464E-01-1.68954E-01 1.16524E-01
 -1      5328-2.54176E+01-1.38942E+00 4.48817E-02-3.38844E-01-1.85445E-01 1.02847E-01
 -1      5329-2.54292E+01-1.00688E+00 1.92427E-02-1.93106E-01-1.78016E-01 8.36782E-02
 -1      5330-7.96584E+00 1.65484E+00 5.61546E-01-2.05273E-01-1.38411E-01-6.73969E-01
 -1      5331-8.39572E+00 1.15490E+00 4.57038E-01-1.46581E-01-1.51049E-01-4.91646E-01
 -1      5332-5.20132E+00 1.42417E+00 1.20668E-01-6.93505E-02 4.75302E-02 2.44097E-01
 -1      5333-1.40001E+01 7.77855E-01 6.39992E-01-4.80745E-02 7.34652E-02 3.32358E-01
 -1      5334-5.60657E+00 2.00203E+00 1.93177E-01-4.95715E-02-4.35843E-02-1.11498E+00
 -1      5335-5.87909E+00 1.81741E+00 4.06532E-01-5.09627E-02-3.42955E-02-7.21827E-01
 -1      5336-1.53471E+01 8.64471E-01 1.01610E+00-7.76616E-04-3.70944E-02-7.10743E-01
 -1      5337-2.95459E+01-1.56898E+00 2.09908E-01-1.16708E+00-3.27291E-01-2.73885E+00
 -1      5338-2.99870E+01-1.95680E+00-5.01342E-02-6.48069E-01-2.94340E-01-5.06566E+00
 -1      5339-3.40150E+01-3.49987E+00-3.63221E+00-6.69199E-01-5.55809E-02-3.68536E+00
 -1      5340-1.53873E+01-7.05559E-02 8.45493E-02-1.31356E-01 3.02959E-01-1.15043E-01
 -1      5341-1.49114E+01-4.09021E+00-2.45783E+00-6.09847E-01 2.89895E-01-3.35179E-01
 -1      5342-1.71544E+01-5.15679E+00-3.13500E+00-4.05591E-01 6.62627E-02-4.25644E-01
 -1      5343-2.78540E+01-1.52697E+00-1.37748E-02 9.52812E-01-2.31469E-01 9.29099E-02
 -1      5344-8.50273E+00 7.88458E-01 3.28711E-02-6.70347E-02 3.91479E-02 2.52103E-02
 -1      5345-8.52529E+00 8.29712E-01 2.44909E-02-2.35801E-02 1.21871E-02 3.37045E-02
 -1      5346-5.21841E+00 1.10860E+00 4.56521E-02-6.21881E-02 3.54041E-02-3.44680E-02
 -1      5347-5.25215E+00 1.16763E+00 4.26015E-02-2.92954E-02 2.37775E-02-3.22327E-02
 -1      5348-1.36275E+01 4.23669E-01 8.94707E-02-4.08732E-02 5.58902E-02-2.17992E-02
 -1      5349-1.99453E+01-5.54021E-01 2.81133E-02-4.09654E-02-2.79442E-01 1.01796E-01
 -1      5350-2.08049E+01-7.58570E-01 3.64341E-02-3.31037E-02-2.00196E-01 1.67243E-01
 -1      5351-2.47953E+01 1.22793E-01-3.35600E-01-2.97799E-01-4.68731E-01 3.60110E+00
 -1      5352-1.97183E+01 5.65462E-01 2.09287E+00-1.04731E-01-2.36663E-02-6.75157E-01
 -1      5353-1.84797E+01 6.74072E-01 1.19614E+00-1.55160E-03-3.81758E-02-4.04337E-02
 -1      5354-2.86659E+01-8.63798E-01 4.61208E-02-6.50473E-01 1.88956E-01 2.25572E-01
 -1      5355-2.35475E+01-2.32112E-01 6.96008E-02-1.87303E-01 2.79634E-01 3.87989E-01
 -1      5356-2.01869E+01-3.40646E-01 5.42136E-02-2.13023E-01 3.49389E-01 2.75123E-01
 -1      5357-2.90374E+01-1.86103E+00-3.58564E-01-2.47134E+00 1.63239E-01 4.30351E-01
 -1      5358-2.56968E+01-1.64186E+00-1.58768E-01-1.74929E+00 3.06043E-01 3.51657E-01
 -1      5359-2.84072E+01-7.15623E-01 4.20119E-02-1.17450E+00 1.73704E-01 5.34501E-01
 -1      5360-2.53230E+01-3.67803E+00 4.80235E-02-1.09712E-01 4.21343E-02-2.66987E-01
 -1      5361-1.85840E+01-3.28130E+00-4.10275E-01-9.58142E-02 6.13377E-02-8.59740E-01
 -1      5362-2.71430E+01-5.01249E+00-4.14664E-01-2.37421E-01 4.95692E-02-5.32239E-01
 -1      5363-2.80856E+01-4.30194E+00 6.21292E-02 1.12494E-01-4.03295E-02-1.39783E-01
 -1      5364-2.16405E+01-3.88417E+00-4.13650E-01 1.37855E-01-6.73962E-02-8.39471E-01
 -1      5365-1.97904E+01-2.61001E+00 9.60206E-02 1.53355E-01-4.99639E-02-6.15899E-01
 -1      5366-2.90880E+01-1.58808E+00 7.95055E-02 1.02540E+00 2.01042E-01-1.03360E-01
 -1      5367-2.11350E+01-1.32875E+00 1.50388E-01 6.84709E-01 4.16315E-01 4.79081E-02
 -1      5368-2.35160E+01-1.12862E+00 1.41979E-01 8.19311E-01 4.23392E-01-3.32459E-01
 -1      5369-2.50178E+01-1.19132E-01 4.50439E-01-1.08693E-02 5.15033E-03 4.68211E-01
 -1      5370-2.74336E+01-2.21913E-01 4.16585E-01 5.94211E-02-5.34752E-02 6.61434E-01
 -1      5371-3.20652E+01-7.60438E-01-1.86592E+00-2.36441E-01-9.03754E-01 3.44994E-01
 -1      5372-1.47795E+01-1.37719E+00-7.64982E-01-1.29104E+00-6.08567E-01-2.22393E-01
 -1      5373-1.32787E+01-3.49565E+00-3.25039E+00-1.84180E+00-3.73205E-01-9.22741E-01
 -1      5374-1.68434E+01-3.72202E+00-2.87570E+00-1.74648E+00-4.29175E-01-1.76504E-01
 -1      5375-1.46662E+01-1.81214E+00-4.70775E-01-9.65969E-01-4.67299E-01 3.23419E-01
 -1      5376-1.32525E+01-3.76527E+00-2.93476E+00-1.36469E+00-4.07053E-01-1.43325E-01
 -1      5377-1.12945E+01-1.52809E+00-7.92913E-01-1.03328E+00-5.00198E-01-1.29381E-01
 -1      5378-1.34596E+01 5.54745E-01 1.66405E-01-1.94150E-02 1.71484E-02-5.30560E-02
 -1      5379-5.10448E+00 1.26160E+00 5.56440E-02-8.84678E-03-3.97682E-03-5.29888E-02
 -1      5380-1.01687E+01 8.99969E-01 1.89511E-01-1.69837E-02 3.55981E-02-1.66072E-01
 -1      5381-5.42951E+00 2.04644E+00 3.01105E-01-1.62770E-01-7.89091E-02-1.08514E+00
 -1      5382-2.37646E+01-3.73847E+00-1.66899E-01 8.14878E-01 2.85454E-01 4.85944E-01
 -1      5383 1.51068E+00 3.08129E+00-4.20328E-01-2.08994E-01-6.09970E-02 1.14055E-01
 -1      5384-5.49641E+00 2.26025E+00-2.32693E-01-9.24930E-02-8.28989E-02-1.13472E+00
 -1      5385-4.01054E+00 2.14498E+00 8.54417E-02-4.03909E-01-1.92709E-01-1.10156E+00
 -1      5386-3.75061E+00 2.59268E+00-3.98781E-01-2.79387E-01-3.22426E-01-9.55335E-01
 -1      5387-2.53998E+01-5.73627E-01 1.91063E-02 1.45182E-01 8.40080E-02-3.23643E-02
 -1      5388-2.56680E+01-1.69605E+00-1.44332E-01 1.73489E+00-3.22263E-01 3.91773E-01
 -1      5389-2.86632E+01-1.48564E+00 8.71219E-02 1.39714E+00-2.04236E-01 3.40095E-01
 -1      5390-2.83775E+01-6.17617E-01 1.03174E-01 1.18783E+00-1.91735E-01 5.21968E-01
 -1      5391-1.39249E+01-1.46983E+00 1.22930E-01 1.54542E-01 7.35549E-02 7.46546E-01
 -1      5392-1.58287E+01-1.22161E+00 1.38226E-01 1.04571E-01 8.24927E-02 5.26633E-01
 -1      5393-1.36343E+01-9.45357E-01 1.54141E-01 1.75517E-01 2.20251E-01 5.66605E-01
 -1      5394-1.75682E+01 3.60873E-01 7.12285E-01 2.07520E-02 1.15168E-01-7.14431E-02
 -1      5395-1.64100E+01-1.70660E-02 1.70219E-02-1.38615E-01 2.04874E-01-2.42269E-01
 -1      5396-2.00611E+01-1.36718E-01-8.89580E-03-1.76427E-01 2.46101E-01-5.40924E-02
 -1      5397-4.86556E+00 1.58911E+00 8.41972E-02-4.00001E-02-1.87892E-02-2.00585E-01
 -1      5398-4.94850E+00 1.51157E+00 7.63895E-02 7.46211E-02 2.40888E-02-2.35617E-01
 -1      5399-1.37895E+01 7.64108E-01 5.64833E-01-1.28213E-03 2.20792E-03-3.22060E-01
 -1      5400-1.94559E+01-4.81734E+00-3.50502E+00 2.54938E+00-2.26120E-01 1.87382E-01
 -1      5401-2.40325E+01-3.62852E+00-8.49497E-01 2.13777E+00-5.00174E-01-4.82908E-01
 -1      5402-1.87674E+01-4.99113E+00-2.66326E+00 1.79104E+00-3.41718E-01-1.56190E-01
 -1      5403-1.31530E+01-4.24481E+00-3.57278E+00 1.59413E+00-2.21760E-01 6.05810E-01
 -1      5404-1.74579E+01-3.44139E+00-1.56761E+00 1.44840E+00-4.28453E-01-4.32267E-01
 -1      5405-1.80787E+01-3.01848E+00-1.93016E+00 2.04187E+00-4.60978E-01 9.12601E-02
 -1      5406-1.45157E+01-3.03546E-01 6.77386E-02 1.42024E-02 3.51929E-01 1.75566E-01
 -1      5407-8.70852E+00 1.24046E-01 7.40699E-02-1.82637E-01 2.68502E-01 1.73409E-01
 -1      5408-5.10133E+00 5.19181E-01 4.75768E-02-2.69458E-01 1.28423E-01 2.10805E-01
 -1      5409-1.39386E+01-5.55642E-01 9.24554E-02 1.35579E-01 3.19521E-01 3.35440E-01
 -1      5410-2.84537E+01-8.07168E-01 9.48662E-03 1.60749E-01-7.22046E-02 4.95101E-03
 -1      5411-2.83948E+01-6.83536E-01 2.02174E-02 2.45593E-01-7.46038E-02 6.85468E-03
 -1      5412-2.00362E+01-1.40735E-01 2.96455E-02 1.78977E-01-1.32078E-01 3.50552E-02
 -1      5413-5.59374E+00 4.65166E-01 6.22247E-02 2.23568E-01-1.33083E-01 2.10012E-01
 -1      5414-8.49485E+00 2.43536E-01 2.49732E-02 2.27519E-01-1.88031E-01 1.64859E-01
 -1      5415-5.22737E+00 5.15460E-01 9.87748E-03 3.86080E-01-1.76234E-01 8.58500E-02
 -1      5416-2.71118E+01-6.87429E+00-2.36185E+00-3.93503E+00 3.47807E-01-8.68314E-01
 -1      5417-2.86949E+01-4.73082E+00-1.48086E-02-2.68486E+00 2.01938E-01-5.06990E-01
 -1      5418-2.89876E+01-4.14856E+00-7.15472E-01-3.43945E+00 3.37256E-01-1.95643E-01
 -1      5419-4.83433E+00 8.80159E-01 1.08142E-02 9.83635E-02-4.17075E-02 1.20207E-01
 -1      5420-4.81635E+00 8.63692E-01 1.62930E-02 4.50357E-02-2.43162E-02 1.46244E-01
 -1      5421-1.32410E+01-3.68326E-02 7.03134E-03 3.66040E-02-7.21602E-02 2.43007E-01
 -1      5422-2.85837E+01-2.76308E-01 3.09599E-01-3.62689E-03-1.88073E-02 7.89215E-01
 -1      5423-2.89380E+01-5.35326E-01 3.30020E-01 4.49013E-02-8.08618E-03 5.21382E-01
 -1      5424-2.18946E+01 2.60221E-01 9.02932E-01-8.49898E-02 2.00499E-02 7.07349E-01
 -1      5425-4.78572E+00 3.96491E-01 1.14777E-02-7.26675E-02 1.39430E-01 3.51808E-01
 -1      5426-1.99688E+01-9.39080E-02 1.11500E-01 2.03833E-01-1.56964E-01 1.44917E-02
 -1      5427-2.84293E+01-5.46777E-01-9.20966E-03 3.10526E-01-8.09763E-02-5.24599E-04
 -1      5428-2.17134E+01-1.76782E-01 2.44866E-02 2.42761E-01-1.72005E-01-5.07903E-03
 -1      5429-9.67867E+00-2.14968E+00-2.17213E+00-1.43777E+00-3.10922E-01-1.72127E+00
 -1      5430-9.41697E+00-2.41683E+00-1.66033E+00-1.07517E+00-3.52274E-01-8.59874E-01
 -1      5431-1.48699E+01-8.19908E-03 1.74740E-01 5.45237E-04-2.90595E-01-8.48779E-01
 -1      5432-1.92744E+01-4.84814E-01 8.56538E-02-4.39103E-01-4.70798E-01-4.27559E-01
 -1      5433-5.10344E+00 1.37075E+00 8.71502E-02-9.59966E-03 1.70370E-03-1.06715E-01
 -1      5434-5.21475E+00 1.26702E+00 7.06478E-02-1.17907E-02 3.02863E-02-7.12740E-02
 -1      5435-2.75349E+01-1.56088E+00-4.30732E-03 2.28392E-02-4.10265E-02-1.18325E-01
 -1      5436-2.25902E+01-7.54634E-01 4.15780E-03-7.96432E-03-6.18212E-02-1.46622E-01
 -1      5437-8.36672E+00-3.85634E-01 3.52736E-02 1.53776E-01-2.36613E-01-4.81396E-01
 -1      5438-4.41246E+00 3.12936E-01 5.07435E-02-3.29154E-02-7.61449E-02-4.42520E-01
 -1      5439-2.82600E+01-1.40118E-01-1.50932E-02 2.00658E-01 9.00398E-02 4.77506E-02
 -1      5440-2.37999E+01-4.29304E-02-2.38760E-03 1.21685E-01 1.00365E-01 7.00283E-02
 -1      5441-2.03962E+01-8.12400E-02 6.65920E-03 2.26913E-01 1.85226E-01 4.16193E-02
 -1      5442-1.64341E+01 1.47791E+00 1.04565E+00 1.14667E+00 1.07503E+00-1.73546E+00
 -1      5443-2.15734E+01 2.12945E-01 2.28581E+00 7.99220E-01-1.60474E-02 4.84081E-01
 -1      5444-1.36202E+01 1.06987E+00 3.20234E-01 8.10829E-01 9.91646E-01-2.92871E+00
 -1      5445-1.85263E+01 1.17153E+00 1.06747E+00 9.92022E-01 9.23349E-01-2.44152E+00
 -1      5446-2.62591E+01 3.33895E-01 3.34172E+00 6.78388E-01-2.08234E-01 2.52457E+00
 -1      5447-1.67433E+01 5.70228E-01 6.77676E-01-8.64334E-03-4.27933E-02-3.15489E-01
 -1      5448-1.89397E+01 2.25034E-01 5.35894E-01 6.81245E-03-7.57624E-02 6.24145E-02
 -1      5449-1.48863E+01 4.68921E-01 2.45849E-01 1.79611E-02-4.43460E-02-2.38700E-02
 -1      5450-1.47872E+01-2.18021E+00-1.13022E+00 1.25827E+00-5.48144E-01-1.72035E-02
 -1      5451-2.93244E+01-5.37971E-02 2.11192E-02 1.32558E-01-1.94064E-02-2.85875E-02
 -1      5452-2.94794E+01-5.35116E-02 4.37199E-02 1.45687E-01-1.57153E-02 8.61929E-02
 -1      5453-2.27241E+01-4.45786E-02 5.49126E-02 1.54822E-01-1.06031E-01 8.99767E-02
 -1      5454-2.69797E+01-1.19665E-01 9.29147E-03 2.47759E-01-9.86099E-02-3.51942E-02
 -1      5455-2.25787E+01-4.58303E-02 1.56242E-02 1.50166E-01-1.13784E-01-4.44068E-02
 -1      5456-2.80866E+01-1.71320E+00 1.74360E-02-1.97706E-01-7.24151E-02 1.35047E-01
 -1      5457-2.80857E+01-1.90238E+00 1.27302E-02-3.73091E-01-9.76325E-02 1.27518E-01
 -1      5458-1.96401E+01-8.69731E-01 6.60993E-02-6.91477E-02-2.11391E-01 2.29629E-01
 -1      5459-2.44689E+01-4.05911E-02 9.39066E-01-3.45172E-01 8.98642E-02 9.97402E-01
 -1      5460-2.75097E+01-1.14368E-01 1.25044E+00-3.98302E-01-5.14213E-02 2.19976E+00
 -1      5461-1.38640E+01 7.68620E-02 3.52570E-03 2.36817E-01 2.03342E-01 3.81952E-02
 -1      5462-5.31274E+00 2.89929E-01-2.04415E-03 3.17733E-01 9.21871E-02 3.28415E-02
 -1      5463-8.29041E+00 2.70355E-01-2.11960E-05 3.06144E-01 1.44137E-01 1.01213E-02
 -1      5464-1.41431E+01 1.16658E-01-9.97598E-03 2.18373E-01 2.10185E-01-2.23364E-04
 -1      5465-5.58861E+00 4.38977E-01 1.69890E-02 2.99014E-01 1.06121E-01-3.04733E-03
 -1      5466-1.11739E+01 1.99435E-01 8.15281E-03 2.42378E-01 1.80658E-01 2.81923E-02
 -1      5467-1.14651E+01 1.08285E+00 5.38579E-01-1.06969E-02-1.92033E-02-6.10028E-01
 -1      5468-4.79113E+00 1.56085E+00 1.05430E-01-5.11662E-02-2.78582E-03-1.93614E-01
 -1      5469-9.83345E+00 9.23761E-01 1.81560E-01 1.16738E-02-3.66849E-02-1.31548E-01
 -1      5470-5.54894E+00 4.32916E-01 5.53004E-02 1.64852E-01-1.22145E-01 2.86082E-01
 -1      5471-6.92824E+00 1.61494E-01 6.95964E-02 5.08435E-03-2.36810E-01 3.21260E-01
 -1      5472-5.17023E+00 5.21645E-01 1.79970E-02 2.96149E-01-1.72915E-01 1.22733E-01
 -1      5473-1.91210E+01-6.07590E-01 7.85558E-03 9.12416E-04-3.51932E-02-2.06681E-01
 -1      5474-1.91372E+01-8.71684E-01 1.33080E-01-2.08626E-01 3.05017E-01-2.40584E-01
 -1      5475-2.76082E+01-1.70627E+00 2.75373E-02-3.48908E-01 1.48247E-01-7.93889E-02
 -1      5476-2.12474E+01-1.12254E+00 6.41877E-02-1.49929E-01 2.07796E-01-2.25664E-01
 -1      5477-2.87219E+01-2.75334E-01 1.44145E+00-3.06822E-01-8.45878E-02 1.63604E+00
 -1      5478-8.09211E+00 2.46327E-01 9.82518E-03 3.50858E-01-1.47891E-01-2.99428E-02
 -1      5479-1.44651E+01-2.12665E-02 1.70626E-02 2.09530E-01-2.72302E-01-1.17898E-01
 -1      5480-6.01974E+00 2.19284E-01 6.81415E-03 3.73377E-01-1.41970E-01-9.06377E-02
 -1      5481-4.87868E+00 2.77169E-01 2.43434E-03 3.75815E-01-9.52463E-02-3.17500E-02
 -1      5482-1.12127E+01 7.39955E-02 1.94850E-02 2.42681E-01-2.09869E-01-1.39297E-01
 -1      5483-1.33040E+01 4.45482E-02 1.86184E-02 2.37535E-01-2.19106E-01-6.46253E-02
 -1      5484-4.80924E+00 5.54624E-02-9.19769E-02 1.17163E-01 1.87705E-01 7.49156E-01
 -1      5485-1.10326E+01-2.06153E-02 4.76001E-02-2.01949E-02 3.68969E-01 8.39511E-01
 -1      5486-6.57649E+00-2.24628E-02 4.44399E-02 1.14025E-01 3.47931E-01 1.46103E-01
 -1      5487-5.95542E+00-3.01902E-01-4.10365E-01-3.38861E-01 3.54110E-01 4.12378E-01
 -1      5488-1.21627E+01-4.32647E-01-2.52648E-01-5.75343E-01 5.87104E-01 4.03880E-01
 -1      5489-1.06820E+01-4.67890E-01-7.60828E-01-5.71542E-01 3.71076E-01 1.25756E+00
 -1      5490-2.92152E+01-1.55253E+00-3.79526E-03-1.55665E-01-7.39887E-02 7.59967E-02
 -1      5491-4.99908E+00-2.51052E-01-1.87405E-01 2.64855E-01 2.59989E-01 2.22103E-01
 -1      5492-2.69822E+01-2.13856E-01 3.21881E-02 3.08226E-01-1.04244E-01-3.39570E-02
 -1      5493-2.85171E+01-2.65295E-01 6.93188E-02 3.84784E-01-7.00816E-02 7.34067E-02
 -1      5494-5.00001E+00 1.59034E+00 1.92582E-01 1.14251E-01 4.92384E-02-4.63594E-01
 -1      5495-4.32426E+00 2.06667E+00 2.43389E-01 2.10933E-01 4.20415E-02-6.77831E-01
 -1      5496-1.40362E+01 8.86046E-01 8.05522E-01 6.81501E-02 7.98445E-02-5.64149E-01
 -1      5497-5.41141E+00 9.50932E-01 4.71944E-03-1.16693E-01 4.72986E-02 4.64126E-02
 -1      5498-1.37947E+01 2.70059E-01 2.48595E-02-7.58486E-02 6.94920E-02 7.76432E-02
 -1      5499-5.43003E+00 1.01392E+00-7.12296E-03-6.11022E-02 3.12287E-02 5.75607E-02
 -1      5500-4.80784E+00 1.29822E-01 4.31133E-02-1.62429E-02 2.64534E-02 5.35016E-01
 -1      5501-2.96365E+01-1.82036E+00 4.94260E-01-5.25850E-01-1.49500E-01-4.59268E+00
 -1      5502-2.99085E+01-1.99409E+00 3.66723E-01-1.81745E-02-1.28247E-02-4.90942E+00
 -1      5503-3.46386E+01-3.86381E+00-4.18543E+00-4.00948E-01-8.93234E-02-3.38948E+00
 -1      5504-6.16463E+00-7.48621E-01-7.41782E-01-6.57933E-01-2.73406E-01-5.65308E-01
 -1      5505-4.22191E+00-1.38910E+00-1.23590E+00-7.44439E-01-1.37680E-01-1.34218E+00
 -1      5506-5.74792E+00-7.65285E-01-3.50757E-01-5.28268E-01-2.81310E-01 4.93108E-02
 -1      5507-1.51114E+01 5.25916E-01 3.25508E-01 3.17291E-02-1.90695E-02-4.41221E-02
 -1      5508-8.50926E+00 3.08753E-01 3.81052E-02 1.62283E-01-1.56286E-01 1.79156E-01
 -1      5509-5.66543E+00 5.24750E-01 5.33237E-02 1.58590E-01-1.10900E-01 2.37137E-01
 -1      5510-2.84826E+01-2.08213E+00 3.55115E-02-5.89151E-01-1.52491E-01 9.73032E-02
 -1      5511-2.00678E+01-1.10196E+00 1.10583E-01-2.49158E-01-2.88825E-01 2.13275E-01
 -1      5512-2.27114E+01-1.50651E+00 7.50259E-02-2.69507E-01-1.88522E-01 2.46202E-01
 -1      5513-2.81413E+01-6.41621E-01 8.56362E-02 2.29762E-01-6.34726E-02 5.35290E-02
 -1      5514-6.39795E+00 6.51896E-01 1.50146E-01-5.72250E-02 1.16129E-01 1.54990E-01
 -1      5515-4.93707E+00 3.92863E-01 9.02560E-02-6.66898E-02 1.10382E-01 1.38043E-01
 -1      5516-4.30834E+00 8.11532E-01 1.54946E-01-2.12654E-01 1.31617E-01 3.80152E-01
 -1      5517-1.02485E+01 4.13342E-01 2.57779E-01-7.94856E-02 2.00037E-01 3.71345E-01
 -1      5518-1.16385E+01 6.10493E-01 3.37556E-01-4.78979E-02 1.93936E-01 3.79438E-01
 -1      5519-2.68933E+01-8.86877E-02 1.31926E+00-1.04062E-01-1.03953E-01-2.06438E+00
 -1      5520-2.30298E+01-6.27941E+00-4.05357E+00 2.55162E+00-2.92469E-01-1.10893E+00
 -1      5521-2.35662E+01-5.76812E+00-4.58752E+00 3.41828E+00-2.05362E-01-7.68066E-01
 -1      5522-1.82764E+01 1.89791E-01 6.57359E-01 2.87414E-01 2.45073E-01-5.01482E-01
 -1      5523-1.05971E+01 3.47489E-01-4.13701E-03-1.94496E-01 1.38073E-01 8.00683E-02
 -1      5524-2.84345E+01-9.89307E-01-4.95184E-03 7.44322E-02-4.34086E-02 3.91801E-02
 -1      5525-2.00021E+01-2.55246E-01 3.58964E-02 9.60615E-02-9.61876E-02 6.68464E-02
 -1      5526-2.83700E+01-9.61418E-01-6.37559E-03 9.61743E-02-3.78239E-02 2.64940E-02
 -1      5527-1.49662E+01-4.12212E+00-2.59658E+00-9.29206E-01 1.41354E-01-2.53306E-01
 -1      5528-1.87975E+01-4.73396E+00-2.50649E+00-1.43456E+00 2.63636E-01-3.39153E-01
 -1      5529-2.54653E+01-1.29401E+00 5.46791E-02 3.51566E-01-1.87457E-01-1.10835E-01
 -1      5530-2.79244E+01-1.64440E+00 6.30222E-02 6.42892E-01-2.16740E-01-3.15820E-02
 -1      5531-2.79649E+01-2.04108E+00 5.96528E-02 5.59162E-01-1.93196E-01-6.60326E-02
 -1      5532-1.95234E+01-9.11213E-01 1.22281E-01 2.59788E-01-3.17995E-01-1.99535E-01
 -1      5533-5.43383E+00 5.34669E-02-3.03482E-02 1.15752E-01-2.27541E-01-3.51120E-01
 -1      5534-5.62977E+00 2.28991E-01 3.48460E-02-1.19138E-02-2.23294E-01-3.56985E-01
 -1      5535-1.45247E+01-1.19376E+00 1.46971E-01 4.73043E-01-4.36543E-01-5.39183E-01
 -1      5536-2.89609E+01-5.83274E+00-5.76236E-01-3.03948E-01-4.35557E-02 5.17853E-01
 -1      5537-2.71155E+01-6.75546E+00-2.21872E+00 3.91336E+00-3.15013E-01-8.38385E-01
 -1      5538-2.85414E+01-4.79753E+00-2.45868E-01 2.67541E+00-2.38885E-01-5.45497E-01
 -1      5539-2.89645E+01-4.15192E+00-7.61046E-01 3.41668E+00-3.24266E-01-1.80666E-01
 -1      5540-1.42621E+01-1.06090E+00 1.68187E-01-1.66536E-01-1.91138E-01 5.53921E-01
 -1      5541-5.48614E+00 5.18928E-01 3.23084E-02 6.61393E-02-1.01354E-01 2.99296E-01
 -1      5542-8.41871E+00-2.25798E-01 7.74183E-02-5.01204E-02-1.22112E-01 4.74361E-01
 -1      5543-1.41169E+01-1.54148E+00 9.38619E-02-1.44953E-01-7.37825E-02 7.43278E-01
 -1      5544-5.19924E+00 2.43097E-01 4.10483E-02 2.19903E-02-2.61141E-02 4.37852E-01
 -1      5545-1.10563E+01-6.36891E-01 9.15392E-02-4.26386E-02-9.33947E-02 5.98268E-01
 -1      5546-1.13371E+01-1.69883E+00-2.51842E-01 1.33618E-01 1.25330E-01 8.23254E-01
 -1      5547-2.82804E+01-7.44586E-01-1.31883E-03-1.35066E-01-9.80496E-02-3.02623E-03
 -1      5548-2.14651E+01-2.22735E-01 1.94389E-02-1.86227E-01-1.52861E-01-2.31422E-02
 -1      5549-2.68708E+01-6.42428E-01 2.81145E-02-1.78274E-01-8.24456E-02-2.56667E-02
 -1      5550-2.83202E+01-8.41838E-01 4.88362E-03-1.15259E-01-5.47301E-02-2.23020E-02
 -1      5551-2.15085E+01-2.59378E-01 5.34296E-02-1.46083E-01-1.08837E-01-4.28637E-02
 -1      5552-2.29359E+01-4.39267E-01 6.60507E-03-1.47041E-01-1.33947E-01-3.68561E-02
 -1      5553-5.75009E+00 1.29923E+00 4.26558E-02-5.56557E-04 2.58042E-02 9.51385E-02
 -1      5554-1.45835E+01 5.43016E-01 3.54824E-01 1.11251E-02 3.74466E-02 1.14458E-01
 -1      5555-5.48692E+00 1.58684E+00 2.01772E-01 2.27857E-03 7.44519E-03 3.44909E-01
 -1      5556-1.43720E+01 8.63926E-01 7.77648E-01 1.37022E-03-4.44791E-03 4.35505E-01
 -1      5557-1.14072E+01 8.97751E-01 2.86858E-01-2.36529E-03 2.02527E-02 3.09282E-01
 -1      5558-3.35569E+01-3.45651E-01-5.82315E-02 8.28719E-02-6.40574E-01-1.89294E-02
 -1      5559-5.53373E+00 9.36034E-01-4.68962E-03 6.17269E-02 3.02586E-02-7.53008E-02
 -1      5560-1.38841E+01 6.31777E-02 9.41606E-03 4.78898E-02 5.21601E-02-1.70034E-01
 -1      5561-5.21996E+00 8.45183E-01 1.34977E-02 6.79977E-02 4.03667E-02-1.45181E-01
 -1      5562-1.05633E+01 2.77419E-01 5.06487E-04 9.20740E-02 8.42966E-02-1.76332E-01
 -1      5563-1.65219E+01 2.49935E+00-1.75256E-01 2.34258E-02-7.65218E-01-3.21469E-02
 -1      5564-2.89786E+01-4.74110E-02-5.64890E-03 4.44336E-02-1.88129E-02-1.18663E-01
 -1      5565-2.91916E+01-5.58330E-02 1.55828E-02 5.67061E-02-1.89106E-02-4.42472E-02
 -1      5566-2.68966E+01-1.21927E-01-1.13051E-02 1.67722E-01-1.05811E-01-3.99006E-02
 -1      5567-2.24143E+01-5.38980E-02-1.14128E-02 1.32423E-01-1.06519E-01-1.26049E-01
 -1      5568-4.77198E+00 1.52690E+00 1.45921E-01-3.82725E-01-1.31851E-01-8.24543E-01
 -1      5569-1.46218E+01 8.23565E-01 6.96037E-01-1.55071E-01-1.58843E-01-1.16683E+00
 -1      5570-1.86244E+01-1.29321E+00 1.84214E-01-4.22109E-01-3.76425E-01 3.24818E-01
 -1      5571-1.62292E+01-5.85916E-01 1.46773E-01-2.41463E-01-4.06630E-01 1.38846E-01
 -1      5572-1.93491E+01-1.75063E+00 9.79317E-02-8.12516E-01-4.15554E-01 2.54308E-01
 -1      5573-2.02304E+01 4.53571E-02 2.26099E+00-3.68370E-01 1.73804E-01-4.87960E-03
 -1      5574-1.74054E+01 1.88433E-02 1.25971E+00-2.22573E-01 2.29262E-01 1.33029E-01
 -1      5575-1.40832E+01 1.81947E-01 6.94305E-01-3.82933E-01 3.23244E-01 6.00376E-01
 -1      5576-1.43031E+01 9.17039E-02 1.36055E+00-2.45055E-01 3.25864E-01 6.94757E-01
 -1      5577-1.71661E+01 2.91193E-01 1.83672E+00-8.08583E-01 3.83958E-01 8.33170E-01
 -1      5578-1.92564E+01 3.50250E-01 1.36234E+00-2.41928E-01-2.07936E-01-3.24439E-02
 -1      5579-8.16358E+00-4.06453E-01 5.59761E-02-9.52928E-02-9.94999E-02 5.53229E-01
 -1      5580-4.79592E+00 1.26215E-01 4.94577E-02 3.49027E-02-1.48311E-02 5.27778E-01
 -1      5581-5.23454E+00 1.34005E+00 8.21272E-02-5.74877E-02-3.93221E-02-2.22278E-01
 -1      5582-1.41855E+01 5.73069E-01 5.43774E-01 2.33539E-02-1.30481E-01-2.67606E-01
 -1      5583-5.02042E+00 1.17909E+00 1.29005E-01-1.60998E-01-1.09985E-01-1.72503E-01
 -1      5584-1.62238E+01-5.02740E-01 6.81527E-02 7.60556E-03 2.28396E-01 2.28423E-01
 -1      5585-8.34258E+00 2.79377E-01-8.10203E-03 3.50462E-01 1.49080E-01-3.55994E-03
 -1      5586-5.62763E+00 4.62105E-01 5.14990E-03 3.46635E-01 1.06494E-01-1.41033E-02
 -1      5587-2.85583E+01-4.62805E-01-3.82579E-03-4.37190E-01 6.92844E-02 1.37999E-02
 -1      5588-2.20976E+01-1.38616E-01 1.60476E-01-2.49873E-01 1.37340E-01 8.10310E-02
 -1      5589-2.71008E+01-3.00736E-01 1.11885E-01-4.21451E-01 7.13044E-02 1.16349E-01
 -1      5590-2.83523E+01-3.96810E-01 1.26328E-01-4.61701E-01 4.16676E-02 2.01883E-01
 -1      5591-2.20703E+01-3.93417E-02 3.74129E-01-2.17605E-01 1.44438E-01 2.39089E-01
 -1      5592-1.97830E+01-1.18990E+00 1.21411E-01 2.04503E-01-2.13343E-01-2.76908E-01
 -1      5593-2.23092E+01-1.66685E+00 1.27243E-01 4.22180E-01-2.83455E-01-2.11537E-01
 -1      5594-2.81767E+01-2.34801E+00 4.94925E-02 4.21666E-01-1.06653E-01-1.38556E-01
 -1      5595-4.38608E+00 3.15087E-01 2.15617E-03 3.24569E-02-1.44332E-01 4.08086E-01
 -1      5596-3.99139E+00 2.27788E-01 2.22218E-02-8.64798E-02-1.10367E-01 4.65324E-01
 -1      5597-1.34005E+01-1.48445E+00 1.13303E-02-3.07565E-01-2.61216E-01 7.08155E-01
 -1      5598-2.87631E+01-9.32733E-01 4.07185E-03 7.86226E-02-1.21025E-02 2.91005E-02
 -1      5599-2.04321E+01-2.03990E-01 6.16820E-02 7.25626E-02-6.62958E-02 6.22221E-02
 -1      5600-2.20694E+01-2.43222E-01 1.30236E-01 2.88218E-02-3.14135E-02 9.49934E-02
 -1      5601-2.95659E+01-8.70485E-02 6.53676E-02-2.62461E-01 2.39574E-02 1.11262E-01
 -1      5602-2.72480E+01-1.32291E-01 1.42545E-01-3.75129E-01 7.44647E-02 7.87942E-02
 -1      5603-2.83613E+01-2.78021E+00 8.63743E-02-7.03119E-01-1.40951E-01 5.66696E-02
 -1      5604-2.52408E+01-2.82969E-01 1.29154E-02-2.18143E-01 1.36661E-01-1.94373E-02
 -1      5605-2.85909E+01-3.60863E-01-5.31295E-03-1.73208E-01 1.03807E-01-4.31588E-02
 -1      5606-2.94485E+01-4.44216E-02 2.88600E-02 1.97625E-01 2.56827E-02-1.19317E-02
 -1      5607-2.79609E+01-1.32089E-01 1.14536E-01 3.73542E-01 7.51280E-02-9.75196E-02
 -1      5608-1.98190E+01-1.58162E+00 9.16493E-02-1.97578E-01-1.52936E-01 3.87566E-01
 -1      5609-2.26377E+01-1.91185E+00 1.33424E-01-9.54631E-02-6.14864E-02 3.10214E-01
 -1      5610-1.42537E+01-1.31098E+00 1.48963E-01 3.22987E-01 3.23395E-01 6.10419E-01
 -1      5611-1.16325E+01-1.60979E+00-2.93873E-01 4.22086E-01 2.73246E-01 7.00766E-01
 -1      5612-5.21295E+00 9.46890E-02-8.45016E-03 1.22365E-01 1.91016E-01 4.28331E-01
 -1      5613-2.77467E+01-2.74290E+00 1.02599E-01 1.15561E+00-2.46712E-01 6.72635E-02
 -1      5614-1.97839E+01-1.65144E+00 1.14126E-01 5.26195E-01-3.92958E-01-3.05359E-01
 -1      5615-2.54164E+01-3.28099E+00 1.57824E-02 1.12309E+00-2.39143E-01-1.38370E-01
 -1      5616-2.82770E+01-4.28908E+00-9.80911E-02 1.71803E+00-2.28248E-01-9.92884E-02
 -1      5617-2.01239E+01-2.84335E+00-1.65098E-01 9.82875E-01-3.61592E-01-5.16793E-01
 -1      5618-5.14519E+00 4.24981E-01 2.33083E-02 4.14286E-01-1.96281E-01 1.06591E-01
 -1      5619-6.94261E+00 1.88355E-01 6.87106E-02 1.95353E-01-3.00470E-01-6.69553E-02
 -1      5620-1.39591E+01-9.64341E-03-2.12171E-02-1.88949E-01-2.59327E-01-2.38551E-02
 -1      5621-1.99186E+01-2.01827E-01 1.43339E-02-1.64749E-01-2.44834E-01 9.17296E-03
 -1      5622-1.36107E+01 3.22968E-02 3.06305E-02-2.26723E-01-2.57324E-01 6.24011E-02
 -1      5623-4.90708E+00 1.43286E+00 9.17915E-02-6.38515E-03-1.94234E-03 1.24846E-01
 -1      5624-1.05454E+01 1.05564E+00 3.87643E-01-4.45472E-03-3.90802E-02 3.55664E-01
 -1      5625-1.07764E+01 7.74266E-01 1.12393E-01-1.46382E-03-1.12978E-03 1.05940E-01
 -1      5626-5.19123E+00 8.88165E-01 7.74775E-02-9.63648E-03-8.07905E-02-1.00456E-01
 -1      5627-1.37354E+01 3.78901E-01 2.46081E-01 1.00486E-01-1.70076E-01-1.05311E-01
 -1      5628-1.15486E+01 4.32665E-01 9.47516E-02 1.31922E-01-1.39047E-01-5.48607E-02
 -1      5629-2.57864E+01-1.43081E+00-6.66454E-02-1.33272E+00 3.28572E-01 1.58256E-01
 -1      5630-2.85706E+01-8.32378E-01 6.91782E-02-9.15719E-01 1.90059E-01 3.30464E-01
 -1      5631-2.04296E+01-5.76933E-01-1.29479E-01-8.96419E-01-3.61449E-01-1.19379E+00
 -1      5632-2.48884E+01-9.13680E-01-3.13168E-01-1.23445E+00-2.60529E-01-1.15690E+00
 -1      5633-2.03688E+01-4.35128E-01 7.72386E-02-3.59485E-01-2.80914E-01-9.52327E-01
 -1      5634-2.44690E+01-5.81354E-01-2.57859E-02-6.38628E-01-2.02313E-01-1.06816E+00
 -1      5635-2.42604E+01-1.40123E+00-1.34560E-01-1.52821E+00-4.16065E-01-3.47699E-01
 -1      5636-1.76912E+01-4.51382E-01 4.16578E-02-9.76511E-02-3.11494E-01 6.51139E-02
 -1      5637-1.84436E+01-3.97060E-01 2.20345E-02 5.63158E-02-2.07261E-01 1.31983E-01
 -1      5638-1.98602E+01-2.55595E-01 1.08907E-02 8.95699E-02 8.19877E-02-8.07987E-02
 -1      5639-2.81268E+01-1.01760E+00 5.17751E-04 5.26016E-02 3.04474E-02-4.71610E-02
 -1      5640-2.26602E+01-4.26857E-01 3.96595E-02 4.59812E-02 4.13493E-02-8.76559E-02
 -1      5641-2.74754E+01-4.54193E+00-2.70559E-01-1.36753E+00-2.25102E-01 2.48994E-01
 -1      5642-2.87267E+01-3.67294E+00 7.59796E-02-1.51862E+00-2.36773E-01-1.09112E-01
 -1      5643-2.89559E+01-3.19413E+00 9.13591E-02-1.09385E+00-2.09763E-01-1.88546E-02
 -1      5644-2.28588E+01-3.30637E+00-1.52630E-01-1.16307E+00-4.06361E-01 4.34713E-01
 -1      5645-2.63905E+01 3.68326E-01 5.33895E-01-5.76520E-01-1.57676E-01 3.21270E+00
 -1      5646-5.90946E+00 1.29156E-01 3.18681E-02 3.93166E-01-1.50122E-01-1.26946E-01
 -1      5647-1.01593E+01 5.18313E-02 2.02426E-02 1.57292E-01-1.30783E-01-2.74005E-01
 -1      5648-3.78710E+00 5.40189E-02-8.39711E-03 2.58116E-01-2.84045E-02-1.53545E-01
 -1      5649-4.81393E+00 1.29448E-01 2.12552E-03 3.75613E-01-9.84791E-02-6.56142E-02
 -1      5650-9.08954E+00 4.68534E-02-1.20744E-02 1.40714E-01-9.13654E-02-1.78922E-01
 -1      5651-2.75105E+01-1.20561E+00-2.59275E-03 3.74552E-02-6.65145E-02-1.02456E-01
 -1      5652-1.90394E+01-3.91591E-01 1.50313E-02-6.14881E-02-1.30267E-01-1.44604E-01
 -1      5653-2.53374E+01-8.17870E-01 4.26435E-03-4.50955E-02-1.02733E-01-6.60611E-02
 -1      5654-2.88670E+01-1.22081E+00-9.62232E-03 5.83152E-03-3.37873E-02-5.80169E-02
 -1      5655-2.04192E+01-4.13242E-01 2.86332E-03-7.04718E-02-9.82750E-02-1.00533E-01
 -1      5656-2.40326E+01-5.24527E-02 8.96238E-03 5.29269E-02-9.33206E-02-2.06503E-01
 -1      5657-2.19669E+01-9.55826E-02-1.40040E-02 1.86443E-01-1.81601E-01-8.93649E-02
 -1      5658-2.85932E+01-1.33146E-01-1.53333E-02 6.44530E-02-8.53994E-02-8.37093E-02
 -1      5659-6.32582E+00 2.22168E-01 9.40404E-02 9.53549E-02 3.31844E-01-5.34580E-02
 -1      5660-1.54050E+01-6.84393E-01 1.59855E-01-6.00237E-01 5.67094E-01 1.08212E-01
 -1      5661-8.91307E+00-4.46210E-01-1.83905E-01-4.41830E-01 4.13852E-01-2.15643E-01
 -1      5662-5.61457E+00-1.66100E-01-4.20442E-01-4.23946E-01 3.74546E-01 1.73853E-01
 -1      5663-1.49212E+01-1.34246E+00-7.83621E-01-1.26691E+00 6.30536E-01 2.02650E-01
 -1      5664-1.99456E+01-2.86735E-01 6.43892E-03-1.25407E-01-1.24227E-01-7.65293E-02
 -1      5665-2.83646E+01-1.03338E+00 1.22978E-02-4.96347E-02-5.36624E-02-4.20377E-02
 -1      5666-2.34386E+01-5.95322E-01 8.96646E-03-6.25220E-02-5.90025E-02-7.88725E-02
 -1      5667-2.52961E+01-6.28793E-01 1.17419E-03-1.22375E-01-1.01849E-01-4.58584E-02
 -1      5668-2.90154E+01-9.74124E-01 2.29129E-03-2.75389E-02-9.26970E-02-4.13718E-02
 -1      5669-2.90673E+01-1.22084E+00 9.58014E-03 6.57709E-02-9.16404E-02-5.38133E-02
 -1      5670-2.05944E+01-4.35560E-01 7.30527E-03-6.33439E-02-1.81908E-01-1.05018E-01
 -1      5671-5.47695E+00 4.66038E-01 3.79361E-02 7.27298E-03-6.93729E-02 3.02201E-01
 -1      5672-1.29588E+01-4.88621E-01 1.14626E-01-1.06956E-02-9.30434E-02 4.67311E-01
 -1      5673-2.91863E+01-8.78192E-01 1.07100E-02-7.77345E-02-1.00050E-01 4.87570E-03
 -1      5674-2.21939E+01-3.82617E-01-1.37843E-02 1.55831E-01-1.86863E-01 4.75803E-02
 -1      5675-2.36257E+01-4.63303E-01 6.43629E-03 5.80683E-02-2.15483E-01 6.14479E-03
 -1      5676-2.90093E+01-1.85118E+00-3.57695E-01 2.42133E+00-1.74031E-01 4.46472E-01
 -1      5677-2.72111E+01 1.70338E-01 1.15189E+00-4.05934E-01-5.49891E-02 2.12353E+00
 -1      5678-2.69703E+01-2.66809E-01 2.83821E-01-1.33399E-01 5.83607E-02 6.47140E-01
 -1      5679-2.86527E+01-4.58981E-01 1.40606E-01-1.09748E+00-1.50001E-03 1.13564E+00
 -1      5680-2.79533E+01-4.38313E-01 1.54892E-01 2.57962E-01 2.86887E-03-6.25291E-01
 -1      5681-1.05071E+01 2.69735E-01 2.79551E-03 2.61044E-01 1.87232E-01-2.75905E-02
 -1      5682-1.32284E+01 1.09582E-01 2.01347E-03 2.68758E-01 2.39797E-01-1.78090E-02
 -1      5683-1.16387E+01 2.68834E-01 9.54174E-03 1.99616E-01 1.54326E-01-4.35104E-02
 -1      5684-1.43613E+01 6.91120E-02 8.31114E-03 2.01833E-01 1.96622E-01-3.53045E-02
 -1      5685-1.07222E+01 2.38727E-01 3.06404E-03 2.48723E-01 1.80235E-01-7.25829E-02
 -1      5686-1.42328E+01 2.70210E-02 1.82791E-02-1.03279E-01 9.62054E-02-7.78579E-02
 -1      5687-5.21020E+00 1.83292E+00 2.48667E-01 7.02464E-03 6.05921E-03 4.80112E-01
 -1      5688-1.17656E+01 1.13592E+00 5.03656E-01 4.03089E-02-8.68479E-03 1.30821E+00
 -1      5689-1.50142E+01-5.25488E-02 2.99849E-01 3.10408E-02-3.12909E-01-1.13047E+00
 -1      5690-1.93580E+01-8.96877E-01-1.78497E-01-1.00942E+00-5.18304E-01-5.92500E-01
 -1      5691-1.80842E+01 7.99260E-01 6.78552E-01 5.60274E-01-4.84281E-01 3.51139E+00
 -1      5692-2.17426E+01 1.91785E-01 5.76093E-02 1.32025E+00-8.23077E-01 1.57683E+00
 -1      5693-1.41325E+01 1.99181E-02 7.61909E-02 1.37786E-01-2.03934E-01-6.38374E-01
 -1      5694-1.00809E+01 1.12664E-02 3.12316E-02 1.64432E-01-1.80757E-01-4.52414E-01
 -1      5695-1.07580E+01 1.16796E-02 1.38628E-01 2.04887E-02-2.42651E-01-6.22809E-01
 -1      5696-2.37062E+01-1.94944E-01 2.11895E-01 1.30247E-01-1.69584E-01 9.94738E-01
 -1      5697-4.86253E+01-2.28372E+00-2.76565E+00 1.24170E+00-1.58413E-01 1.04219E+00
 -1      5698-3.99772E+01-8.31081E-01-2.13544E+00 7.37697E-01-4.82556E-01 1.17811E+00
 -1      5699-1.23112E+01 7.93262E-01-9.44943E-01-1.25989E+00-7.98257E-01 4.02368E+00
 -1      5700-1.04345E+01 8.36575E-01-1.03236E+00-9.65367E-01-4.85920E-01 2.71338E+00
 -1      5701-1.36974E+01-4.00936E-01 1.21460E-01-4.25165E-02 2.83533E-01-2.90034E-01
 -1      5702-1.38836E+01-7.44339E-01 1.03798E-01-1.27702E-01 1.75963E-01-4.67233E-01
 -1      5703-1.36102E+01-4.26275E-01 6.95861E-02-5.39359E-02 1.79214E-01-3.31611E-01
 -1      5704-1.09574E+01-2.75449E+00-1.49956E+00-5.60348E-01 2.04889E-01 1.91732E-01
 -1      5705-6.86459E+00-1.11234E+00-5.56975E-01-3.48561E-01 1.80941E-01-3.39260E-01
 -1      5706-2.54323E+00-1.01995E+00-1.18163E+00-2.73646E-01 4.83569E-02 9.34971E-01
 -1      5707-7.86434E+00-2.14208E+00-1.32563E+00-2.78991E-01 1.12054E-01 3.75813E-01
 -1      5708-3.59071E+00-4.15160E-01-2.87661E-01-1.39744E-01 7.15356E-02-2.77508E-01
 -1      5709-1.22511E+01-2.11115E+00-4.41559E-01-3.31534E-01 1.50550E-01-8.48533E-01
 -1      5710-8.00460E+00 9.67864E-01 1.94934E-01 6.47530E-02 9.88959E-02-2.29665E-01
 -1      5711-1.70751E+01 1.16486E+00 1.28456E+00 1.32416E+00-7.94908E-01 2.43352E+00
 -1      5712-1.89434E+01 8.67825E-01 8.18765E-01 1.21716E+00-5.13237E-01 1.04452E+00
 -1      5713-2.83252E+01-1.32830E+00 2.03557E-02-3.94719E-01-1.53163E-01-1.84234E-04
 -1      5714-1.98718E+01 1.38169E+00-5.44075E-01 2.76473E-01 5.42508E-01 3.26936E+00
 -1      5715-2.01986E+01 2.62578E+00-9.30170E-01 6.70555E-02 8.21793E-02-3.54845E+00
 -1      5716-1.71461E+01-3.85262E+00-3.07426E+00-2.12890E+00 3.20141E-01 4.79521E-01
 -1      5717-2.00581E+01-4.60178E+00-3.73232E+00-3.01166E+00 3.15915E-01 5.28816E-01
 -1      5718-5.26888E+00 3.00124E-01 4.40649E-03-3.73301E-01 1.02216E-01-3.41550E-02
 -1      5719-5.11970E+00 4.26835E-01 1.19838E-02-3.92715E-01 1.05875E-01 1.40307E-02
 -1      5720-2.67028E+01 6.20275E-02 2.14770E-01 1.20897E-01-9.26449E-02-1.01698E+00
 -1      5721-2.79222E+01-6.96005E-01 7.83620E-02 1.66898E-01 4.45602E-02-6.92572E-02
 -1      5722-1.98305E+01-1.02905E-01 7.28375E-02 1.31347E-01 1.05998E-01-9.24179E-02
 -1      5723-2.25497E+01-2.35167E-01 1.46621E-01 8.07745E-02 4.39159E-02-1.24671E-01
 -1      5724-5.03141E+00 4.20928E-01 4.43404E-02-2.56558E-02 2.09961E-02-3.70496E-01
 -1      5725-1.23113E+01-4.56406E-01 1.14213E-01-1.07482E-02 1.85231E-02-5.11911E-01
 -1      5726-6.71367E+00 3.05604E-01 4.63434E-02-2.20939E-02-4.99764E-02-3.51383E-01
 -1      5727-4.41861E+00 3.11092E-01 3.87223E-02 9.91751E-03-5.93806E-02-4.31536E-01
 -1      5728-1.17339E+01-6.00452E-01 9.07459E-02 6.40060E-02-8.86670E-02-5.81086E-01
 -1      5729-1.00969E+01-5.75346E-01 7.09258E-02-8.84707E-03 5.73732E-04-6.36623E-01
 -1      5730-2.68239E+01-8.41741E-01 3.83715E-03 3.17479E-02-1.09682E-01 4.91832E-02
 -1      5731-2.91700E+01-8.57500E-01 5.61606E-03 4.63114E-02-8.72371E-02 6.78058E-03
 -1      5732-2.52425E+01-4.35159E-01 9.06793E-03-3.70357E-02 1.62520E-01-2.67042E-02
 -1      5733-1.96333E+01-2.29838E-01 1.17860E-02-1.42992E-01 2.29318E-01-5.69957E-03
 -1      5734-2.81405E+01-6.27838E-01 1.78415E-03-2.62885E-02 1.10370E-01 1.05316E-02
 -1      5735-2.82974E+01-8.42129E-01 6.45556E-03 1.05000E-01 1.35106E-01 3.23687E-02
 -1      5736-2.26692E+01-5.92915E-01 1.43796E-02-1.81171E-02 2.11358E-01 6.61466E-02
 -1      5737-1.42840E+01 2.53885E-01 1.29053E-02 1.60717E-03 5.45639E-03 6.96338E-02
 -1      5738-5.91903E+00 1.00023E+00 1.01185E-03 2.77348E-02-2.07899E-02 5.30831E-02
 -1      5739-1.08290E+01 7.01864E-01 8.41583E-02 7.70183E-03-1.07881E-02-1.28614E-02
 -1      5740-5.02545E+00 1.28660E+00 8.23208E-02-4.89844E-03-1.04705E-02 6.23664E-02
 -1      5741-1.34064E+01 4.72732E-01 8.25647E-02-2.61776E-02-2.18232E-02 2.24502E-02
 -1      5742-5.05590E+00 1.16193E+00 4.08121E-02-3.76689E-02-2.03507E-02 1.86965E-02
 -1      5743-2.53194E+01 5.16601E-01 1.24658E+00-2.15096E-03-1.72394E-03-1.66044E+00
 -1      5744-2.64952E+01-1.74763E-01 2.44923E+00 4.92270E-02-3.47828E-01-2.08073E+00
 -1      5745-2.72969E+01 6.23563E-01 1.26415E+00-4.08605E-02-1.92492E-02-2.64054E+00
 -1      5746-2.70382E+01-2.88566E-02 2.05737E-01 3.90187E-02 6.44824E-03-8.97658E-01
 -1      5747-2.55975E+01-4.48108E-03 1.29434E+00-5.98330E-02-3.07131E-02-2.03666E+00
 -1      5748-2.31915E+01 2.48672E-01 1.58248E+00 8.50574E-02-2.73402E-02-1.05963E+00
 -1      5749-1.28955E+01-2.31042E-01 7.81197E-02-1.09702E-02 2.17238E-02 3.56216E-01
 -1      5750-5.60677E+00 7.59858E-01 2.74635E-03-7.75992E-02 2.75764E-02 1.64867E-01
 -1      5751-2.81464E+01-8.43524E-01 9.31571E-04 1.08006E-01 8.58176E-02-2.67261E-02
 -1      5752-1.98554E+01-2.47834E-01 1.92277E-02 1.21550E-01 1.42605E-01-6.97319E-02
 -1      5753-2.81547E+01-9.94257E-01-6.36116E-03 7.56891E-02 7.86753E-02-4.12384E-02
 -1      5754-1.01061E+01-1.02092E+00-3.26462E-02-1.46148E-01-1.28160E-01 7.22053E-01
 -1      5755-1.70174E+01-1.09912E-01 7.05617E-03 5.18722E-03 2.03592E-03 1.11676E-01
 -1      5756-1.97061E+01-5.11142E-01-2.11771E-03-3.55845E-03 2.55787E-03 1.72372E-01
 -1      5757-1.65217E+01-9.03036E-02 7.62397E-03-6.24393E-02 6.66277E-02 1.21418E-01
 -1      5758-2.86773E+01-1.68769E+00 8.24259E-03-4.91044E-02 5.39052E-02-9.68462E-02
 -1      5759-2.86323E+01-1.40803E+00 3.23359E-03-4.19379E-02 6.27680E-02-9.16230E-02
 -1      5760-2.02306E+01-6.71241E-01 1.08794E-02-6.41254E-03 8.17674E-02-1.98540E-01
 -1      5761-1.73492E+01 4.20137E-01-5.32836E-02 1.44080E-01-3.54118E-01-3.31777E-01
 -1      5762-3.38751E+01 1.09019E-01-3.07673E-02-5.74433E-02-7.76479E-01-8.17182E-02
 -1      5763-6.92365E+00 4.12280E-01 3.92242E-02 1.08393E-02-2.29919E-02-2.99297E-01
 -1      5764-5.27948E+00 5.27662E-01 4.56117E-02 4.96184E-03 4.64713E-02-3.07956E-01
 -1      5765-2.91830E+01-1.23431E+00-6.47098E-03-6.40733E-02-6.49146E-02 6.12000E-02
 -1      5766-1.68517E+01-3.69248E+00-2.80729E+00 2.14891E+00 3.99604E-01-4.22270E-01
 -1      5767-1.66131E+01-3.70735E+00-2.93745E+00 1.71259E+00 4.39445E-01-2.55289E-01
 -1      5768-1.33550E+01-3.30546E+00-3.26620E+00 2.15364E+00 2.69595E-01-1.20515E+00
 -1      5769-1.31065E+01-3.49446E+00-3.21110E+00 1.84395E+00 3.82152E-01-9.25941E-01
 -1      5770-1.47204E+01-1.31657E+00-7.55700E-01 1.27042E+00 6.42880E-01-1.88736E-01
 -1      5771-1.31465E+01-3.49295E+00-3.18727E+00-1.82687E+00 3.28732E-01 9.18244E-01
 -1      5772-1.35221E+01-3.49412E+00-3.35724E+00-2.18063E+00 2.07394E-01 1.21653E+00
 -1      5773-2.56554E+01 5.57014E-02 2.49713E+00 2.19846E-01 3.85814E-02-1.92004E+00
 -1      5774-2.67194E+01 5.06291E-01 1.05988E+00-2.78481E-01 9.55729E-02-2.68346E+00
 -1      5775-6.66813E+00 8.27027E-01 1.01282E-01 6.64087E-02 8.26069E-02 1.01036E-01
 -1      5776-1.53461E+01 2.00906E-01 1.13759E-01 1.18976E-01 1.23139E-01 3.24432E-02
 -1      5777-5.64996E+00 7.52519E-01 1.22345E-02 1.49593E-01 9.15309E-02 1.09965E-03
 -1      5778-1.42504E+01 2.09309E-01 5.86363E-02 1.75079E-01 1.49243E-01-1.43703E-02
 -1      5779-2.12303E+01-6.57894E+00-4.03368E+00 2.54480E-02 8.03289E-02-1.51104E+00
 -1      5780-1.64405E+01-3.53427E+00-9.86521E-01 4.58580E-02-1.36449E-01-8.99416E-01
 -1      5781-1.78238E+01-5.60090E+00-3.74004E+00 3.90775E-01-5.56772E-02-9.86434E-01
 -1      5782-2.30081E+01-7.02857E+00-4.24494E+00 6.61525E-01-1.76263E-01-1.66707E+00
 -1      5783-1.80843E+01-3.90636E+00-1.12416E+00 5.61229E-01-8.12881E-02-9.81996E-01
 -1      5784-2.18620E+01-5.05253E+00-1.63314E+00 2.73114E-01-1.26551E-01-1.15833E+00
 -1      5785-1.93599E+01 1.32873E-01 1.39212E+00 1.40608E-01 8.06801E-02-3.27535E-01
 -1      5786-1.63276E+01 1.20169E-01 7.03389E-01-4.00137E-02 1.95318E-01 9.83312E-02
 -1      5787-2.69847E+01-4.01067E-01 9.67660E-02-4.62633E-01 5.31051E-02 2.57021E-01
 -1      5788-2.74078E+01-3.21546E-01 3.60858E-01-4.48051E-01 3.54733E-02 6.34107E-01
 -1      5789-2.13380E+01 2.75700E-02 6.67561E-01-1.15570E-01 1.47250E-01 3.88246E-01
 -1      5790-2.26862E+01 1.69487E-02 8.07714E-01-1.65099E-01 1.11825E-01 4.74671E-01
 -1      5791-1.99019E+01-2.74147E-01-6.85549E-03-1.59778E-01-1.83515E-01-4.92168E-02
 -1      5792-1.84682E+01-8.62692E-02 3.46115E-02-1.63833E-01-1.35844E-01-4.14747E-02
 -1      5793-1.73997E+01 3.40262E-01-7.36742E-02-1.12672E-01 4.48590E-01-2.08754E-01
 -1      5794-3.20619E+01 6.43798E-02-1.95371E-02 7.55881E-03 6.57062E-01-2.40192E-02
 -1      5795-3.40532E+01 4.11877E-02-1.43583E-02 3.52890E-02 7.52272E-01-6.77115E-02
 -1      5796-1.59137E+01 1.09876E+00 7.84150E-02-2.95314E-02 8.04343E-01-1.03387E-02
 -1      5797-2.44777E+01 1.50363E-01 9.11882E-01-2.91602E-02-2.28342E-02 9.99468E-01
 -1      5798-2.52160E+01-6.17072E-01 3.11562E-02-1.84054E-01 2.18825E-01 4.67390E-02
 -1      5799-2.75910E+01-9.53842E-01 9.32762E-03-2.75616E-01 1.60986E-01-4.50000E-02
 -1      5800-1.42100E+01 2.88492E-02 2.10048E-02 1.42758E-01-1.67805E-01-3.60671E-01
 -1      5801-1.31667E+01 2.85270E-02-2.62102E-02 1.39075E-01-1.16279E-01-2.40331E-01
 -1      5802-8.58527E+00 1.99099E+00-7.21282E-01 3.10665E-01-4.18201E-01 3.64596E+00
 -1      5803-1.83230E+01 5.62998E-01 1.62815E+00 2.68876E-01-1.16564E-01 1.14028E+00
 -1      5804-1.52699E+01 1.19411E+00 9.54931E-01 5.53876E-01-4.60207E-01 2.81146E+00
 -1      5805-6.85757E+00 2.09309E+00-4.25669E-01 3.62817E-01-5.61267E-01 2.66118E+00
 -1      5806-1.68939E+01 3.02767E-01 1.10399E+00 3.50845E-01-1.51001E-01 8.93316E-01
 -1      5807-9.87762E+00 1.36630E+00 8.50511E-02 2.83577E-01-2.05858E-01 1.89568E+00
 -1      5808-1.44532E+01 3.02166E-02 5.26909E-02 2.36866E-01 1.95610E-01 5.01746E-02
 -1      5809-5.30080E+00 3.38486E-01-1.52247E-02 2.02315E-01 1.00134E-01 3.36781E-02
 -1      5810-1.08455E+01 1.16012E-01 9.94524E-02 1.76159E-01 1.55624E-01 7.14708E-02
 -1      5811-2.83475E+01-1.38363E+00 2.60239E-02 2.04470E-01 1.23041E-01 6.63993E-02
 -1      5812-2.18821E+01-9.77886E-01 5.66040E-02 1.35851E-01 2.21022E-01 1.93570E-01
 -1      5813-1.99242E+01-5.33866E-01 1.15512E-02-7.05245E-03 2.01982E-01 1.34760E-01
 -1      5814-4.70284E+00 4.26697E-01 7.40414E-03 4.36686E-01 1.20009E-01-2.30679E-02
 -1      5815-5.41769E+00 8.65616E-01 2.10063E-03 1.42577E-01-6.26441E-02 8.51107E-02
 -1      5816-1.38300E+01-1.36620E-02-1.40548E-03 8.33010E-02-1.02146E-01 1.92609E-01
 -1      5817-1.00574E+01 2.67172E-01 1.12588E-02 1.09236E-01-1.11368E-01 2.13864E-01
 -1      5818-5.36290E+00 4.94570E-01 9.02666E-03-3.93200E-01-1.17387E-01-5.04678E-02
 -1      5819-5.46355E+00 5.04570E-01-2.67885E-03-3.40324E-01-9.34304E-02-1.35988E-02
 -1      5820-5.04536E+00 4.07718E-01 7.63150E-03-4.14805E-01-1.14910E-01 1.37152E-02
 -1      5821-1.97099E+01 2.95128E+00-8.94646E-01 8.40784E-02-3.19062E-01 3.03827E+00
 -1      5822-2.02401E+01 2.86444E+00-6.48929E-01 1.85614E-01-4.41172E-02 3.04885E+00
 -1      5823-2.53407E+01-5.23502E-01-5.40823E-03 9.32976E-02 1.42583E-01-1.48339E-02
 -1      5824-2.53214E+01-3.66622E-01-1.31231E-02 1.89948E-01 1.35664E-01-4.96205E-03
 -1      5825-2.88995E+01-4.60791E-01-3.18321E-03 1.04078E-01 1.02599E-01 2.43900E-02
 -1      5826-5.43325E+00-1.07577E+00-7.63880E-01-5.25558E-01 2.25647E-01 6.66020E-02
 -1      5827-9.41834E+00-2.74486E+00-1.90349E+00-7.53196E-01 2.32657E-01 7.31126E-01
 -1      5828-1.38432E+01-2.57075E+00-9.17330E-01-8.07550E-01 3.82078E-01-6.13586E-01
 -1      5829-2.30053E+01-4.95462E+00-9.94792E-01-8.82223E-01-2.72136E-01 1.16360E+00
 -1      5830-2.84482E+01-7.14328E-01 8.12922E-03 1.91089E-01 7.86045E-02-4.14426E-04
 -1      5831-2.83469E+01-7.05099E-01 1.85394E-02 2.18159E-01 6.84812E-02-1.22630E-02
 -1      5832-2.01660E+01-1.79655E-01 1.76260E-02 1.83908E-01 1.47281E-01-3.70263E-02
 -1      5833-3.79355E+00-1.16492E+00-1.19376E+00-6.13856E-01-1.75816E-01-1.20251E+00
 -1      5834-8.99931E+00-2.26362E+00-1.55305E+00-8.45801E-01-3.01540E-01-6.94560E-01
 -1      5835-1.34537E+01-4.03902E+00-2.71801E+00 1.85822E-01-1.34622E-01-2.10632E-01
 -1      5836-1.71083E+01-5.13236E+00-3.07201E+00-1.32471E-01 8.44287E-02-3.94604E-01
 -1      5837-2.82501E+01-3.98372E+00 1.49936E-01-4.03601E-01 1.00582E-01-7.05111E-02
 -1      5838-2.01809E+01-2.50935E+00 1.03380E-01-2.27520E-01 7.29342E-02-5.17275E-01
 -1      5839-2.74174E+01 4.61931E-02 9.11788E-01 7.25477E-01-5.56859E-02-2.28415E+00
 -1      5840-2.94636E+01-2.09692E-01 6.25659E-01 4.53566E-01-8.86369E-02-1.60049E+00
 -1      5841-2.59662E+01 1.84870E-01 1.46715E+00 2.53449E-01-1.83491E-01-1.85973E+00
 -1      5842-2.45308E+01 2.16548E-01 2.65747E+00-1.45180E-01 9.48258E-02-2.55000E+00
 -1      5843-5.06860E+00 4.33027E-01 5.69495E-02-6.61499E-02-1.27626E-01-3.47637E-01
 -1      5844-1.39176E+01-1.13197E+00 1.37786E-01 2.69561E-01-3.02135E-01-5.59199E-01
 -1      5845-1.11065E+01-4.41519E-01 1.25020E-01 1.62161E-01-3.23357E-01-4.58427E-01
 -1      5846-1.86919E+01-3.07495E-01-1.49850E-03 9.77669E-02 1.94333E-01-1.31814E-01
 -1      5847-1.58316E+01-8.34900E-02 2.21711E-02 1.68692E-01 2.28355E-01-8.29608E-02
 -1      5848-1.80766E+01-4.61618E-01 3.21935E-02-3.01056E-02 2.53325E-01-1.47721E-01
 -1      5849-1.99034E+01-1.29178E+00 5.68908E-02-8.47631E-01 4.84576E-01 3.45705E-03
 -1      5850-2.77338E+01-1.39207E+00 4.40982E-02-1.08840E+00 2.26342E-01 1.16647E-01
 -1      5851-2.27474E+01-8.88430E-01 9.37165E-02-5.37957E-01 3.95435E-01 2.67935E-01
 -1      5852-2.87189E+01-6.44121E-01 4.89131E-02-7.31297E-01-1.98693E-01-2.01774E-01
 -1      5853-2.84680E+01-1.37356E-01-2.75297E-03-2.51235E-01-1.84361E-02-3.90688E-01
 -1      5854-2.77265E+01-2.40375E-01 2.28936E-02-2.89459E-01-1.29021E-01-2.15896E-01
 -1      5855-1.03295E+01-5.75583E-01 4.89480E-02-1.40628E-01-2.16521E-01 5.74338E-01
 -1      5856-2.86970E+01-1.80607E+00 5.38524E-03-2.19895E-01 7.15026E-02-9.98648E-02
 -1      5857-2.22869E+01-1.14176E+00 4.57361E-02-7.21372E-02 1.21619E-01-2.28825E-01
 -1      5858-2.24349E+01-8.95222E-01 3.69109E-02-1.00347E-01 1.99028E-01-1.59522E-01
 -1      5859-2.77908E+01-1.30617E+00 3.26192E-02-7.70300E-01 2.26131E-01 4.66471E-02
 -1      5860-1.01396E+01 7.80180E-01 1.97820E-01 3.87859E-02-8.93776E-02-1.48624E-01
 -1      5861-1.11533E+01 3.53695E-01 1.25963E-02 1.03276E-01-6.90418E-02 1.29019E-01
 -1      5862-1.18953E+01-3.61920E+00-2.54599E+00-3.05068E-01 1.54533E-01-2.01336E-01
 -1      5863-1.87410E+01 3.52424E-01 8.73093E-01 7.36469E-02 1.61865E-01 1.45158E-01
 -1      5864-1.62902E+01 7.82339E-01 1.23406E+00 1.58488E-01 1.35962E-01-3.02920E-01
 -1      5865-1.69326E+01 4.17780E-01 4.59601E-01-2.51050E-02 1.02701E-01-1.88849E-01
 -1      5866-2.80330E+01-2.23585E+00 2.91073E-02-8.89919E-02-4.03224E-02 1.32046E-01
 -1      5867-2.23806E+01-1.25451E+00 3.84555E-02-3.95745E-02-3.04574E-02 2.48223E-01
 -1      5868-6.95203E+00 2.57751E-02 8.47984E-02 1.01531E-01-2.77793E-01 2.74674E-01
 -1      5869-1.77249E+01-8.17643E-01-5.29793E-01-8.46739E-01 4.99378E-01 9.73341E-01
 -1      5870-1.47057E+01-6.18498E-01-1.05489E+00-7.60588E-01 3.85983E-01 1.46231E+00
 -1      5871-1.42428E+01-3.79424E-01-5.45053E-01-4.64306E-01 3.77220E-01 1.24864E+00
 -1      5872-2.76009E+01-2.60399E-01 3.67697E-01-3.67102E-01 7.19963E-02 4.15149E-01
 -1      5873-5.50563E+00 8.80747E-01-4.89952E-03 1.60702E-01 4.50236E-02-7.20675E-02
 -1      5874-5.20482E+00 7.91564E-01 1.61726E-02 1.57132E-01 4.63117E-02-1.31243E-01
 -1      5875-1.70751E+01-4.97500E-01 1.59244E-01 5.56831E-01 4.83350E-01-8.24110E-01
 -1      5876-1.76096E+01-8.40527E-01-5.58111E-01 7.95275E-01 4.65293E-01-9.88893E-01
 -1      5877-1.46784E+01-6.33112E-01-1.08085E+00 7.44402E-01 4.29137E-01-1.53205E+00
 -1      5878-1.42039E+01-3.33603E-01-5.13085E-01 4.42728E-01 4.13254E-01-1.26623E+00
 -1      5879-5.19714E+00 8.02630E-01 2.57560E-02 1.11966E-01 4.59630E-02-1.55769E-01
 -1      5880-2.35934E+01-5.45220E-01 6.87522E-03-6.98818E-02-1.83344E-01-5.30682E-02
 -1      5881-1.77140E+01-8.30131E-01-6.20635E-01 8.52227E-01-4.77153E-01 9.58240E-01
 -1      5882-1.41856E+01-3.58839E-01-4.47086E-01 4.69404E-01-3.74629E-01 1.25971E+00
 -1      5883-1.46264E+01-5.87219E-01-1.00728E+00 7.28087E-01-3.94577E-01 1.45150E+00
 -1      5884-1.46581E+01-1.29309E+00-7.37425E-01 1.23884E+00-6.31139E-01 2.53366E-01
 -1      5885-1.38089E+01 6.61249E-01 3.85417E-01 6.41051E-03-1.80555E-02 1.37158E-01
 -1      5886-2.56121E+01-1.69905E+00 9.28767E-02 7.83889E-01 2.45850E-01 2.79445E-02
 -1      5887-2.56847E+01-1.53711E+00 6.72276E-02 5.01203E-01 2.36210E-01 6.40910E-02
 -1      5888-2.87198E+01-2.63421E+00 5.96455E-02 1.05431E+00 1.69366E-01 2.11434E-02
 -1      5889-2.86753E+01-2.29256E+00 8.90070E-02 7.37240E-01 1.65308E-01 6.92256E-02
 -1      5890-2.05954E+01-1.42346E+00 1.73077E-01 5.09313E-01 3.67778E-01 1.94065E-01
 -1      5891-2.65929E+01-5.12055E-02 6.97416E-01-5.95890E-01 6.11237E-02 1.20874E+00
 -1      5892-1.99066E+01 2.26002E-01 1.41244E+00 9.15237E-02 1.01374E-01 4.24023E-01
 -1      5893-2.27330E+01 5.60216E-01 2.34426E+00 1.35580E-01 1.00650E-01 1.00013E+00
 -1      5894-1.68474E+01 7.88823E-01 1.33866E+00 7.65212E-02 6.50310E-02-9.58785E-01
 -1      5895-6.87545E+00 1.91366E+00 1.57500E-01 2.91127E-01 1.09627E-01-1.51586E+00
 -1      5896-1.53444E+01 8.03109E-01 9.33563E-01 1.25403E-01 9.75567E-02-2.01615E+00
 -1      5897-2.13025E+01-1.13707E+00-1.16606E+00 1.33385E+00-2.57911E-01 1.23050E+00
 -1      5898-1.46287E+01-5.80582E-01-1.08979E+00-7.41374E-01-3.88313E-01-1.47059E+00
 -1      5899-1.76305E+01-8.31200E-01-5.12019E-01-8.27898E-01-4.94789E-01-9.89959E-01
 -1      5900-1.53950E+01 1.29112E-01 2.03184E-01-1.91204E-01-4.66227E-01-1.18684E+00
 -1      5901-1.28096E+01-5.23748E-01-3.50364E-01-6.68020E-01-5.78702E-01-4.73826E-01
 -1      5902-8.18138E+00 2.93919E-01 1.50314E-02 3.83820E-01-1.60340E-01-1.23651E-02
 -1      5903-6.12386E+00 3.00217E-01 1.72735E-02 4.15867E-01-1.65352E-01-6.61499E-02
 -1      5904-2.13072E+01-1.13138E+00-1.16138E+00-1.34375E+00 2.52124E-01 1.23375E+00
 -1      5905-2.12600E+01-9.84347E-01-9.09153E-01 1.10785E+00 2.43621E-01-1.27850E+00
 -1      5906-2.04890E+01-6.01141E-01-1.11125E-01 8.29472E-01 2.76761E-01-1.13616E+00
 -1      5907-2.13601E+01-1.81237E+00-6.57731E-01 1.73747E+00 5.26958E-01-1.18412E-01
 -1      5908-1.95048E+01-5.43923E+00-3.72642E+00 2.13095E+00 3.32581E-01 1.64683E-01
 -1      5909-1.97316E+01-5.44031E+00-3.60787E+00 2.62164E+00 3.54077E-01 4.49091E-02
 -1      5910-2.09441E+01-3.04547E+00-7.19948E-01 1.79884E+00 4.27963E-01 4.69558E-01
 -1      5911-1.46458E+01-1.01934E-02 2.57898E-01-2.03828E-04 3.34203E-01 9.32065E-01
 -1      5912-1.37416E+01 1.79542E-02 4.14327E-02-2.25372E-01 2.46737E-01-8.16921E-02
 -1      5913-1.35066E+01 2.12443E-02-2.68499E-02-1.49312E-01 1.28269E-01-2.57930E-01
 -1      5914-1.71212E+01-4.72411E-02 2.67543E-03-2.28426E-01 2.00045E-01-8.17396E-02
 -1      5915-1.63535E+01-2.87807E-02-6.60488E-03 1.48643E-01-1.84694E-01-2.31091E-01
 -1      5916-1.59198E+01 1.66111E+00 1.37041E+00-4.63468E-01-1.97465E-01-2.59641E+00
 -1      5917-1.68219E+01 1.09658E+00 8.27792E-01-7.41639E-03 9.79724E-04-2.68548E+00
 -1      5918-9.66786E+00 1.89350E+00-4.39834E-01 4.37950E-03-1.27022E-01-2.96755E+00
 -1      5919-1.96680E+01-9.03443E-02 1.47139E-01-1.31221E-01 2.15771E-01 8.10804E-01
 -1      5920-1.96692E+01-7.01828E-02 1.27799E-01 2.04379E-03 1.71976E-01 7.21167E-01
 -1      5921-1.26620E+01-1.18736E-02 1.00850E-01 1.19352E-01 1.98705E-01 7.06119E-01
 -1      5922-1.65594E+01-7.27222E-02 3.66904E-02 1.22942E-01 2.89033E-01 3.08229E-01
 -1      5923-1.64930E+01-1.03155E-01 6.69113E-02-4.30610E-02 3.38592E-01 4.12850E-01
 -1      5924-3.39288E+01-1.42305E+00-1.07013E+00 2.43969E+00-3.91438E-02 2.67084E+00
 -1      5925-1.03025E+01 2.08331E-01 3.28145E-02 1.33497E-02-9.94193E-04 2.62242E-01
 -1      5926-2.85176E+01-6.92738E-01-3.87174E-03 1.15173E-01 8.31390E-02-9.53034E-03
 -1      5927-2.00514E+01-1.94354E-01 1.50528E-02 2.15220E-01 1.95328E-01-6.62888E-03
 -1      5928-2.84937E+01-5.28547E-01-3.58479E-03 2.18099E-01 8.11039E-02 5.38821E-03
 -1      5929-1.40365E+01 2.19212E-01 1.79614E-02-1.30264E-01-1.23216E-01-5.75624E-02
 -1      5930-5.65028E+00 9.15490E-01 2.24319E-02-1.52713E-01-6.06406E-02-1.26883E-02
 -1      5931-1.13861E+01 4.30612E-01 1.72813E-02-8.02301E-02-7.21691E-02-7.32986E-02
 -1      5932-9.41968E+00-2.61685E+00-1.65428E+00 2.11022E-01-6.34368E-02 3.46319E-01
 -1      5933-7.73183E+00-2.08763E+00-1.27344E+00-9.96028E-03 4.95690E-03 3.24386E-01
 -1      5934-1.18793E+01-3.62716E+00-2.58700E+00-8.08756E-02 1.35007E-03-1.79200E-01
 -1      5935-1.07964E+01-1.96166E+00-4.55564E-01 4.15325E-02-9.61118E-03-7.99092E-01
 -1      5936-2.88909E+01-6.19324E-01 5.77081E-03-1.44454E-01 1.25361E-01 2.59152E-02
 -1      5937-2.69513E+01-7.41923E+00-1.81434E+00 1.56275E+00-7.85820E-02 1.12044E+00
 -1      5938-2.78832E+01-7.52999E+00-2.44571E+00 2.01420E+00-5.28708E-02 1.59214E+00
 -1      5939-2.73723E+01-5.15858E+00-2.13781E-01 1.90925E+00 2.39875E-01 6.89254E-01
 -1      5940-2.14229E+01-6.10695E+00-3.86514E+00 1.17381E+00 2.36110E-01 1.40108E+00
 -1      5941-2.74754E+01-5.70814E+00-5.80609E-01 1.39222E+00 2.66215E-01 6.97654E-01
 -1      5942-2.81932E+01-8.84846E-01 1.79930E-02-7.64399E-02-3.48359E-02-2.56711E-02
 -1      5943-1.98923E+01-1.93105E-01 4.54560E-02-6.15818E-02-5.19110E-02-6.32271E-02
 -1      5944-2.51248E+01-6.07474E-01 5.22419E-02-3.22400E-02-1.68589E-02-4.46158E-02
 -1      5945-2.87298E+01-1.04701E+00-7.90960E-03-3.95898E-02-1.56934E-02-4.16005E-02
 -1      5946-2.03764E+01-3.30865E-01 1.95815E-02-2.26971E-02-3.33769E-02-8.94348E-02
 -1      5947-2.81411E+01-1.81223E+00 1.50697E-02 7.16460E-02 2.26524E-02 1.30089E-01
 -1      5948-2.94638E+01-8.49626E-02 6.35445E-02 2.04367E-01 2.99446E-02-1.44290E-01
 -1      5949-2.33444E+01-3.34969E-02 2.31823E-01 1.67495E-01 9.66256E-02-2.67768E-01
 -1      5950-3.94117E+01-1.03129E+00-2.95804E+00-1.24264E+00-4.70897E-01-1.75704E+00
 -1      5951-1.32853E+01 1.14067E+00-6.11419E-01 1.03464E+00-7.91012E-01-3.51961E+00
 -1      5952-2.01895E+01 5.87242E-01-6.94006E-01 6.16061E-01-8.14405E-01-3.61062E+00
 -1      5953-2.62496E+01-9.80140E-02-9.11552E-01-2.55167E-01-8.08185E-01-5.67243E+00
 -1      5954-4.31453E+01-1.78674E+00-1.45278E+00-1.92531E+00-6.26043E-01-9.21811E-01
 -1      5955-2.13344E+01-2.06543E+00-8.79723E-01-1.85005E+00-5.20500E-01-1.41463E-01
 -1      5956-2.10112E+01-1.20448E+00-6.22287E-02-9.92751E-01-5.15372E-01-1.78407E-01
 -1      5957-2.25832E+01 3.13601E-01 2.11110E+00 1.49234E-01-7.07038E-02-4.21364E-01
 -1      5958-2.29469E+01 3.79314E-01 1.60622E+00-2.45964E-02-2.58655E-02-1.04211E+00
 -1      5959-2.76407E+01-7.27238E+00-2.82284E+00-3.19089E+00 1.25440E-01-1.42471E+00
 -1      5960-2.33614E+01-6.43356E+00-3.98480E+00-1.91025E+00 3.23903E-01-1.49330E+00
 -1      5961-5.79569E+00 3.33819E-01 4.97215E-02-2.02989E-01 1.00013E-01-3.89840E-02
 -1      5962-1.14545E+01 2.09304E-01 1.37845E-01-1.36139E-01 2.01418E-01-1.03110E-01
 -1      5963-2.77746E+01-2.15288E-01 1.20121E-01 3.55311E-01 6.36232E-02-7.53499E-02
 -1      5964-3.64646E+00 5.30883E-02 2.55038E-02 2.92878E-01-3.59734E-02-3.75377E-01
 -1      5965-2.89907E+01-6.48345E+00-6.17498E-01 7.09123E-01-2.22150E-01-9.16226E-01
 -1      5966-2.74981E+01-6.38132E+00-8.95517E-01 1.74977E-01 2.30558E-02-1.00515E+00
 -1      5967-2.80179E+01-5.23071E+00-1.67914E-02 4.94479E-01-7.78209E-02-2.28178E-01
 -1      5968-2.31259E+01-4.13646E+00-4.04476E-01 5.16074E-01-2.05737E-01-7.10534E-01
 -1      5969-1.83293E+01-2.76808E-01 5.11925E-02-2.07535E-01 3.79204E-01 4.35811E-01
 -1      5970-5.73385E+00 7.48248E-01 3.65457E-03 2.08953E-01 9.39031E-02-1.19417E-02
 -1      5971-2.83034E+01-9.79005E-01 4.97881E-03-7.02700E-02 4.26644E-02 2.58884E-02
 -1      5972-2.82266E+01-8.52900E-01 1.44611E-02-1.25481E-01 5.30278E-02 2.73005E-02
 -1      5973-2.88302E+01-1.05554E+00 6.49404E-03-1.93299E-03-3.52834E-04 3.04882E-02
 -1      5974-2.87633E+01-9.42076E-01 1.45812E-02-4.42833E-02 8.30254E-03 3.14041E-02
 -1      5975-2.35031E+01-4.97390E-01 1.82173E-02-4.86325E-02 4.07980E-02 5.51548E-02
 -1      5976-1.75154E+01 8.59815E-02 3.88678E-01 8.45540E-02 1.83930E-01 1.20660E-02
 -1      5977-1.73028E+01-9.09965E-03 7.72966E-02 1.43814E-01 1.40511E-01-3.65181E-03
 -1      5978-1.92980E+01-2.80861E-02 2.46370E-01 1.46315E-01 1.16751E-01-1.45299E-01
 -1      5979-1.83735E+01-6.71954E-01 1.35692E-01 2.84527E-01-3.86971E-01-1.47078E-02
 -1      5980-1.62322E+01-7.34443E-01 1.05159E-01 5.03653E-01-5.08062E-01 8.34239E-02
 -1      5981-1.92645E+01-3.16730E-01 8.45176E-02 2.38145E-01-3.76734E-01 3.49900E-01
 -1      5982-2.30263E+01-9.51605E-01 7.72992E-02 4.99391E-01-3.76360E-01 2.02679E-01
 -1      5983-2.83124E+01-3.10221E-01-6.43162E-03 2.83893E-01 9.69659E-02 3.28996E-02
 -1      5984-2.30009E+01-2.24282E-01-8.48485E-04 2.14199E-01 1.72109E-01 3.31593E-02
 -1      5985-1.88411E+01-1.63617E+00 1.38380E-01 4.21351E-03 4.69905E-03 4.30065E-01
 -1      5986-1.77886E+01-9.84561E-01 1.03993E-01 7.12178E-02 8.57945E-02 3.57231E-01
 -1      5987-1.85588E+01-9.50490E-01 4.90767E-02 1.36621E-02 6.73192E-03 3.27268E-01
 -1      5988-1.88225E+01-5.30779E+00-3.62603E+00-2.00389E+00-3.53342E-01 1.44100E-01
 -1      5989-1.70554E+01-3.23113E+00-1.28500E+00-1.35805E+00-4.41198E-01 6.49496E-01
 -1      5990-2.03203E+01-2.92816E+00-6.66384E-01-1.68193E+00-4.79729E-01 4.50408E-01
 -1      5991-2.81914E+01-2.83095E-01 1.12078E-01-9.87792E-01 3.01064E-02 8.44820E-01
 -1      5992-1.99827E+01-8.87576E-01-8.82007E-03 7.94188E-01 5.33338E-01-2.90874E-01
 -1      5993-1.71379E+01-3.51831E-01 4.29895E-02 3.18860E-01 4.47497E-01-4.37251E-01
 -1      5994-2.43949E+01-1.63271E-01 4.30952E-01-5.10572E-02 3.28080E-02 5.96460E-01
 -1      5995-1.99098E+01-1.61254E-01 4.32204E-02-8.51390E-02 7.27348E-02 5.44347E-02
 -1      5996-2.51647E+01-5.92208E-01 4.76889E-02-7.91063E-02 3.76950E-02 3.70983E-02
 -1      5997-2.04411E+01-2.14504E-01 6.31290E-02-5.77762E-03 1.28108E-02 6.03934E-02
 -1      5998-2.51974E+01 6.02992E-01 1.17561E+00 1.61547E-01-3.41820E-02-1.43067E+00
 -1      5999-1.30945E+01 9.93825E-01 7.77461E-01 1.08721E-01 1.31243E-01-1.47407E+00
 -1      6000-1.54823E+01-2.34413E-01 2.22214E-02 8.12350E-02 2.70231E-01-8.24724E-02
 -1      6001-1.67820E+01-2.81388E-02 9.79457E-03 1.88894E-01 2.38701E-01 9.92638E-03
 -1      6002-3.80625E+00 1.54589E-02-1.10047E-02 1.74029E-01-1.08980E-02-1.46946E-01
 -1      6003-4.81705E+00 1.08492E-01 8.77922E-03 3.03500E-01-7.68287E-02-5.81523E-02
 -1      6004-2.55812E+01-2.70412E+00 3.67379E-02 8.17254E-01-2.19397E-01-1.98652E-01
 -1      6005-2.78924E+01-2.30892E+00 6.19985E-02 8.26968E-01-2.08300E-01 4.69036E-03
 -1      6006-2.84345E+01-2.32241E-01 3.01242E-02-3.14320E-01-5.25554E-02-5.79370E-01
 -1      6007-1.41878E+01 4.77928E-01 3.00683E-01-4.18633E-02-9.57264E-02 6.22823E-02
 -1      6008-1.68393E+01 2.09393E-01 1.85178E-01-5.87033E-02-6.52669E-02-4.09911E-02
 -1      6009-1.99937E+01 1.05488E-01 4.31158E-01-1.32231E-02-7.60860E-02-7.30743E-02
 -1      6010-2.12927E+01-2.67849E-02 3.35413E-01-5.17481E-02-8.14117E-02-1.18686E-01
 -1      6011-2.37444E+01-2.66221E-01 2.03041E-01-8.76835E-02-4.45724E-02-1.81620E-01
 -1      6012-1.81702E+01 8.18295E-02 1.35174E-01-1.07369E-01-9.58637E-02-4.96712E-02
 -1      6013-2.83476E+01-3.13951E-01 1.19811E-01 4.58236E-01-7.27005E-02 1.10749E-01
 -1      6014-2.51004E+01-2.32813E-01 1.64307E-01 3.61133E-01-9.90573E-02 7.80111E-02
 -1      6015-2.87441E+01-3.77577E-01 2.34179E-01 4.50452E-01-5.10355E-02 1.82313E-01
 -1      6016-2.05018E+01-1.81755E-02 3.09082E-01 1.83903E-01-1.49781E-01 1.79381E-01
 -1      6017-2.36053E+01-5.52482E-02 3.47224E-01 2.70392E-01-1.37815E-01 3.10416E-01
 -1      6018-2.01024E+01-4.79754E-01-6.22193E-03 3.98934E-02-6.82689E-02 1.45052E-01
 -1      6019-2.84558E+01-1.25442E+00-2.01149E-03 1.80994E-02-2.60243E-02 5.92587E-02
 -1      6020-2.53861E+01-1.12136E+00 4.18355E-03 2.30235E-03-1.61857E-02 1.22159E-01
 -1      6021-2.07865E+01-6.64863E-01 5.84109E-03 3.62547E-03-9.12138E-02 1.72813E-01
 -1      6022-2.91828E+01-1.48792E+00-4.22157E-03-2.43021E-02-4.35201E-02 8.36171E-02
 -1      6023-2.38645E+01-7.83713E-01-6.94317E-04 1.80740E-02-9.16590E-02 1.10898E-01
 -1      6024-6.88241E+00 7.87538E-01 7.76758E-03-1.44250E-01 7.83585E-02 2.87783E-02
 -1      6025-2.86209E+01-4.57021E-01 1.43909E-01 1.06607E+00-1.22218E-02 1.13033E+00
 -1      6026-1.34529E+01 1.01556E-01 3.77176E-01 1.24205E-02-2.07782E-01-1.76273E-01
 -1      6027-6.43806E+00 3.62188E-01 2.38873E-01-8.76079E-02-1.76810E-01-2.64742E-01
 -1      6028-4.79192E+00 6.39564E-01 1.69457E-01-1.17670E-01-1.14526E-01-2.92578E-01
 -1      6029-1.21589E+01 4.39806E-01 5.92074E-01-2.02411E-01-2.67088E-01-5.57537E-01
 -1      6030-1.17873E+01 3.18957E-01 2.59092E-01-7.46359E-03-1.90635E-01-2.58401E-01
 -1      6031-1.35577E+01-4.14096E+00-3.30938E+00-1.50355E+00 3.84994E-01 3.23574E-01
 -1      6032-1.53214E+01-2.18100E+00-9.23561E-01-1.16379E+00 5.04162E-01-2.45273E-01
 -1      6033-1.80900E+01-3.38987E+00-1.28113E+00-1.29803E+00 4.55816E-01-5.54951E-01
 -1      6034-1.97192E+01 5.04602E-01 1.28488E+00 1.11368E-01 1.38573E-01 1.81404E-01
 -1      6035-1.16655E+01-2.33222E+00-8.31462E-01 5.12995E-01-2.53536E-01-6.42484E-01
 -1      6036-5.53609E+00-6.14600E-01-3.38560E-01 1.20766E-01-9.76861E-02-4.52694E-01
 -1      6037-1.08853E+01-1.54894E+00-1.90853E-01 1.81585E-01-1.19163E-01-7.63952E-01
 -1      6038-7.76518E+00-2.03656E+00-1.43237E+00-1.54181E-01 4.96132E-02 3.48928E-01
 -1      6039-1.67846E+01-2.75046E-01 9.91092E-03-3.22632E-02 5.89699E-02 1.89353E-01
 -1      6040-5.56106E+00 7.89776E-01 9.09888E-04-2.09969E-01-8.49981E-02-1.07697E-02
 -1      6041-1.39500E+01 1.52654E-01 1.93207E-02-1.70273E-01-1.55800E-01-5.37152E-02
 -1      6042-5.53445E+00 7.06578E-01-6.10939E-03-2.95021E-01-9.24595E-02-2.07090E-02
 -1      6043-2.75795E+01-7.08052E+00-2.43811E+00 3.20672E+00-1.94407E-02-1.43222E+00
 -1      6044-2.30230E+01-6.46568E+00-3.80954E+00 1.92427E+00-2.79347E-01-1.49763E+00
 -1      6045-4.65168E+01-1.67384E+00-3.12095E+00-1.93093E+00-6.09084E-01-9.11226E-01
 -1      6046-3.02231E+01-1.77548E-01 1.27312E-01-5.04589E-01-8.65848E-01-7.08082E+00
 -1      6047-3.71080E+00 7.76677E-02-2.87126E-03 2.67354E-01-3.67416E-02-2.40094E-01
 -1      6048-1.01159E+01 4.56112E-02 9.60186E-03 1.47322E-01-1.62518E-01-3.59052E-01
 -1      6049-2.67155E+01-6.40112E-01 1.37222E-01 1.54431E-02-2.41225E-02 8.71933E-02
 -1      6050-2.82027E+01-7.85917E-01 6.44527E-02-4.90735E-02 1.95812E-02 5.95553E-02
 -1      6051-2.47737E+01 5.09362E-01 1.12388E+00-9.41723E-03 4.11544E-02-1.74639E+00
 -1      6052-2.58676E+01 6.67769E-01 1.42517E+00-2.53526E-01 2.06973E-01-2.31588E+00
 -1      6053-2.26793E+01-8.01738E-02 3.72006E-01 1.34955E-01 6.48429E-02-2.75685E-01
 -1      6054-1.80377E+01 1.24232E-01 2.43335E-01 8.79172E-02 1.08824E-01-2.42456E-02
 -1      6055-2.28160E+01-2.84619E-01 6.33491E-02 1.80740E-01 1.06764E-01-7.31031E-02
 -1      6056-2.80624E+01-1.27588E+00-1.38660E-03-5.62519E-03 1.97405E-02 7.33357E-02
 -1      6057-2.27859E+01-6.64345E-01-1.18764E-02 1.39594E-02-1.80833E-02 1.07742E-01
 -1      6058-7.46288E+00 5.93947E-01 1.40906E-02 1.81747E-01 1.04116E-01-1.22750E-01
 -1      6059-1.28034E+01 1.50192E-01 5.81572E-03 1.10913E-01 1.32917E-01-1.57981E-01
 -1      6060-1.25438E+01-1.58941E-02 2.74552E-02 8.86457E-02 1.56404E-01-2.44464E-01
 -1      6061-2.52041E+01-4.09164E-01 8.38417E-03 5.59249E-02 1.75215E-01-5.50001E-02
 -1      6062-2.82858E+01-8.16788E-01-5.91591E-03 2.05706E-01 1.48964E-01 2.06290E-02
 -1      6063-2.80848E+01-8.00155E+00-2.76250E+00-9.39575E-01 1.76903E-03-1.68480E+00
 -1      6064-2.12800E+01-6.68518E+00-4.32722E+00-2.98904E-01 5.52131E-02-1.53995E+00
 -1      6065-2.01063E+01-6.89762E-01 5.00444E-02 9.55853E-02-2.87792E-01-1.25281E-01
 -1      6066-2.84481E+01-1.25230E+00 2.71695E-02 4.48151E-01-1.63661E-01-6.84398E-03
 -1      6067-2.25377E+01-9.73508E-01 8.22144E-02 3.60017E-01-3.22013E-01-3.49901E-02
 -1      6068-1.44995E+01 1.41385E-01 9.38119E-03 1.53408E-01 1.42984E-01-6.53499E-02
 -1      6069-5.94104E+00 7.88183E-01 2.81039E-03 2.09997E-01 8.84395E-02-5.64642E-02
 -1      6070-9.63818E+00 5.18566E-02 7.62248E-05 1.39161E-01 8.85951E-02 8.24009E-02
 -1      6071-1.37774E+01 3.75950E-02 2.47111E-02 1.31597E-01 1.10597E-01 3.85653E-02
 -1      6072-9.58548E+00 5.32560E-02 1.03320E-01 6.85922E-02 8.64038E-02 6.97399E-02
 -1      6073-1.37537E+01 5.37695E-02 1.92951E-01 5.80148E-02 1.02346E-01 3.35589E-02
 -1      6074-1.98197E+01-1.13411E-01-1.55031E-02 2.12494E-01 2.11868E-01 4.09665E-02
 -1      6075-2.82791E+01-3.62219E-01 1.48671E-04 1.91341E-01 9.71199E-02 3.57522E-02
 -1      6076-2.33587E+01-1.89887E-01 2.49168E-03 1.37844E-01 1.95689E-01 8.87562E-02
 -1      6077-1.30160E+01-2.64615E-03 1.05152E-01 1.76502E-01 3.33096E-01 1.56689E-01
 -1      6078-1.99609E+01-6.39427E-02 1.54287E-01-5.37439E-02 5.13935E-02 9.11026E-02
 -1      6079-2.82070E+01-7.63006E-01 7.46410E-02-9.92377E-02 3.00806E-02 7.82651E-02
 -1      6080-2.35052E+01-3.78798E-01 9.01608E-02-2.68693E-02 1.69352E-02 9.04073E-02
 -1      6081-2.51482E+01-2.13530E-01 3.91255E-01 3.23219E-01 1.16564E-01-2.54689E-01
 -1      6082-1.88042E+01-1.02607E-01 2.32045E-01-4.67579E-02-2.34968E-01-1.03638E+00
 -1      6083-1.34161E+01-2.17322E-02 1.87049E-01 2.32570E-02-3.35887E-01 9.46005E-01
 -1      6084-1.40717E+01-6.52318E-01 4.91619E-03 6.13456E-01-5.75691E-01 9.38270E-02
 -1      6085-1.71717E+01-2.65950E-01 6.70213E-02 2.68442E-01-3.94870E-01 4.53494E-01
 -1      6086-1.21564E+01 1.31810E+00-2.89002E-01-3.63530E-01 4.08462E-01 3.01250E+00
 -1      6087-1.00520E+00 3.06414E+00-6.14920E-01-2.41084E-01 3.15395E-01 1.07337E+00
 -1      6088-8.59239E+00 1.97000E+00-6.34450E-01-1.27311E-01 2.50596E-01 3.12414E+00
 -1      6089-5.46260E+00 1.00025E+00 1.92499E-03 8.45153E-02 4.02552E-02-4.05528E-02
 -1      6090-9.38842E+00 2.10623E+00-2.34575E-01 4.69050E-02-5.29403E-03 3.47682E+00
 -1      6091-1.77586E+01 7.02654E-01 1.44729E+00-1.55778E-01-2.04745E-02 8.88205E-01
 -1      6092-1.95819E+01 3.10621E-01 1.64366E+00-1.76366E-01 7.68650E-02 1.19393E+00
 -1      6093-2.78398E+01-3.13628E-01 3.47025E-01 1.42156E-01 1.72232E-02-6.22048E-01
 -1      6094-1.35751E+01 4.40351E-01 4.43517E-01-2.89082E-02-1.99260E-01-2.70876E-01
 -1      6095-4.17087E+00 2.39300E+00-6.95832E-01 2.94971E-01-3.46286E-01 1.04803E+00
 -1      6096-3.03282E+00 2.24603E+00-2.42151E-01 2.86086E-01-2.69170E-01 4.54579E-01
 -1      6097-1.97011E+01 3.07124E+00-6.11633E-01-8.58583E-04 1.06619E-01 3.33103E+00
 -1      6098-1.98479E+01 3.22189E+00-1.17068E+00 1.39301E-01 1.49330E-01 3.03508E+00
 -1      6099-2.63707E+01-3.55970E-04 1.12744E+00-5.17278E-02-4.66926E-02-1.11119E+00
 -1      6100-2.84577E+01-4.08568E-01 2.42535E-01-1.41718E-01-5.36638E-02-5.55478E-01
 -1      6101-4.71711E+00 2.96564E-01 3.47980E-03-5.00979E-01 1.36703E-01-7.89901E-02
 -1      6102-1.06145E+01 1.11714E-01 2.28850E-02-2.54767E-01 2.67930E-01 5.14311E-04
 -1      6103-1.18502E+01 2.97807E-02 8.54217E-02-1.82052E-01 3.21380E-01-2.15070E-01
 -1      6104-2.81829E+01-1.21200E+00-3.00060E-03 9.25476E-03 2.71513E-02-5.87957E-02
 -1      6105-1.97960E+01-4.67205E-01 6.23175E-03 2.78593E-02 4.20805E-02-1.58523E-01
 -1      6106-2.32713E+01-6.69995E-01-3.96646E-03 1.12666E-02 1.21020E-02-1.00953E-01
 -1      6107-1.39085E+01-4.49656E-01 6.80508E-02 4.29382E-02-2.49362E-01-3.66896E-01
 -1      6108-5.27670E+00 4.59261E-01 4.96331E-02-1.93308E-01-1.35605E-01-2.75728E-01
 -1      6109-8.52443E+00 2.33772E-01 2.52981E-02-1.69425E-01-1.78049E-01-2.13424E-01
 -1      6110-1.37630E+01-1.72425E-01 4.85813E-02-1.82145E-02-1.96869E-01-2.53906E-01
 -1      6111-5.26744E+00 6.18330E-01-8.25383E-03-2.57252E-01-9.88025E-02-1.58744E-01
 -1      6112-1.05549E+01-3.67170E-02 6.47626E-02-2.84774E-02-1.61071E-01-3.43006E-01
 -1      6113-1.21589E+01 3.17383E-01 7.60106E-03-1.46614E-01 1.21284E-01 7.30100E-02
 -1      6114-1.05110E+01 5.89417E-01 4.05471E-02-8.35447E-02 6.78414E-02 1.51328E-02
 -1      6115-2.70678E+01-7.26099E+00-1.83541E+00-2.46698E+00 2.51854E-01-1.00562E+00
 -1      6116-2.86602E+01-5.25716E+00-1.46923E-01-2.17614E+00 2.78109E-01-4.68505E-01
 -1      6117-2.65816E+01-5.20241E-01 1.78065E-01 4.94703E-02-2.20520E-02 1.27514E-01
 -1      6118-2.80330E+01-4.45384E-01 4.70497E-01 5.09540E-02-1.65428E-02 3.51711E-01
 -1      6119-5.34861E+00 3.35109E-01-5.18255E-04 3.78717E-01 1.05489E-01 2.67989E-02
 -1      6120-2.39455E+01 1.19593E+00 8.33704E-01 5.04207E-02-6.68754E-03 2.79515E+00
 -1      6121-2.44663E+01 1.64468E+00 8.50912E-02-4.00837E-02 1.28859E-01 3.41714E+00
 -1      6122-2.84490E+01-5.93791E-01 4.58005E-02-3.48844E-01 6.25222E-02 2.68730E-03
 -1      6123-2.83330E+01-4.83739E-01 1.92231E-01-3.46558E-01 2.71159E-02 1.91008E-01
 -1      6124-2.87835E+01-4.94298E-01 1.35340E-01 3.87248E-01-5.17126E-02 1.12732E-01
 -1      6125-2.82501E+01-4.28092E+00-9.79623E-02-1.62072E+00 2.43049E-01-7.22901E-02
 -1      6126-2.82415E+01-3.90239E+00 4.90242E-02-9.90185E-01 1.23950E-01-5.62780E-02
 -1      6127-4.73715E+00 5.99281E-01 4.96950E-03 3.64338E-01 1.08998E-01-2.11482E-02
 -1      6128-5.65928E+00 6.06514E-01 3.91658E-03 2.67106E-01 9.50247E-02-1.17044E-02
 -1      6129-5.85227E+00 6.44763E-01 1.05093E-03 2.78252E-01 8.66060E-02-4.24391E-02
 -1      6130-1.62679E+01 3.62786E-01 2.54180E-01-2.97033E-02-3.08496E-02-1.02971E-03
 -1      6131-1.35963E+01 6.57952E-01 3.73860E-01-5.29652E-03-5.87696E-02 1.52955E-01
 -1      6132-1.05926E+01 6.85341E-01 5.84166E-02-4.73827E-02-5.12178E-02 6.09992E-02
 -1      6133-2.79659E+01-6.40330E-01 3.88002E-02 2.46626E-01 5.63055E-02-6.02794E-02
 -1      6134-2.23979E+01-8.93868E-01 1.83348E-02-5.16994E-04 4.99517E-02 1.82499E-01
 -1      6135-2.80707E+01-1.21866E+00-5.52875E-03 1.36361E-02 3.57444E-02 6.53162E-02
 -1      6136-2.38834E+01-7.58347E-01-3.93698E-03-3.60670E-02 8.34866E-02 9.77296E-02
 -1      6137-1.97801E+01 1.54683E-02 2.36069E-01 1.84839E-01-1.32189E-01 8.37589E-02
 -1      6138-2.81962E+01-5.57178E-01 4.71314E-02 3.07967E-01-6.57888E-02 4.32814E-02
 -1      6139-2.34793E+01-2.11721E-01 2.88425E-01 2.16981E-01-3.93350E-02 2.50033E-01
 -1      6140-5.99412E+00 7.78916E-01-5.45357E-03 2.13124E-01 8.52325E-02-6.25563E-02
 -1      6141-1.33060E+01 5.53908E-02 1.43987E-02 1.48570E-01 1.90554E-01-1.39525E-01
 -1      6142-1.13111E+01 3.53999E-01 9.81929E-03 1.50327E-01 1.16425E-01-1.06817E-01
 -1      6143-2.11272E+01-1.65616E+00 5.24119E-02 1.16891E+00 4.98843E-01-5.64000E-02
 -1      6144-2.43551E+01 1.02071E+00 9.83594E-01-3.67607E-02 8.02823E-02-2.57041E+00
 -1      6145-2.44082E+01 1.68079E+00 6.77847E-01-1.79685E-01-3.88331E-02-3.83528E+00
 -1      6146-5.31459E+00 4.19356E-01 2.01988E-02-4.42020E-01-1.41880E-01-3.65254E-02
 -1      6147-8.31556E+00 2.14546E-01 1.19267E-02-3.87115E-01-1.89759E-01 4.79112E-02
 -1      6148-4.92206E+00 3.62188E-01 2.97439E-02-4.32043E-01-1.74751E-01-4.86206E-02
 -1      6149-1.35217E+01 4.47004E-03 1.34647E-02-1.79175E-01-2.93217E-01-4.46759E-02
 -1      6150-1.05057E+01 1.60059E-01 2.10361E-02-2.09098E-01-2.54473E-01-1.35458E-01
 -1      6151-2.35962E+01-5.65191E-01 1.67793E-02 4.26033E-02-4.35629E-02 7.76296E-02
 -1      6152-1.40034E+01-1.81142E-01 5.00941E-02-8.71504E-02-2.43107E-01-1.75969E-01
 -1      6153-1.35985E+01-2.17523E-01 8.06372E-02-4.67562E-02-2.85320E-01-2.20224E-01
 -1      6154-1.02825E+01 1.56880E-01 3.50205E-02-1.28052E-01-2.06595E-01-2.11158E-01
 -1      6155-3.53473E+01-3.20121E+00 5.14030E-01 1.03777E-01 3.49786E-02 3.20536E+00
 -1      6156-3.88773E+01-4.52386E+00-2.95884E+00-2.83158E-01 2.00854E-01 3.51497E+00
 -1      6157-2.34451E+01-1.15467E+00 1.69265E-02-6.71128E-02-1.18577E-01 1.85649E-01
 -1      6158-1.52394E+01 2.48395E-01 5.65906E-01 1.50090E-02-1.66802E-01-1.13717E-01
 -1      6159-1.88608E+01-3.69519E-02 5.55509E-02-4.61765E-02-1.61603E-01 4.04589E-01
 -1      6160-1.94094E+01-1.61838E-01-1.32346E-02-7.01852E-02-2.74029E-01 1.71719E-01
 -1      6161-1.65216E+01-3.18575E-02 7.83121E-03-1.35632E-01-2.11287E-01 2.49991E-01
 -1      6162-1.88971E+01-3.19146E-02 7.93040E-03-1.19737E-01-1.31164E-01 2.65025E-01
 -1      6163-1.93033E+01-1.01958E-01-2.16040E-02-1.87583E-01-2.43281E-01 9.35647E-02
 -1      6164-2.17196E+01-1.31892E-01 4.34771E-03-8.39544E-02-2.17286E-01 1.81147E-01
 -1      6165-2.29879E+01-2.56202E-01 1.10299E-01 2.21587E-01-1.19057E-01 7.77401E-02
 -1      6166-7.42744E+00 5.43537E-01 1.11865E-02 2.29533E-01 1.25933E-01-1.38754E-01
 -1      6167-5.98771E+00 6.94647E-01-1.60849E-02 2.66449E-01 8.99109E-02-7.62700E-02
 -1      6168-4.36253E+00 1.07769E-01-6.05288E-03 2.40888E-01 1.66476E-01 6.45205E-01
 -1      6169-6.36282E+00 9.13749E-02 4.27582E-02 2.70001E-01 2.96059E-01 6.96912E-02
 -1      6170-2.87954E+01-3.02094E+00-3.17555E-01 2.51420E+00-2.79878E-01 1.96558E-01
 -1      6171-1.69208E+01-8.74001E-01 1.44227E-01 3.93476E-01-4.26400E-01-2.12791E-01
 -1      6172-1.47924E+01-1.00682E+00-4.18815E-02 7.10945E-01-5.30866E-01-2.56537E-01
 -1      6173-1.74379E+01-2.08123E+00-1.71966E-01 9.16821E-01-4.53852E-01-4.20613E-01
 -1      6174-1.92506E+01-9.99968E-01 1.06009E-01 2.30290E-01 3.00315E-01 2.20470E-01
 -1      6175-2.74093E+01-1.81558E+00 3.94613E-02 4.26196E-01 1.28288E-01 1.22991E-01
 -1      6176-4.00583E+01-1.01134E+00-2.89326E+00 1.13222E+00 4.98786E-01-1.63011E+00
 -1      6177-1.29182E+01 1.00223E+00-6.43848E-01-1.10015E+00 7.68377E-01-3.57555E+00
 -1      6178-2.56946E+01 1.08884E-02-1.11900E+00 3.23615E-01 8.14161E-01-5.53231E+00
 -1      6179-2.83685E+01-1.56158E+00 1.95432E-02 4.01907E-01 1.38375E-01 5.79898E-02
 -1      6180-5.25443E+00-9.34864E-01-5.76704E-01 1.38950E-01-8.11510E-02-2.86220E-01
 -1      6181-2.24598E+00-8.58214E-01-1.15819E+00 8.20355E-02-1.94274E-02 8.88504E-01
 -1      6182-3.52664E+00-3.56830E-01-2.67638E-01-1.04035E-02-4.36855E-03-3.44837E-01
 -1      6183-6.49976E+00 8.70455E-01 1.54798E-01-4.76540E-02 9.70886E-02 1.44138E-01
 -1      6184-4.42927E+00 1.08949E+00 1.90991E-01-2.01405E-01 1.13194E-01 3.57053E-01
 -1      6185-2.95701E+01-6.69101E-02 6.00888E-02 2.31381E-01-2.03135E-02 1.16333E-01
 -1      6186-2.70105E+01-1.07950E-01 3.69218E-02 3.41190E-01-9.93800E-02 2.56898E-03
 -1      6187-1.31482E+01 1.55015E-02 3.29322E-02 1.76154E-01 2.86850E-01-8.96312E-03
 -1      6188-2.02973E+01-2.37053E-01 2.76121E-02 4.25383E-02 3.01966E-01 8.74114E-02
 -1      6189-1.08292E+01 9.60796E-01 4.10500E-01-1.76704E-01-1.63598E-01-8.00167E-01
 -1      6190-8.23028E+00 1.39600E+00 4.59471E-01 6.14237E-02-5.57739E-02 3.28235E-01
 -1      6191-1.31816E+01 8.60238E-01 6.76015E-01 1.28427E-01-1.58134E-01 6.17144E-01
 -1      6192-3.81113E+00 1.79657E+00 1.63453E-01 2.48338E-01-7.88154E-02 6.97678E-01
 -1      6193-4.61996E+00 1.40660E+00 4.32169E-03 9.73402E-02-5.37361E-02 2.64990E-01
 -1      6194-9.13834E+00 9.83325E-01 4.09044E-01 1.28482E-01-1.60227E-01 6.01248E-01
 -1      6195-1.33997E+01 6.16997E-01 4.55665E-01 8.35601E-03-1.23863E-01 2.06214E-01
 -1      6196-1.51496E+01 2.93895E-02 2.92959E-02 2.47610E-01-1.89341E-01-6.71263E-02
 -1      6197-1.32492E+01 3.65937E-02 2.28175E-02 1.38787E-01-1.02429E-01-1.40310E-01
 -1      6198-1.83274E+01-2.40945E-02 1.26990E-02 1.51162E-01-1.20539E-01-1.02182E-01
 -1      6199-1.99905E+01-3.63992E-02 1.81461E-02 7.70399E-02-1.06639E-01-2.00377E-01
 -1      6200-1.68896E+01-2.00945E-02-3.55899E-03 1.84759E-01-1.78972E-01-1.32224E-01
 -1      6201-2.20905E+00-7.78637E-01-1.11745E+00-2.08178E-02-5.74413E-03 9.02954E-01
 -1      6202-2.80908E+01-1.55170E+00 7.53628E-03 1.58101E-02 1.61359E-02 1.18724E-01
 -1      6203-1.97015E+01-7.26129E-01 2.79371E-02 1.65495E-02-8.61779E-04 2.22114E-01
 -1      6204-2.87562E+01-9.74827E-01-7.64355E-04 1.47109E-02 1.30496E-04 2.31121E-02
 -1      6205-2.77505E+01-3.52178E-01 1.96877E-01-2.84561E-01-2.31688E-02-4.03869E-01
 -1      6206-8.66160E+00 7.82146E-02 7.29975E-02-6.04076E-02 2.56620E-01 2.27454E-01
 -1      6207-5.04374E+00 4.71447E-01 4.93380E-02-1.91382E-01 1.36123E-01 2.73144E-01
 -1      6208-1.70535E+01-3.76614E+00-2.76252E+00-2.13812E+00-3.41881E-01-3.61681E-01
 -1      6209-1.35662E+01-3.54434E+00-3.38552E+00-2.18731E+00-2.28385E-01-1.18434E+00
 -1      6210-5.70384E+00 9.97749E-01 1.30283E-02-8.58298E-02-4.75296E-02-2.15195E-02
 -1      6211-1.40411E+01 3.23857E-01 4.43532E-02-5.65189E-02-5.67017E-02-2.62839E-02
 -1      6212-4.95324E+00-5.34783E-01-3.63798E-01 3.94000E-01 2.31500E-01 1.64170E-01
 -1      6213-5.48640E+00 2.34191E-01 6.45300E-02-4.61022E-02 2.14575E-01 3.54504E-01
 -1      6214-2.68954E+01-5.01453E-01 2.41694E-02-2.15521E-01-8.84114E-02-1.48803E-02
 -1      6215-2.83051E+01-5.58750E-01-1.09025E-02-1.80839E-01-1.09913E-01 6.01407E-03
 -1      6216-5.23165E+00 1.23267E+00 1.24551E-01-5.41719E-03 4.81154E-02 1.48634E-01
 -1      6217-5.17196E+00 1.10407E+00 9.66524E-02 2.81586E-03 7.35262E-02 1.35208E-01
 -1      6218-1.10518E+01 7.91386E-01 2.34811E-01-8.07023E-03 7.00000E-02 1.97874E-01
 -1      6219-2.16554E+00-7.70156E-01-1.14502E+00-1.13226E-01 9.16282E-04 8.55346E-01
 -1      6220-3.43118E+00-3.07585E-01-2.75812E-01-6.36817E-02 5.62526E-02-3.79031E-01
 -1      6221-2.26123E+01-5.77390E-01 2.99799E-04 7.21596E-02 1.06742E-01-8.97978E-02
 -1      6222-3.81093E+00 9.93101E-02 2.65971E-02 3.16408E-01 1.08076E-01 3.92077E-01
 -1      6223-1.04204E+01-2.17815E-02 1.13181E-01 2.48482E-02 3.02379E-01 5.93783E-01
 -1      6224-2.29653E+01-3.27160E-01 1.13291E-01-1.08055E-01 8.26021E-02 9.53790E-02
 -1      6225-3.98110E+00 1.09689E-01-9.86879E-03-2.62083E-02 6.32150E-02-4.61394E-01
 -1      6226-1.29318E+01-1.68286E+00-3.25450E-02-1.05269E-01 7.49920E-02-7.61390E-01
 -1      6227-8.03903E+00-2.96686E-01 6.53577E-02-8.29901E-03 2.04488E-02-5.53188E-01
 -1      6228-4.33909E+00 3.57519E-01 3.71009E-02 3.08244E-02-2.73926E-02-4.65064E-01
 -1      6229-1.31529E+01-1.37853E+00 6.85443E-02 4.24378E-02-6.57085E-02-7.62594E-01
 -1      6230-9.09551E+00-9.92184E-01-6.17205E-02-1.53057E-02-1.76135E-02-7.34279E-01
 -1      6231-5.25848E+00 1.35995E-01 3.88656E-03 2.44618E-01 8.05196E-02 2.77527E-02
 -1      6232-3.97364E+00 6.40931E-02 1.00718E-02 1.10825E-01 1.15584E-02 3.59732E-02
 -1      6233-5.17886E+00 1.21356E-01 5.60984E-02 1.37819E-01 9.48628E-02 5.25252E-02
 -1      6234-1.48039E+01 8.36477E-01 9.22288E-01 6.41671E-02-1.14163E-01 9.26010E-01
 -1      6235-4.99300E+00 1.86151E+00 1.11657E-01 1.58163E-01-6.29771E-02 1.04162E+00
 -1      6236-2.25700E+01-1.92269E-01 8.71376E-02-2.56966E-01-1.39649E-01-4.97432E-02
 -1      6237-2.94321E+01-5.48527E-01 5.54617E-03-2.87166E-01-7.58803E-02-1.37808E-02
 -1      6238-2.39926E+01-3.18454E-01 2.63217E-02-2.39861E-01-1.42080E-01-9.60533E-03
 -1      6239-1.52977E+01 3.42309E-01 5.10996E-01 2.27923E-02 1.90327E-01 1.43421E-01
 -1      6240-1.36072E+01 6.88609E-02 2.76199E-02-2.62435E-01-2.10601E-01 4.87367E-02
 -1      6241-1.33461E+01 4.04778E-02-1.21431E-04-1.68522E-01-1.19706E-01 1.30264E-01
 -1      6242-1.66698E+01-5.05335E-04 1.08798E-02-1.54506E-01-1.52241E-01 9.48869E-02
 -1      6243-1.33458E+01 9.93893E-02 7.08113E-02-1.98954E-01-1.84752E-01 4.79085E-02
 -1      6244-1.31601E+01 3.94021E-02 2.44291E-02-9.86289E-02-9.73922E-02 9.54605E-02
 -1      6245-1.00494E+01 1.22793E-01 3.14530E-02-2.26272E-01-1.53818E-01 6.40671E-02
 -1      6246-2.71551E+01-7.20477E+00-2.17738E+00 2.35110E+00 4.09357E-01 1.23930E+00
 -1      6247-2.15568E+01-6.07359E+00-4.17085E+00 1.77174E+00 2.79138E-01 1.27921E+00
 -1      6248-1.35414E+01-4.13336E+00-2.98656E+00 4.43436E-01-4.88710E-02-1.99496E-01
 -1      6249-1.36207E+01 3.94189E-02-5.64756E-03-1.57425E-01 1.14977E-01-1.36972E-01
 -1      6250-5.61236E+00-1.40255E-01-4.26974E-01 3.08032E-01 3.66728E-01-2.37747E-01
 -1      6251-5.42425E+00-4.18609E-01-5.93003E-01 4.81649E-01 3.08945E-01-2.35817E-01
 -1      6252-1.11172E+01-1.66238E+00-9.71140E-01 1.09527E+00 4.96137E-01-3.02984E-01
 -1      6253-1.86280E+01-5.45118E+00-3.25994E+00 7.14498E-01-1.41168E-01-4.97050E-01
 -1      6254-2.07134E+01-2.25931E+00 1.03808E-01 4.33683E-03-3.33951E-03-4.82758E-01
 -1      6255-2.88578E+01-3.79565E+00 1.13885E-01-8.61293E-02 1.67801E-02-3.74214E-02
 -1      6256-2.34228E+01-2.75667E+00 1.86821E-01 1.81207E-01-7.10226E-02-3.93341E-01
 -1      6257-8.19863E+00 1.84086E-01 2.63913E-02-2.39317E-01 1.25429E-01-2.47183E-02
 -1      6258-5.23184E+00 1.53747E-01 1.69390E-03-2.72874E-01 9.95399E-02-4.62530E-02
 -1      6259-2.85901E+01-1.68067E-01 6.68198E-02 3.93600E-01-6.80420E-02 1.03874E-01
 -1      6260-2.42483E+01-2.77172E-02 2.01177E-01 1.71439E-01-7.50643E-02 2.47895E-01
 -1      6261-2.90164E+01-9.14633E-02 2.02078E-04-2.07679E-02 2.76091E-02-9.69010E-02
 -1      6262-2.88692E+01-8.23140E-02 4.91608E-03-4.26933E-04 3.05701E-02-1.86137E-01
 -1      6263-2.85260E+01-2.10952E-01-1.36853E-02-9.08128E-02 9.37628E-02-3.89443E-02
 -1      6264-1.32430E+01 3.59951E-02-5.27383E-04-1.57209E-01-1.30542E-01 2.35513E-01
 -1      6265-1.34756E+01 3.32480E-02-8.16015E-03-1.42349E-01-1.63115E-01 3.65428E-01
 -1      6266-1.38852E+01-1.95856E-02 5.84647E-02-2.17381E-01-2.94884E-01 1.43803E-01
 -1      6267-1.05673E+01 1.13455E-01 2.69075E-02-2.70932E-01-2.18116E-01 1.23776E-01
 -1      6268-1.97335E+01-6.69177E-02 3.90287E-02 1.73951E-02 1.45286E-01 5.32906E-01
 -1      6269-1.26552E+01 1.53239E-02 6.21720E-02 1.35103E-01 1.75844E-01 5.14042E-01
 -1      6270-2.86368E+01-1.11441E-01-1.32781E-02-1.19295E+00-1.75827E-01-5.99956E+00
 -1      6271-2.46986E+00-8.53282E-01-1.14814E+00-2.07646E-01 5.89614E-02 8.75348E-01
 -1      6272-1.00158E+01 1.71941E-01 1.73815E-02 2.20751E-01 2.55163E-01-1.07117E-01
 -1      6273-9.53008E+00 1.37525E-01 2.82779E-02 2.98656E-01 2.59696E-01 6.56184E-02
 -1      6274-9.91963E+00 9.63107E-02 5.57076E-02 2.30137E-01 3.08484E-01-1.70727E-02
 -1      6275-2.29004E+01-4.00430E-01 1.08084E-02 1.56891E-01 1.51645E-01-3.13949E-02
 -1      6276-2.86613E+01-4.98519E-01 1.09858E-02-3.38799E-01 7.38973E-02-9.44211E-03
 -1      6277-2.01600E+01-1.14943E-01 3.90913E-02-2.38628E-01 1.55643E-01-1.75906E-03
 -1      6278-2.83997E+01-1.92264E-01-1.09759E-02 2.27914E-02 1.08231E-01-1.05106E-01
 -1      6279-2.84683E+01-4.10382E-01 1.49808E-02 1.68119E-01 1.41468E-01-1.19636E-01
 -1      6280-2.74101E+01-2.59822E+00 5.66554E-02-2.40423E-01 7.55063E-02-1.48702E-01
 -1      6281-2.84448E+01-3.37660E+00 1.32832E-01-4.70693E-01 1.00767E-01-1.31412E-01
 -1      6282-2.57539E+01-2.60122E+00-1.48035E-01-1.79952E+00 3.18613E-01 1.86541E-01
 -1      6283-2.88023E+01-3.14170E+00-3.33363E-01-2.56248E+00 2.65449E-01 1.82570E-01
 -1      6284-2.14860E+01-6.40865E+00-3.91661E+00 2.56887E-01 4.96663E-02 1.54414E+00
 -1      6285-2.75921E+01-6.14360E+00-6.48127E-01 1.84983E-01 2.42279E-02 9.41833E-01
 -1      6286-2.73377E+01-7.78679E+00-2.03229E+00 3.18629E-01 1.23186E-01 1.25532E+00
 -1      6287-2.36496E+01-7.47043E+00-4.68223E+00-1.43838E-01-5.89260E-02 1.91372E+00
 -1      6288-2.94877E+01-7.03535E+00-7.55208E-01-1.36227E-01-1.26929E-01 1.08097E+00
 -1      6289-1.54361E+01 1.30039E+00 1.27643E+00-2.00441E-01 2.25947E-01 2.44712E+00
 -1      6290-8.10349E+00 2.24989E+00-7.21432E-01-3.69335E-02 6.70491E-02 2.77739E+00
 -1      6291-2.75683E+01-2.26747E+00 1.19245E-01-1.50931E+00 2.37949E-01 1.19589E-01
 -1      6292-2.53249E+01-3.35974E-01 1.87943E-02-2.28023E-01-1.24339E-01 1.60351E-02
 -1      6293-2.03954E+01-4.98668E-02 3.48445E-02-2.42065E-01-1.66938E-01 2.27189E-02
 -1      6294-2.87950E+01-3.54764E-01 1.24743E-03-2.44420E-01-8.73048E-02 1.48298E-02
 -1      6295-2.45070E+01-2.05534E-01 4.08063E-02-2.86703E-01-1.29161E-01-2.47667E-02
 -1      6296-2.10381E+01-1.48689E-01 7.56923E-02-2.67697E-01-1.56456E-01-4.27249E-03
 -1      6297-1.73075E+01-2.87481E-02 4.27512E-02 1.09075E-01-2.51729E-01-2.96023E-01
 -1      6298-1.91091E+01 1.01689E-01 5.18797E-01 4.47738E-02 1.38491E-01 2.65764E-02
 -1      6299-2.82357E+01-6.98215E-01 4.71658E-02-1.63633E-01 3.35574E-02 5.58557E-02
 -1      6300-2.85754E+01-7.08728E-01 4.47049E-03-2.51764E-01 6.61839E-02-4.50780E-03
 -1      6301-2.53642E+01-3.60280E+00-1.47442E-02 8.50010E-01-1.72789E-01-1.88183E-01
 -1      6302-2.78493E+01-4.26773E+00 2.26596E-02 7.31796E-01-8.13834E-02-6.95759E-02
 -1      6303-2.80941E+01-3.43431E+00 7.16238E-02 7.32313E-01-1.33278E-01-1.10026E-01
 -1      6304-2.01127E+01-2.59331E+00 8.88588E-02 4.72684E-01-3.01116E-01-5.09763E-01
 -1      6305-5.76179E+00 1.53147E-01 5.05637E-02-2.01460E-01 9.29605E-02-3.64240E-02
 -1      6306-1.71147E+01 3.49224E-02 3.20480E-02-9.87358E-02-8.90386E-02-2.73253E-02
 -1      6307-2.26783E+01-3.10093E-01 1.19243E-01-7.39135E-02-4.46881E-02-9.80582E-02
 -1      6308-2.40292E+01-4.03130E-01 9.31583E-02-1.32092E-01-7.08474E-02-8.48150E-02
 -1      6309-5.22818E+00-3.27510E-01-1.21339E-01-2.81440E-01-2.50066E-01 3.37724E-01
 -1      6310-1.26674E+01-1.27658E+00-1.23988E-01-5.97212E-01-4.18437E-01 4.76611E-01
 -1      6311-2.76054E+01-2.49605E-01 3.87584E-04 1.15875E-01-1.52066E-01 1.53822E-01
 -1      6312-2.52117E+01-2.70169E-01 6.05514E-03 3.06762E-02-1.66862E-01 7.35276E-02
 -1      6313-2.82516E+01-5.44775E-01 4.60983E-03 2.02892E-01-1.55217E-01 4.16705E-02
 -1      6314-1.99868E+01-3.55335E-01 4.90015E-02 1.72191E-04-2.82472E-01 3.23640E-02
 -1      6315-2.24536E+01-4.16349E-01 7.91110E-04 7.84367E-02-2.98418E-01 1.31614E-01
 -1      6316-1.48542E+01-1.19211E+00-1.18279E-01-8.10657E-01 5.23687E-01-3.40953E-01
 -1      6317-5.64658E+00-3.10245E-02 3.36375E-02-7.88977E-02 2.97163E-01-3.65357E-01
 -1      6318-1.99402E+01-3.98446E+00-3.02380E+00 2.85856E+00 2.75639E-01-5.72190E-01
 -1      6319-2.47711E+01-3.60136E+00-7.74156E-01 2.43401E+00 5.07774E-01 3.45119E-01
 -1      6320-1.74086E+01 2.91899E-02 1.14247E-01-1.82849E-01 1.52962E-01-6.07647E-02
 -1      6321-1.58636E+01 1.79403E-01 2.78314E-01-1.46349E-01 1.77890E-01 2.16004E-03
 -1      6322-1.73008E+01 1.60398E-01 4.33942E-01-1.47040E-01 1.82584E-01 6.92605E-02
 -1      6323-4.85695E+00 9.17434E-01 1.87519E-01-1.08946E-01-9.90257E-02-3.00476E-01
 -1      6324-1.43609E+01 7.93792E-01 7.35842E-01 2.81341E-02-8.65998E-02 3.82070E-01
 -1      6325-5.30848E+00 1.70448E+00 2.09183E-01 1.12365E-01-4.24795E-02 4.81196E-01
 -1      6326-1.15623E+01 1.20418E+00 7.83606E-01 1.31195E-01-7.08261E-02 1.37549E+00
 -1      6327-2.91464E+01-6.45393E-01 1.46987E-03 4.42709E-02-9.39154E-02-4.85318E-03
 -1      6328-3.07461E+01-1.12015E+00 7.37608E-01-1.12384E+00 3.02048E-01 3.60408E+00
 -1      6329-2.85336E+01-3.93588E-01 1.21370E+00-1.76081E+00 7.61477E-01 4.72167E+00
 -1      6330-3.43105E+01-2.19409E+00-3.20320E+00-1.73051E+00-5.35531E-02 2.56490E+00
 -1      6331-2.84540E+01-8.42238E-01 6.20298E-01-1.25655E+00-3.44065E-01-3.34176E+00
 -1      6332-2.94256E+01-1.04150E+00-2.63451E-01-2.69641E-01-3.01156E-01-4.26688E+00
 -1      6333-3.17172E+01 1.13415E-01-3.77705E-01 1.09296E-01-7.75541E-01 4.41233E-01
 -1      6334-4.89573E+01-6.31677E-01-2.62338E-01 4.06207E-01-7.32255E-01-1.43528E-01
 -1      6335-1.97027E+01 2.12039E-01 7.50856E-01-5.72240E-02 1.04949E-01-9.98335E-02
 -1      6336-2.14079E+01 3.86966E-01 2.24893E+00-3.72366E-01 1.42093E-01-3.08075E-01
 -1      6337-1.98115E+01 4.04062E-01 1.12234E+00-6.23160E-02 1.06582E-01-2.42139E-01
 -1      6338-1.00667E+01-5.11365E-01 9.63578E-02 1.02034E-01-1.52302E-01-6.10491E-01
 -1      6339-1.07561E+01-4.57226E-01 1.26933E-01 1.57362E-01 3.00769E-01 5.24029E-01
 -1      6340-6.27418E+00 1.35907E-01 7.31615E-02 1.71999E-01-9.57361E-02-5.34241E-02
 -1      6341-4.84372E+00 1.46954E-01 1.65625E-02 2.48538E-01-8.00185E-02-4.24111E-02
 -1      6342-2.39915E+01 1.27322E-03 6.22457E-01-1.42127E-01-9.08213E-02-6.12220E-01
 -1      6343-2.18902E+01-2.80079E+00-3.75804E-02 9.29596E-01 3.52672E-01 4.68637E-01
 -1      6344-2.68108E+01-4.52124E+00-1.24115E-01 1.04945E+00 1.98171E-01 3.03522E-01
 -1      6345-2.23324E+01-4.50419E+00-6.94825E-01 1.01707E+00 3.40160E-01 9.99303E-01
 -1      6346-2.86931E+01-4.87379E-01-3.11050E-04-2.52021E-01 8.39696E-02 1.75474E-03
 -1      6347-2.35469E+01-2.69032E-01-4.49260E-03-2.14609E-01 1.49354E-01-9.08830E-03
 -1      6348-1.09932E+01 1.78099E-01 1.28754E-02-2.37498E-01 2.33039E-01 8.16012E-02
 -1      6349-2.01596E+01 5.36499E-02 3.06803E-01-9.66695E-03 4.78964E-02-9.89894E-02
 -1      6350-2.79347E+01-7.19472E-01-1.15760E-02 9.86624E-02 3.07411E-02-8.81351E-02
 -1      6351-2.52445E+01-3.31905E-01 2.69374E-01 5.42423E-02 3.41096E-02-1.79268E-01
 -1      6352-2.14311E+01 1.36667E-01 6.48018E-01 5.11787E-02 2.29201E-02-4.31304E-01
 -1      6353-2.87339E+01-5.76101E-01 3.01507E-01 7.38279E-02 1.18737E-02-3.69603E-01
 -1      6354-2.37960E+01-2.15172E-01 3.17589E-01 4.29391E-02-4.85245E-03-3.46057E-01
 -1      6355-5.16512E+00 7.21385E-01 1.02030E-02 2.04608E-01 6.04144E-02-1.62908E-01
 -1      6356-1.89972E+01-5.41121E+00-3.57653E+00-2.41696E+00-3.07049E-01 2.01132E-02
 -1      6357-2.88481E+01-1.31678E+00-6.97692E-04 5.21761E-03-1.97160E-02-5.52525E-02
 -1      6358-2.28986E+01-7.33478E-02 3.01589E-02-5.51742E-03-1.29402E-01 4.03155E-01
 -1      6359-2.29448E+01-6.15797E-02-8.39323E-03-8.68708E-02-1.09326E-01 2.56447E-01
 -1      6360-5.19213E+00 5.05971E-01 1.17571E-02-4.36139E-01 1.21046E-01 2.55807E-02
 -1      6361-5.09156E+00 3.87572E-01 1.12306E-04-4.34171E-01 1.17811E-01 1.47103E-02
 -1      6362-4.79672E+00 3.65984E-01 2.57433E-03-4.62520E-01 1.34873E-01-4.45629E-02
 -1      6363-4.65859E+00 2.35461E-01 9.28417E-03-4.47530E-01 1.23643E-01-9.22364E-02
 -1      6364-1.00752E+01 1.75927E-01 1.39311E-02-2.99233E-01 2.16680E-01-4.90628E-02
 -1      6365-1.88715E+01 1.08636E+00-1.73913E-01 4.03096E-01-6.22279E-01-2.94217E+00
 -1      6366-4.90093E+01-1.73613E+00-2.84218E+00-1.00225E+00-8.02011E-01 1.82671E-01
 -1      6367-2.09070E+01 1.53145E+00-4.35300E-01-1.04268E-01 1.80839E-01-3.23401E+00
 -1      6368-2.46209E+01 5.02688E-01 4.83434E-01-3.06463E-01 3.38410E-01-3.33371E+00
 -1      6369-2.54266E+01 3.55990E-01 1.43169E-01-4.56797E-01 5.34734E-01-3.48443E+00
 -1      6370-2.68967E+01-1.68693E-02 6.89526E-01 3.53321E-01 8.87491E-01-5.68841E+00
 -1      6371-5.23808E+00 2.73084E-01-3.07896E-03-4.21372E-01 1.13210E-01-4.45207E-02
 -1      6372-1.02077E+01 1.00142E-01 2.78465E-02-2.76521E-01 2.03325E-01-1.37115E-01
 -1      6373-3.03665E+00 9.14102E-01 1.09516E-02 5.92152E-01-4.44022E-01 6.91636E-01
 -1      6374-7.66703E+00 7.84455E-01 3.87500E-01 3.98045E-01-2.92621E-01 7.51151E-01
 -1      6375-1.36500E+01 3.57108E-01 7.10107E-01 1.64904E-01-2.13898E-01 4.73417E-01
 -1      6376-4.01815E+00 4.94696E-01 7.67271E-02 3.41304E-01-2.48406E-01 3.29168E-01
 -1      6377-9.62101E+00 3.69647E-01 4.72463E-01 2.83236E-01-4.22270E-01 7.70342E-01
 -1      6378-3.22043E+01-1.41069E+00 5.16050E-01-1.05082E+00-3.31044E-01-2.62649E+00
 -1      6379-3.51719E+01-1.65744E+00-2.76613E+00-1.85018E+00 1.37424E-01-3.06774E+00
 -1      6380-1.99170E+01-1.92579E+00 1.64662E-01 3.91415E-01-2.82727E-01-4.20306E-01
 -1      6381-2.80862E+01-2.69196E+00 6.09203E-02 6.72491E-01-1.38101E-01-8.73297E-02
 -1      6382-2.25288E+01-2.56445E+00 1.71367E-01 3.38765E-01-1.66702E-01-3.54194E-01
 -1      6383-2.74846E+01-1.30336E+00 8.01649E-03 1.58593E-02-5.67824E-02-1.03447E-01
 -1      6384-1.84906E+01-1.01789E+00 9.26954E-02-4.55160E-02-5.56048E-02 3.46973E-01
 -1      6385-1.98954E+01 2.91859E+00-6.53709E-01-4.20613E-03-4.80555E-02 3.26355E+00
 -1      6386-2.02829E+01 2.99922E+00-6.10256E-01 1.02777E-01-1.38082E-01 3.01633E+00
 -1      6387-2.21558E+01-2.81354E-01-1.60156E-01 5.62566E-01-2.96519E-01 2.12256E+00
 -1      6388-1.80913E+01-1.97930E+00-3.83894E+00 2.42492E+00 1.32412E-01 2.40275E+00
 -1      6389-1.36702E+01-1.41498E+00-3.73205E+00 1.81880E+00-1.15480E-01 2.92684E+00
 -1      6390-2.01707E+01-1.11678E+00-2.22096E+00 1.89780E+00-3.31288E-01 1.38069E+00
 -1      6391-1.87106E+01-3.94873E+00-3.66505E+00 3.30418E+00-3.49554E-01 1.12203E+00
 -1      6392-2.45437E+01-1.48950E+00-2.17631E+00 2.06095E+00-3.19114E-01 9.18587E-01
 -1      6393-1.21888E+01 9.41771E-02 1.21719E-02 1.98625E-01 2.35611E-01-1.25701E-01
 -1      6394-3.01199E+01-2.16354E+00-8.13015E-02-7.18581E-01 5.60156E-01 3.56944E+00
 -1      6395-2.81329E+01-1.24724E+00 1.39701E+00-6.28311E-01 2.11925E-01 4.46915E+00
 -1      6396-3.30203E+01-2.80064E+00-1.77467E+00-1.02998E+00-1.27138E-01 2.88940E+00
 -1      6397-1.32305E+01-4.11564E+00-3.09199E+00 7.65737E-01 2.10782E-01 7.12090E-02
 -1      6398-9.11930E+00-2.59029E+00-1.70338E+00 4.45449E-01 1.86049E-01-5.01828E-01
 -1      6399-1.25880E+01-3.86055E+00-3.02424E+00 1.08007E+00 1.86715E-01-1.86103E-01
 -1      6400-8.59920E+00-2.44290E+00-1.69114E+00 7.03504E-01 2.32044E-01-7.52878E-01
 -1      6401-1.11935E+01-2.22065E+00-8.81137E-01 6.27470E-01 3.26098E-01 4.46897E-01
 -1      6402-2.53313E+01-3.65919E-01 6.47248E-03-4.46524E-02-1.63431E-01 3.63499E-02
 -1      6403-2.77157E+01-3.41876E-01-1.03925E-02-7.81751E-02-1.12428E-01 4.73718E-02
 -1      6404-2.75740E+01-2.04474E-01-7.03058E-03-2.69764E-04-1.06733E-01 7.35753E-02
 -1      6405-2.05140E+01 4.09222E-01 2.25097E+00-1.14503E-01 5.42798E-02 2.60239E-01
 -1      6406-5.14034E+00-9.65506E-01-5.98082E-01 2.85735E-01 1.29710E-01 1.66584E-01
 -1      6407-2.58026E+00-9.95807E-01-1.16925E+00 2.80026E-01 8.58861E-02-9.80119E-01
 -1      6408-4.60675E+00-8.06759E-01-5.41656E-01 4.46667E-01 2.05163E-01-3.98589E-02
 -1      6409-5.32646E+00 4.53105E-01 5.05391E-02-6.54626E-02 1.11276E-01-8.11967E-02
 -1      6410-5.71253E+00 3.00007E-01 6.52315E-02-1.11072E-01 9.16716E-02-4.37305E-02
 -1      6411-7.76160E+00 7.67454E-01 3.86327E-01 3.79485E-01 2.82967E-01-7.01801E-01
 -1      6412-7.65261E+00 1.25422E+00 5.69187E-01 4.39994E-01 2.42577E-01-8.18434E-01
 -1      6413-3.58396E+00 1.55252E+00 1.51578E-01 5.62290E-01 3.19574E-01-9.09799E-01
 -1      6414-3.84012E+00 1.91379E+00 8.98268E-02 5.17914E-01 3.22264E-01-1.00706E+00
 -1      6415-9.11871E+00 5.56145E-02 7.13818E-03-1.78647E-01-1.14418E-01 2.43069E-01
 -1      6416-9.41831E+00 3.98723E-02 9.75420E-03-1.47693E-01-1.38535E-01 3.72831E-01
 -1      6417-1.44593E+01 3.67594E-01 7.34439E-01 5.36322E-01 5.87095E-01-1.37044E+00
 -1      6418-7.30783E+00 1.65517E+00-1.77996E-01 1.16052E+00 1.43911E+00-2.73817E+00
 -1      6419-8.61748E+00 1.78861E+00-3.99577E-01 9.79253E-01 1.11589E+00-3.20606E+00
 -1      6420-9.36779E+00 1.18361E+00-2.58294E-02 6.33128E-01 6.38476E-01-1.92310E+00
 -1      6421-2.32061E+01-4.68703E-01 1.11031E-02 1.36209E-01-1.06624E-01 4.90104E-02
 -1      6422-5.29663E+00 7.26954E-01 4.62937E-03-2.31746E-01-6.71849E-02-1.32863E-01
 -1      6423-5.48170E+00 7.05566E-01 2.37054E-03-3.14966E-01-1.09299E-01-8.46511E-02
 -1      6424-5.08098E+00 6.44227E-01 1.52959E-02-2.98621E-01-1.34045E-01-1.07722E-01
 -1      6425-2.42399E+01 1.58883E+00 6.02391E-01 1.65904E-02 2.22031E-02-3.42957E+00
 -1      6426-1.49088E+01-2.20853E+00-1.79579E-01 4.37099E-01-2.82437E-01-7.35012E-01
 -1      6427-4.91180E+00-9.81818E-01-6.27771E-01-2.34718E-01-1.27486E-01 1.69589E-01
 -1      6428-8.83152E+00-2.55626E+00-1.66172E+00-4.04432E-01-1.69833E-01-5.24610E-01
 -1      6429-2.41015E+00-9.44246E-01-1.14057E+00-2.81208E-01-8.25343E-02-9.63161E-01
 -1      6430-4.73902E+00-6.90932E-01-4.16272E-01-4.10347E-01-1.92751E-01 1.53728E-01
 -1      6431-8.77458E+00-2.31315E+00-1.49045E+00-6.65045E-01-2.54846E-01-5.45308E-01
 -1      6432-1.11937E+01-2.09026E+00-7.59034E-01-5.51510E-01-3.24127E-01 5.94085E-01
 -1      6433-8.37890E+00 2.80236E-01 4.20070E-03-3.43313E-01-1.77599E-01 9.12708E-03
 -1      6434-4.58052E+00 5.24169E-01 1.96096E-01-2.75622E-01 2.23749E-01 5.27351E-01
 -1      6435-7.95323E+00 4.96646E-01 3.32619E-01-1.73585E-01 2.11068E-01 2.96428E-01
 -1      6436-1.35117E+01 4.87214E-01 5.84520E-01-1.60351E-01 2.69101E-01 4.74127E-01
 -1      6437-9.88626E+00 6.19811E-01 4.78083E-01-3.26705E-01 3.73113E-01 8.56524E-01
 -1      6438-2.38047E+01-1.28740E+00 1.70259E-02-2.07596E-02 4.94070E-02-2.00346E-01
 -1      6439-1.72544E+01-4.57609E+00-2.33485E+00 1.19523E+00 2.46148E-01 2.48458E-01
 -1      6440-1.62261E+01-3.17344E+00-1.02953E+00 7.05996E-01 2.00343E-01 7.17032E-01
 -1      6441-1.55627E+01-2.86846E+00-1.07754E+00 9.93752E-01 4.77292E-01 4.62213E-01
 -1      6442-5.37781E+00 6.95530E-01-1.70320E-02 3.01869E-01-8.27529E-02 8.91100E-02
 -1      6443-1.05247E+01 1.88186E-01 2.19947E-02 1.78538E-01-2.20349E-01 1.45516E-01
 -1      6444-5.20220E+00 5.93771E-01 2.11529E-02 3.60889E-01-1.45269E-01 6.50565E-02
 -1      6445-5.21207E+00 6.84204E-01-8.82281E-03 3.65035E-01-9.96134E-02 5.53415E-02
 -1      6446-1.03886E+01 1.89654E-01 9.20995E-03 2.54155E-01-2.42407E-01 7.76372E-02
 -1      6447-1.05003E+01 2.76830E-01 1.37466E-02 2.16739E-01-1.77130E-01 1.26511E-01
 -1      6448-1.03001E+01 1.04149E+00 3.05607E-01 2.58124E-02 4.28940E-02-4.44325E-01
 -1      6449-5.60708E+00-2.14601E-01-4.75025E-01-4.28333E-01-3.76579E-01-1.85670E-01
 -1      6450-2.59042E+00 1.97694E+00-2.14093E-01 5.36499E-01 8.10646E-01-5.23159E-01
 -1      6451-3.99064E+00 1.95544E+00-8.21532E-01 4.85360E-01 5.57231E-01-1.02157E+00
 -1      6452-2.80693E+01-2.17600E+00 3.48062E-02-2.48261E-01-7.28834E-02 1.27056E-01
 -1      6453-2.84202E+01-2.91966E+00 6.93160E-02-2.09613E-01-4.60394E-02 1.50296E-01
 -1      6454-2.69615E+01-4.23560E+00-1.15687E-01 1.40591E+00 2.83585E-01 1.82924E-01
 -1      6455-2.83737E+01-3.47902E+00 1.28943E-01 1.23117E+00 2.03090E-01-8.25695E-02
 -1      6456-2.77033E+01-7.80884E+00-2.05852E+00 6.06039E-01 7.27397E-02-1.35379E+00
 -1      6457-2.15997E+01-1.04160E+00 1.04678E-01-3.72693E-01 3.65401E-01-7.38228E-02
 -1      6458-2.65740E+01-6.99302E+00-1.43525E+00 2.60843E+00-9.30573E-02-7.58097E-01
 -1      6459-2.85014E+01-5.52664E+00-7.32922E-01 2.15375E+00-2.25691E-01-4.40338E-01
 -1      6460-5.35596E+00 7.31550E-01 5.85252E-03 2.34681E-01-8.05347E-02 1.19885E-01
 -1      6461-1.38030E+01-9.95649E-02 3.09701E-02 6.26129E-02-2.09231E-01 1.94912E-01
 -1      6462-1.09824E+01 3.91305E-02 4.64579E-02 7.95831E-02-1.61897E-01 2.57857E-01
 -1      6463-1.96529E+01-1.85881E-02 4.61760E-02 1.19374E-01 1.08717E-01 4.68180E-02
 -1      6464-1.92975E+01-1.40703E-01 2.77043E-01 1.39767E-01 3.27631E-01-1.10215E+00
 -1      6465-2.33682E+01-1.03595E+00-8.76946E-02 1.29340E+00 3.49022E-01-5.35333E-01
 -1      6466-7.08284E+00 1.31500E-01 9.14610E-02-3.37628E-01-2.64470E-01 9.79784E-02
 -1      6467-1.12192E+01 1.73105E-04 1.05682E-01-8.58386E-02-2.71096E-01 4.24572E-01
 -1      6468-3.69724E+00 7.42783E-02 2.99424E-02-3.41167E-01-5.59619E-02 3.42731E-01
 -1      6469-4.86323E+00 1.14330E-01 7.71513E-02-3.44815E-01-2.35479E-01 1.41961E-01
 -1      6470-8.98944E+00 3.64158E-02 1.16546E-01-7.18834E-02-2.56361E-01 5.68034E-01
 -1      6471-1.24842E+01-1.11701E-01 1.89705E-01 5.64340E-02-4.90321E-01 1.73595E-01
 -1      6472-1.07547E+01 1.10116E+00-3.93176E-01 1.09765E+00 4.69779E-01 2.14325E+00
 -1      6473-1.29555E+01 6.62496E-01-6.41784E-01 1.25944E+00 4.34934E-01 2.88834E+00
 -1      6474-1.92451E+01 6.16374E-01-3.75763E-01 7.32759E-01 8.16178E-01 3.45394E+00
 -1      6475-2.60428E+01-1.70305E-01-1.45636E+00-3.69233E-01 8.81117E-01 5.10270E+00
 -1      6476-1.78381E+01 4.41269E-01-1.47839E+00 5.73610E-01 8.98740E-01 2.59453E+00
 -1      6477-4.64684E+00 2.75095E-01 1.81455E-03 4.53340E-01 1.84251E-01 7.02213E-02
 -1      6478-1.10335E+01 1.71594E-02 1.53007E-01 1.00554E-01 3.94439E-01 2.61073E-01
 -1      6479-4.64979E+00 3.46654E-01-1.79766E-02 4.89565E-01 1.77096E-01 5.65568E-02
 -1      6480-5.07365E+00 2.15537E-02-2.94433E-02 1.90484E-01 1.99244E-01 4.14270E-01
 -1      6481-5.25283E+00-6.72774E-01-3.76464E-01 2.44820E-01 1.56029E-01 3.87168E-01
 -1      6482-4.72402E+00-4.58172E-01-3.84159E-01 4.17013E-01 2.47239E-01 1.78388E-01
 -1      6483-1.03412E+01 9.93515E-01 3.50376E-01 3.88407E-02-7.15347E-02 3.93025E-01
 -1      6484-2.01370E+01-3.78824E-02 4.89965E-02-1.31307E-01-1.00248E-01 8.24343E-02
 -1      6485-1.68865E+01 2.15007E-03 7.14816E-02-1.80972E-01-1.48180E-01 2.19393E-02
 -1      6486-2.68197E+01-5.25051E-01 4.26216E-02-2.64658E-01-7.94811E-02-1.89682E-02
 -1      6487-1.68401E+01 8.42297E-03 1.53971E-02 2.16386E-01 1.79525E-01 8.30592E-02
 -1      6488-4.78977E+00 4.13547E-01 6.04259E-02 1.22572E-01 1.41546E-01-3.09873E-01
 -1      6489-1.01374E+01-2.24659E-01 6.40921E-02-2.10204E-02 2.79641E-01-4.07489E-01
 -1      6490-4.70566E+00 2.94303E-01 5.75374E-02 8.37369E-02 1.65314E-01-3.63925E-01
 -1      6491-2.00268E+01 1.14860E-01 4.30365E-01 6.08619E-02 5.03501E-02-1.43874E-01
 -1      6492-2.76530E+01-6.09331E-01 1.05653E-01 1.38671E-01 2.20705E-02-1.24411E-01
 -1      6493-1.45906E+01-2.96950E+00-9.38126E-01-1.63336E-01 8.92535E-02-1.00216E+00
 -1      6494-1.81556E+01-1.81434E+00-3.82284E+00-2.49539E+00-2.06464E-01 2.46064E+00
 -1      6495-2.11030E+01-2.29117E+00-4.35244E+00-2.95874E+00-4.70038E-02 1.53047E+00
 -1      6496-2.45909E+01-1.14552E+00-1.75651E+00-2.03131E+00 3.05470E-01 9.60492E-01
 -1      6497-2.22458E+01-5.27645E+00-4.31108E+00-4.02657E+00 3.39604E-01 3.99896E-01
 -1      6498-1.88957E+01-3.95263E+00-3.65676E+00-3.29699E+00 3.06102E-01 1.13785E+00
 -1      6499-2.91560E+01-2.35384E+00 7.84302E-02 1.31436E+00 2.10010E-01-9.37953E-02
 -1      6500-1.60100E+01 2.62684E-02-2.49432E-03-2.32454E-01-1.87977E-01 9.28435E-02
 -1      6501-1.91414E+01-6.54722E-01 6.36426E-01 7.56460E-01 7.17343E-01-6.57742E-01
 -1      6502-5.30249E+00 2.40441E-01 6.92059E-03-4.51092E-01-1.52379E-01 1.10903E-01
 -1      6503-1.04828E+01 8.54596E-02 5.67259E-02-2.23673E-01-3.12710E-01 2.24097E-02
 -1      6504-1.63540E+01-4.62616E-02 3.80542E-02-1.12175E-01-2.69434E-01 2.92985E-01
 -1      6505-1.13802E+01-1.32190E+00-2.87960E-01 5.66882E-01-3.93441E-01-4.91028E-01
 -1      6506-1.82260E+01-1.73144E+00-1.56411E+00-2.04492E+00 4.42119E-01 4.42928E-01
 -1      6507-9.20890E+00 5.34268E-02-1.87810E-02-1.78752E-01-1.16127E-01 1.57428E-01
 -1      6508-2.41071E+01-7.70729E-01 1.44362E-02 1.27267E-02 1.57484E-01 1.01852E-01
 -1      6509-1.13496E+01 9.40263E-02 4.01152E-02-2.14682E-01 1.55476E-01-5.57273E-02
 -1      6510-3.07875E+00-1.02792E+00-1.15324E+00-4.88005E-01-1.42208E-01-1.02617E+00
 -1      6511-5.13111E+00-7.01478E-01-4.05558E-01-4.85528E-01-2.24981E-01 1.81409E-01
 -1      6512-1.80878E+01-1.92702E+00-1.58620E+00 2.05392E+00-4.72948E-01 4.35172E-01
 -1      6513-1.82039E+01-1.94938E+00-3.84730E+00-2.46494E+00 1.77202E-01-2.40785E+00
 -1      6514-1.35068E+01-1.22627E+00-3.52419E+00-1.73453E+00-7.39272E-02-2.92069E+00
 -1      6515-1.88345E+01-3.85798E+00-3.60184E+00-3.27204E+00-2.78498E-01-1.15231E+00
 -1      6516-2.01749E+01-1.12270E+00-2.21923E+00-1.79625E+00-3.68200E-01-1.42377E+00
 -1      6517-2.45461E+01-1.41583E+00-2.07785E+00-1.98082E+00-3.39228E-01-9.83083E-01
 -1      6518-1.39521E+01 1.45370E-01 5.15041E-01-3.18325E-02 2.48002E-01 1.87082E-01
 -1      6519-1.07192E+01 1.92188E-01 5.05769E-01-1.62219E-01 2.55161E-01 4.70906E-01
 -1      6520-2.82388E+01-6.78922E-01 2.41325E-02-9.42362E-02-1.40976E-01 3.46576E-03
 -1      6521-1.84659E+01-2.17514E-02 4.34600E-02 1.27268E-01-1.21132E-01-1.98786E-02
 -1      6522-1.99965E+01-4.90007E-03 2.58686E-01 1.44405E-01-9.68171E-02 1.17488E-01
 -1      6523-1.85810E+01-1.47584E+00-1.45769E+00 1.92366E+00 5.40655E-01-5.22574E-01
 -1      6524-5.12458E+00 4.05102E-01 3.10213E-02 4.36439E-01-1.55768E-01 4.15766E-02
 -1      6525-1.34646E+01 1.40210E-02 3.83781E-03 2.12055E-01-2.78759E-01 1.05567E-04
 -1      6526-4.83258E+00 1.01971E+00 2.96698E-02 8.60723E-02-3.67338E-02-1.50222E-02
 -1      6527-5.30651E+00 9.21495E-01 5.94585E-02 1.00724E-01-6.27611E-02-6.01340E-02
 -1      6528-1.02260E+01 5.52956E-01 6.08826E-02 1.27727E-01-1.17539E-01-2.72853E-02
 -1      6529-4.88840E+00 8.19007E-01 3.18109E-03 1.96661E-01-6.24525E-02 4.25186E-02
 -1      6530-9.73370E+00 6.33504E-01 3.11935E-02 1.01229E-01-7.89659E-02 1.67855E-02
 -1      6531-4.70497E+00 1.24287E+00 2.00743E-01-2.09250E-01-1.03621E-01-4.29883E-01
 -1      6532-1.05555E+01 6.96278E-01 3.51903E-01-7.81754E-02-1.68193E-01-3.72981E-01
 -1      6533-1.06653E+01 9.41491E-01 3.88663E-01-2.85518E-01-2.79823E-01-1.29838E+00
 -1      6534-2.83690E+01-8.00259E+00-2.75275E+00-2.05417E-03 1.60858E-01 1.77852E+00
 -1      6535-2.91330E+01-6.63500E+00-2.45753E-01-4.79726E-01-3.63701E-01 6.94001E-01
 -1      6536-2.72875E+01-5.27751E+00-5.95673E-01 3.37530E-02 3.95483E-03-6.35141E-01
 -1      6537-2.79464E+01-4.43709E+00 6.80244E-02 3.51402E-01-7.67510E-02-4.38948E-02
 -1      6538-4.73659E+00 4.70466E-01 7.60944E-02 6.44688E-02 1.31242E-01-3.41435E-01
 -1      6539-1.02020E+01-4.31936E-01 1.17226E-01-1.20787E-01 1.90138E-01-6.10070E-01
 -1      6540-1.93289E+01-5.28062E-02-3.35178E-02-2.07962E-01-2.03396E-01 5.16228E-02
 -1      6541-1.90233E+01-1.76935E-02 5.16678E-03-1.02170E-01-1.14616E-01 1.45385E-01
 -1      6542-1.39825E+01 1.44103E-01 1.70663E-02-2.24392E-01-1.84989E-01 9.89402E-03
 -1      6543-1.98896E+01-1.59595E-01 1.31849E-02-1.91470E-01-1.88406E-01 2.26391E-02
 -1      6544-1.98364E+01-3.45917E-02 4.59590E-05 8.26310E-02-1.26565E-01-3.16616E-01
 -1      6545-2.01128E+01-1.20645E-01-1.44542E-02 1.64178E-01-2.15926E-01-9.90690E-02
 -1      6546-1.81923E+01-1.52484E+00 6.64874E-02 7.60573E-01 4.00972E-01 2.27015E-01
 -1      6547-2.12242E+01-1.06358E+00-1.11707E+00-1.21111E+00-2.80268E-01-1.25375E+00
 -1      6548-1.81756E+01-1.72392E+00-1.58861E+00-2.01928E+00-4.26282E-01-4.78216E-01
 -1      6549-2.90445E+01-1.73078E+00-4.05650E-01-2.45918E+00-1.77498E-01-4.40926E-01
 -1      6550-2.85840E+01-4.03787E-01 1.04802E-01-1.23305E+00 9.24094E-03-1.09752E+00
 -1      6551-2.85353E+01-1.15828E+00 3.08669E-02-1.69374E+00-2.08777E-01-4.20267E-01
 -1      6552-1.54667E+01 1.45585E+00 1.42684E+00-2.14222E-01 3.58023E-01 2.61712E+00
 -1      6553-1.81448E+01 1.06745E+00 6.57710E-01-4.81690E-01 4.06258E-01 2.42324E+00
 -1      6554-4.85997E+00 5.40678E-01 1.82968E-01 1.66368E-01 1.25976E-01-2.35587E-01
 -1      6555-1.40759E+01 3.03239E-01 7.74606E-01 1.13617E-01 2.27235E-01-5.43336E-01
 -1      6556-1.07491E+01 3.29106E-01 3.42182E-01-4.00409E-02 2.13733E-01-2.03977E-01
 -1      6557-5.10661E+00 4.06967E-01 4.35304E-02 4.14344E-01 1.72950E-01-7.20979E-02
 -1      6558-4.61021E+00 3.02224E-01 6.85814E-04 4.75204E-01 1.50391E-01 8.69071E-02
 -1      6559-5.38210E+00 4.75980E-01 3.39992E-03-2.79884E-01-9.83856E-02-9.09358E-03
 -1      6560-8.28801E+00 2.75223E-01 9.56062E-03-2.82088E-01-1.35045E-01 1.54450E-02
 -1      6561-4.99199E+00 3.11435E-01-1.50318E-03-3.25354E-01-1.04565E-01 3.28855E-02
 -1      6562-1.96910E+01-4.64859E-01 3.17426E-03-3.81482E-02 9.74580E-02 1.48787E-01
 -1      6563-2.34919E+01 2.87465E-01 1.25330E+00 6.38874E-02 1.00498E-01 1.16073E+00
 -1      6564-1.07095E+01-7.31097E-01 7.48338E-02-3.21969E-01 3.20868E-01-5.62896E-01
 -1      6565-4.87471E+01-1.35372E+00-2.42997E+00 1.10521E+00 6.53522E-01 1.01961E-01
 -1      6566-1.71044E+01 6.29707E-01-3.60533E-01-3.21282E-01 4.44411E-01-1.63971E+00
 -1      6567-4.87519E+01-2.85119E-01-3.13167E-01 3.60026E-01 4.85222E-01-1.31343E+00
 -1      6568-2.08207E+01-2.00838E+00-4.54839E+00 2.74228E+00-1.05624E-01 1.73216E+00
 -1      6569-2.21342E+01-5.10145E+00-4.36256E+00 4.12370E+00-2.74259E-01 3.74423E-01
 -1      6570-2.76588E+01-3.35472E-01 3.14011E-01 2.54888E-01 6.90699E-02-4.19306E-01
 -1      6571-2.73748E+01-7.60952E+00-2.08763E+00-1.23878E-01-3.56896E-01 1.37204E+00
 -1      6572-2.34541E+01-7.52742E+00-4.89824E+00-4.12339E-01-2.46370E-01 1.89171E+00
 -1      6573-5.00075E+00 2.90171E-01-1.08085E-02-4.43807E-01-1.07120E-01 4.44692E-02
 -1      6574-3.59957E+00-3.44016E-02-8.60642E-02-6.93685E-02 3.88187E-02-4.88479E-01
 -1      6575-3.90609E+00 2.59245E-01 2.76662E-02 3.62457E-02-3.48192E-02-4.68337E-01
 -1      6576-2.42368E+01-1.21800E-01-2.99989E-02 6.96867E-02 1.20740E-01 1.51980E-01
 -1      6577-2.40930E+01-1.27867E-01-4.24257E-03 4.66458E-02 1.39206E-01 2.48471E-01
 -1      6578-2.00205E+01-7.71705E-02-6.62845E-04 9.40138E-02 1.48627E-01 2.40119E-01
 -1      6579-1.53978E+01 4.45107E-01 3.49661E-01 4.51150E-02-8.04268E-02-3.27477E-02
 -1      6580-1.67507E+01 2.72734E-01 3.22431E-01 1.21542E-01-1.23723E-01 7.73093E-03
 -1      6581-2.86098E+01-4.86138E-01 4.87576E-04-6.69419E-02 1.11613E-01-1.94399E-02
 -1      6582-2.29891E+01-3.21674E-01-1.32776E-03-1.57632E-01 1.97283E-01-9.42841E-03
 -1      6583-1.37035E+01-7.89529E-02 3.93282E-02 1.33290E-01-2.30210E-01 1.24801E-01
 -1      6584-1.68528E+01 4.23750E-01 1.05482E+00-1.10748E-01 1.39977E-01 3.46052E-01
 -1      6585-2.53669E+01-5.36298E-01 2.15018E-02 8.15336E-02-1.78852E-01 3.12682E-02
 -1      6586-2.83459E+01-7.21476E-01-2.21825E-03 5.74332E-02-1.22834E-01-8.77124E-03
 -1      6587-2.84272E+01-8.52421E-01 1.00856E-02 2.64619E-01-1.59485E-01-7.60152E-03
 -1      6588-2.29438E+01-4.75413E-01 1.49573E-02-1.92090E-02-2.26946E-01-8.66029E-03
 -1      6589-2.78689E+01-7.37357E-01 9.37190E-02-4.93878E-02-1.81336E-02-1.04168E-01
 -1      6590-1.96522E+01-2.54105E-02 1.69541E-01-2.72659E-02-2.20992E-02-9.43728E-02
 -1      6591-2.93630E+01-6.18779E-01 2.42511E-02-3.41613E-01-6.95793E-02-1.51218E-02
 -1      6592-2.44919E+01 1.87332E-01 2.35246E+00 3.80255E-01 1.56076E-02 1.38800E+00
 -1      6593-2.55702E+01 2.48164E-01 8.66014E-01-8.05808E-02-2.87699E-03 1.21039E+00
 -1      6594-1.41104E+01-6.60401E-03 4.72129E-03-1.88652E-01 2.51103E-01 6.65337E-02
 -1      6595-4.30647E+00 5.04742E-01 1.01956E-01 3.54653E-01 2.62440E-01-3.15541E-01
 -1      6596-2.81696E+01-2.67282E-01 1.23229E-01 9.65161E-01-3.64186E-02 8.48907E-01
 -1      6597-5.01320E+00 4.81656E-01 3.86424E-02 2.73655E-02 5.50533E-02-3.79920E-01
 -1      6598-1.37112E+01-1.11719E+00 1.94265E-01-6.47918E-02 6.15555E-02-6.58723E-01
 -1      6599-9.84957E+00-8.30829E-01-1.95242E-02-1.03162E-01 1.17897E-01-6.67888E-01
 -1      6600-3.19241E+01 2.46458E-01-1.75049E-01-9.14231E-02 6.31015E-01 6.07259E-01
 -1      6601-4.90368E+01-7.66020E-01-2.87966E-01-4.87550E-01 6.93465E-01 5.56633E-02
 -1      6602-1.62912E+01 3.02062E-01 2.19705E-01 8.69669E-02-9.10793E-02-8.33861E-04
 -1      6603-1.97937E+01-1.04584E-01 9.54772E-02 1.38740E-02 4.23846E-03-8.02564E-02
 -1      6604-2.80830E+01-8.31790E-01 3.81028E-02-3.45943E-03 5.68139E-03-4.81891E-02
 -1      6605-2.25693E+01-2.28656E-01 1.99216E-01-2.76844E-03 2.90557E-03-1.53782E-01
 -1      6606-3.16738E+00 9.58241E-01-2.13556E-02 6.18164E-01 4.40984E-01-7.29276E-01
 -1      6607-1.97783E+01-4.03652E-02 3.92703E-02 3.57716E-02 1.39686E-01 3.99932E-01
 -1      6608-2.38536E+01-8.98274E-02 1.66931E-02-7.82082E-03 1.10325E-01 4.01590E-01
 -1      6609-2.38561E+01-2.30092E-01-1.22699E-03 2.73986E-02 2.21393E-01 1.63727E-01
 -1      6610-1.02102E+01 4.01317E-01 5.17476E-01 2.88858E-01 4.96639E-01-9.33006E-01
 -1      6611-1.91405E+01 8.25105E-01-4.91733E-01-4.50265E-01 5.39704E-01-2.79258E+00
 -1      6612-4.70627E+01-1.80348E+00-3.13306E+00 1.84893E+00 5.39951E-01-8.86036E-01
 -1      6613-2.95700E+01 8.08518E-02 6.40145E-02 5.18062E-01 8.12442E-01-7.14570E+00
 -1      6614-1.31767E+01 1.23458E-02 2.70399E-02-2.48905E-01 2.64403E-01-1.27491E-01
 -1      6615-5.41008E+00 8.13190E-01 1.01642E-02 1.91351E-01-6.24015E-02 9.60303E-02
 -1      6616-4.81911E+00 8.27978E-01 1.08372E-02 1.54710E-01-3.74498E-02 1.33768E-01
 -1      6617-6.84323E+00 7.20601E-01 1.03119E-02-2.24982E-01 9.27349E-02 3.64664E-02
 -1      6618-1.32102E+01-3.32945E-01 1.20478E-01 1.53503E-01-4.66340E-01-1.11340E-01
 -1      6619-4.70424E+00 4.04763E-01-4.27128E-04 4.79063E-01 1.38259E-01-2.44732E-02
 -1      6620-1.36632E+01 3.26987E-02 1.22867E-02 1.36787E-01 1.08742E-01 1.31788E-01
 -1      6621-1.95660E+01-3.39763E-02-7.20257E-03 1.12759E-01 1.07400E-01 1.34246E-01
 -1      6622-1.11038E+01 4.42864E-01 3.91582E-02-1.56562E-01-1.30312E-01-1.29059E-02
 -1      6623-1.85641E+01-2.50615E+00 2.69285E-02 5.91596E-01 2.60142E-01 6.38350E-01
 -1      6624-1.41309E+01-9.27381E-03 5.44050E-02 1.26473E-01-1.74052E-01-4.83849E-01
 -1      6625-1.90079E+01-5.93657E-02 4.16220E-02 2.64543E-02-1.43380E-01-5.44553E-01
 -1      6626-2.85450E+01-5.25291E+00-4.01635E-01 1.22929E+00 1.58514E-01 3.42208E-01
 -1      6627-1.53265E+01-8.62240E-02 1.51409E-01-1.67773E-02-3.16119E-01 6.26679E-01
 -1      6628-1.31074E+01-2.50215E-02 1.40895E-01-1.41250E-02-3.11145E-01 7.85248E-01
 -1      6629-2.38669E+01-2.70905E+00 1.37065E-01-1.80920E-01 5.61937E-02-3.17069E-01
 -1      6630-4.72611E+00 2.86011E-01 1.70290E-02-2.44578E-01-8.07361E-02 3.20876E-02
 -1      6631-1.98818E+01-4.33613E+00-3.47831E+00-2.93838E+00-2.75693E-01-5.20581E-01
 -1      6632-2.38979E+01-3.82138E+00-1.07240E+00-2.42779E+00-5.23599E-01 4.29515E-01
 -1      6633-1.28659E+01 4.33603E-02 2.12880E-03-1.63143E-01 1.44646E-01-3.37495E-01
 -1      6634-1.64808E+01-5.42528E-02 2.00742E-02-1.18579E-01 2.45849E-01-2.69461E-01
 -1      6635-6.20370E+00 6.63049E-01 7.88861E-03 2.21712E-01-9.46595E-02 1.68847E-02
 -1      6636-1.11066E+01 3.47485E-01 7.64223E-03 2.06630E-01-1.52183E-01 4.34808E-02
 -1      6637-2.52640E+01-4.51980E-02 2.63214E+00-4.28716E-01 1.20698E-01 1.87802E+00
 -1      6638-2.77461E+01 3.39107E-01 1.26818E+00-1.17221E-01 7.02582E-02 2.03814E+00
 -1      6639-1.27990E+01-3.81526E+00-3.17199E+00 1.42019E+00 3.99221E-01-3.79830E-01
 -1      6640-1.59253E+01-1.25022E+00 1.47519E-01-1.09384E-01-8.39375E-02 5.20666E-01
 -1      6641-2.83350E+01-7.22039E-01-3.59438E-03-5.40367E-02-9.71035E-02-1.20032E-02
 -1      6642-2.90718E+01-1.01092E+00 2.24414E-04 6.71186E-02-9.41093E-02-4.53253E-02
 -1      6643-1.67823E+01 5.79462E-01 9.11742E-01-9.72790E-02 1.01803E-01 2.40194E-01
 -1      6644-2.08323E+01 1.55255E-01 6.74613E-01-3.86213E-02 4.49886E-02-4.30410E-01
 -1      6645-1.82381E+01 7.29626E-01 1.33815E+00-3.49511E-03 5.39283E-02 3.48123E-01
 -1      6646-2.36276E+01-5.41941E-02-9.18463E-03 9.85197E-02 9.86995E-02 1.65986E-01
 -1      6647-1.94584E+01-4.11802E-02-1.51601E-02 1.11997E-01 1.17207E-01 2.30898E-01
 -1      6648-2.30666E+01-7.71813E-01 3.86876E-03 1.80983E-02 8.81220E-02-1.35693E-01
 -1      6649-2.84586E+01-3.74661E+00-7.05090E-02-1.92484E+00 2.30144E-01-1.97026E-02
 -1      6650-4.62892E+00 3.52295E-01 5.57059E-02 2.56147E-02 1.32635E-01-3.82364E-01
 -1      6651-1.80030E+01-4.77631E-02 1.02281E-02 1.46425E-01-2.23132E-01-2.16976E-01
 -1      6652-4.94007E+00 1.19310E+00 3.26107E-02 2.60309E-02-2.60974E-02-1.52548E-02
 -1      6653-1.06904E+01 6.00550E-01 1.40512E-02 4.36151E-02-3.99475E-02 5.08379E-03
 -1      6654-2.87889E+01-9.15888E-02 2.14176E-03 7.67572E-02-3.78056E-02 1.99285E-01
 -1      6655-7.29060E+00 3.75392E-01 5.49342E-02 4.21313E-02-9.63933E-03 2.93989E-01
 -1      6656-5.64806E+00 5.72375E-01 3.38964E-02 6.63623E-02-9.03793E-02 2.45942E-01
 -1      6657-1.99486E+01-4.66420E+00-3.78829E+00 2.99875E+00-2.82668E-01 5.44248E-01
 -1      6658-1.34686E+01-4.14854E+00-3.81691E+00 1.95127E+00-2.16333E-01 9.14932E-01
 -1      6659-5.65492E+00 3.66842E-01 8.07986E-02-1.45836E-01-2.19522E-01-2.40007E-01
 -1      6660-1.08549E+01-2.03043E-01 1.04343E-01 3.70832E-02-3.82861E-01-2.55246E-01
 -1      6661-5.02687E+00 5.59092E-01 1.12446E-02-3.16939E-01-1.59564E-01-1.38783E-01
 -1      6662-1.04268E+01-8.02614E-02 9.35267E-02-4.67592E-02-2.57230E-01-3.29159E-01
 -1      6663-2.35657E+01 2.15428E-01 1.32301E+00 1.25547E-01-6.04983E-02-8.67416E-01
 -1      6664-2.77549E+01-2.05462E-01-4.50017E-02-7.87254E-02-8.99688E-04-1.08607E+00
 -1      6665-2.37694E+01 3.97952E-01 1.89248E+00-1.19512E-01-6.34900E-02-1.25643E+00
 -1      6666-6.05139E+00-6.51933E-01-6.73808E-01 6.36321E-01 2.80413E-01-4.99412E-01
 -1      6667-5.55594E+00-8.12450E-01-4.63883E-01 5.49134E-01 2.75418E-01-1.01441E-01
 -1      6668-2.82338E+01-2.48173E-01 6.76321E-02-6.03108E-01-1.80232E-02-6.55760E-01
 -1      6669-2.88049E+01-8.35385E-01 7.44985E-03-1.09212E+00-1.85804E-01-2.89541E-01
 -1      6670-1.34813E+01 8.22238E-02-2.05043E-02 2.35296E-01-2.33874E-01 1.46094E-02
 -1      6671-5.14125E+00 5.10786E-01 7.80053E-03 4.33816E-01-1.21295E-01 4.33888E-02
 -1      6672-2.86756E+01-7.78387E-01 7.36443E-02 9.27726E-01-1.87810E-01 3.00085E-01
 -1      6673-2.89571E+01-4.31447E-02 2.06792E-03 3.27097E-02 1.41879E-02 1.17430E-01
 -1      6674-2.88193E+01-5.39591E-02 1.83765E-02 9.38664E-03 2.94967E-02 1.92900E-01
 -1      6675-2.87512E+01-2.10044E-01-2.24488E-02 5.40410E-02 1.08184E-01 4.79080E-02
 -1      6676-2.83109E+01-5.12953E-01-1.29037E-02-7.04019E-02-1.09140E-01 8.90040E-04
 -1      6677-2.79593E+01-4.57959E-01 3.89133E-01 1.32333E-01 4.97225E-02-4.27299E-01
 -1      6678-2.39268E+01 1.35691E-01 1.01509E+00 2.41105E-02 2.21656E-02-1.00340E+00
 -1      6679-2.80896E+01-1.28170E-01 1.00696E-01-3.95859E-01-1.29583E-02 7.67134E-01
 -1      6680-2.82197E+01-3.63199E-01 3.48007E-02-6.36267E-01 1.26670E-01 4.06509E-01
 -1      6681-1.30355E+01 7.13669E-01 3.64601E-01-4.13048E-01 3.46909E-01 2.03689E+00
 -1      6682-1.36616E+01 5.42555E-01 3.17057E-01-4.70733E-01 4.74883E-01 1.44968E+00
 -1      6683-1.94251E+01 1.10593E-01 9.59485E-01-7.93911E-01 4.11684E-01 1.21395E+00
 -1      6684-2.27756E+01-9.09636E-02-2.73614E-03-2.04211E-01-1.57336E-01 5.47364E-02
 -1      6685-2.84991E+01-5.31994E+00-4.21154E-01 9.85013E-01-1.59840E-01-4.15221E-01
 -1      6686-2.03573E+01-3.44192E+00-3.51544E-01 7.04775E-01-2.73465E-01-7.10866E-01
 -1      6687-2.83556E+01-1.12078E+00 1.18156E-02 2.44976E-01 1.39014E-01 4.90056E-02
 -1      6688-1.59132E+01 2.32209E-01 1.24071E-01 4.13103E-02-3.31303E-02 5.55463E-02
 -1      6689-1.85342E+01 6.68641E-02 1.77485E-01 1.72017E-03 2.76070E-03 5.87236E-02
 -1      6690-1.33135E+01 4.62421E-01 7.04092E-02 1.49696E-02-6.77131E-03-3.71319E-02
 -1      6691-2.22718E+01-2.18076E-01-2.07605E-02-1.78992E-01-2.04569E-01 5.82493E-02
 -1      6692-2.33429E+01-1.93676E-01 8.53304E-03-2.13889E-01-1.56669E-01 2.66116E-02
 -1      6693-2.86867E+01-3.34788E-02 1.29527E-02 6.22333E-02 1.49800E-02-2.11384E-01
 -1      6694-2.82920E+01-1.72439E-01-1.12921E-02 9.51562E-02 1.03241E-01-1.31604E-01
 -1      6695-2.54748E+01-1.72408E+00 8.82383E-02-4.87726E-01 1.81024E-01-1.51515E-01
 -1      6696-2.77992E+01-1.78575E+00 7.45568E-02-7.20529E-01 2.29555E-01-2.99230E-03
 -1      6697-1.78786E+01-7.92678E-02 1.46451E-02 1.18489E-01 2.51938E-01 2.47980E-01
 -1      6698-1.41063E+01 1.67659E-02 6.94509E-03 1.47551E-01 1.52523E-01 2.93490E-01
 -1      6699-1.80308E+01-9.92940E-02 1.28515E-02 1.60540E-01 2.39406E-01 1.24596E-01
 -1      6700-2.35051E+01-2.32436E-02 6.34455E-01-2.55914E-01-7.66339E-02-4.63492E-01
 -1      6701-2.05669E+01 1.69707E+00-8.82792E-01 1.06882E-01-5.07503E-01-3.21714E+00
 -1      6702-2.69953E+01-2.86642E-01 3.19497E-03 2.14924E-01-1.08182E-01-2.59622E-02
 -1      6703-2.87280E+01-3.12233E-01-2.16493E-04 1.22340E-01-9.99887E-02-6.35887E-02
 -1      6704-1.18689E+01-1.88026E+00-1.15486E+00-1.23656E+00 5.13534E-01 3.22156E-01
 -1      6705-4.89457E+00 1.31172E+00 7.85920E-02 2.94757E-02-3.30633E-02 1.03900E-01
 -1      6706-5.42724E+00 1.46755E+00 1.91780E-01 6.09753E-02-4.40383E-02 3.23832E-01
 -1      6707-4.70960E+00 1.22136E+00 5.08984E-02 5.63633E-02-5.46561E-02 1.25076E-01
 -1      6708-9.73502E+00 8.44211E-01 1.52012E-01-1.30916E-02-7.63916E-02 1.50773E-01
 -1      6709-2.29009E+01-2.92713E-02 5.19514E-01 1.18705E-01 8.35122E-02-4.40417E-01
 -1      6710-1.43838E+01-5.92214E-02 1.51798E-01 1.94268E-02 2.71613E-01 7.33220E-01
 -1      6711-1.66177E+01 4.27192E-03 8.78284E-02 1.89454E-01-1.84815E-01-4.79248E-02
 -1      6712-1.63211E+01 6.31906E-02 3.06430E-02 2.41839E-01-1.70354E-01-2.08502E-02
 -1      6713-1.58723E+01-5.45590E-01 7.64265E-02-5.97938E-02 2.35701E-01-2.53219E-01
 -1      6714-1.79587E+01-7.13338E-01 5.85616E-02-2.47447E-02 1.44578E-01-2.42830E-01
 -1      6715-2.83241E+01-2.07636E-01 1.93171E-01-7.60335E-01 3.28536E-02-9.11313E-01
 -1      6716-1.41336E+01 6.66325E-01 7.85212E-01-1.99173E-01-1.79740E-01-3.96842E-01
 -1      6717-9.33938E+00 5.37431E-02 4.75395E-02-1.50859E-01-1.68683E-01 4.75127E-01
 -1      6718-5.24871E+00 1.27807E-01 2.44797E-02-4.47459E-01-1.54139E-01 1.44209E-01
 -1      6719-1.27618E+01-3.32837E-02 9.63361E-02-1.08072E-01-3.64626E-01 1.61261E-01
 -1      6720-1.32904E+01 4.34171E-01 8.42753E-02 6.04073E-02-8.24199E-02-3.81417E-02
 -1      6721-1.37835E+01 3.71710E-01 1.48344E-01 8.79550E-02-1.11186E-01-5.81946E-02
 -1      6722-1.33210E+01 2.82087E-01 8.82712E-03 1.53554E-01-1.20262E-01 5.42189E-02
 -1      6723-2.89268E+01-1.27803E+00 5.28384E-02-1.15712E+00-2.11550E-01-2.21735E-01
 -1      6724-1.85029E+01-3.51034E-02 4.32769E-02-2.16792E-01-1.73329E-01-8.66362E-03
 -1      6725-2.85569E+01-4.06256E-01 1.20641E-02 4.29217E-02 1.03678E-01-4.42430E-02
 -1      6726-1.63869E+01-8.80551E-01 1.26514E-01 2.84650E-01-2.89627E-01-3.19383E-01
 -1      6727-1.61022E+01-5.82387E-01 9.83483E-02 1.60649E-01-3.54891E-01-1.50182E-01
 -1      6728-2.63631E+01 5.34506E-01 1.17859E+00 1.55372E-01-4.90577E-02-2.68483E+00
 -1      6729-1.02560E+01 1.74873E-01-7.44739E-03 2.91092E-01 1.89331E-01 2.37799E-02
 -1      6730-2.76998E+01-3.94554E-01 4.70676E-02 5.39030E-01 1.97842E-01-2.91507E-01
 -1      6731-2.82522E+01-2.26137E-01-2.97134E-03 2.89300E-01 1.17652E-01-1.52731E-01
 -1      6732-1.91520E+01-5.47552E-01 2.12919E-02 2.46055E-02 1.57560E-01-1.82921E-01
 -1      6733-1.64306E+01 4.03960E-02 3.21473E-01 1.70506E-01 1.63687E-01-9.22047E-02
 -1      6734-5.36460E+00 8.49457E-01-1.08036E-02-1.77796E-01 5.54752E-02 5.11212E-02
 -1      6735-1.67047E+01 2.90086E-01 4.83709E-01 1.07239E-02-1.63496E-01-1.21993E-01
 -1      6736-1.73384E+01 3.52940E-01 7.07947E-01 7.88961E-03-1.58892E-01-2.18883E-02
 -1      6737-2.76601E+01-4.68192E-01 2.21527E-01-1.06758E-01 3.68693E-02 2.10060E-01
 -1      6738-2.88990E+01-4.37553E-01 3.41659E-01-5.54603E-02-4.00937E-03 6.06767E-01
 -1      6739-2.43708E+01-2.24578E+00 8.42948E-02 9.73127E-01 3.39950E-01 5.77943E-02
 -1      6740-6.26842E+00 6.40273E-01 3.32703E-01-2.46846E-01-1.78994E-01-4.30935E-01
 -1      6741-4.53472E+00 9.36221E-01 2.08067E-01-2.78844E-01-1.51930E-01-4.23910E-01
 -1      6742-5.34445E+00 1.09877E+00 8.77055E-02 5.31378E-03-4.82299E-02-1.03342E-01
 -1      6743-4.86833E+00 1.17820E+00 4.49291E-02 6.67142E-03-2.80010E-02-3.85556E-02
 -1      6744-1.48458E+01 3.90312E-02 1.65771E-01 7.88300E-02-1.14065E-01-1.73184E-02
 -1      6745-1.81797E+01 1.99324E-03 2.47685E-01 2.01508E-01-1.78291E-01 9.05482E-02
 -1      6746-4.95135E+00 1.27513E+00 9.11712E-02 9.15881E-02 6.03877E-02-1.78163E-01
 -1      6747-1.03760E+01 9.43984E-01 3.57847E-01 2.74727E-02 1.01272E-01-3.85620E-01
 -1      6748-1.40441E+01-9.59074E-03 1.97002E-01 1.40012E-02 3.28107E-01-9.56307E-01
 -1      6749-1.14962E+01-3.72592E-01-3.08596E-01 6.30305E-01 5.99160E-01-4.53231E-01
 -1      6750-1.77001E+01 5.36924E-01 1.21407E+00 3.75412E-01 2.22307E-01-9.06791E-01
 -1      6751-2.63916E+01 2.55106E-01 1.35670E+00-1.45617E-01 8.03827E-03-1.34590E+00
 -1      6752-2.83473E+01-4.10917E-01 2.34482E-01 6.09811E-04-4.58876E-02-5.43140E-01
 -1      6753-1.08640E+01-4.31892E-01-3.01752E-01 6.01239E-01-5.69211E-01 4.44362E-01
 -1      6754-1.79681E+01-7.98189E-01-7.00564E-04-6.01737E-01-5.03267E-01-1.38147E-01
 -1      6755-5.93304E+00 6.76157E-01 1.50794E-03 2.99335E-01 9.22658E-02-5.22109E-02
 -1      6756-2.84584E+01-2.42163E+00 6.36908E-02-4.54661E-01-1.32172E-01 1.12660E-01
 -1      6757-2.81644E+01-9.33970E-01 2.67580E-02 2.27832E-02 1.15771E-02-3.83274E-02
 -1      6758-2.81219E+01-1.07498E+00 1.74982E-03 2.48961E-02 2.00296E-02-4.63540E-02
 -1      6759-2.87877E+01-1.16404E+00 2.62924E-03-7.90260E-03-1.20392E-02-4.71470E-02
 -1      6760-2.33222E+01-5.24271E-01 3.45096E-02 3.91523E-03 4.46466E-04-8.33547E-02
 -1      6761-1.77355E+01-2.32792E+00-1.84585E-01-7.45213E-01-3.73405E-01 5.32179E-01
 -1      6762-1.57561E+01-1.40398E+00 1.28552E-01-3.52737E-01-3.29929E-01 4.72926E-01
 -1      6763-2.08493E+01-2.39036E+00 6.08479E-02-7.23318E-01-3.01630E-01 3.20859E-01
 -1      6764-2.47501E+01-7.58997E-01-1.13659E-01 1.09344E+00 2.60507E-01-1.20210E+00
 -1      6765-2.33758E+01-2.96859E-01 7.70191E-02 3.60498E-01 1.95102E-01-1.21913E+00
 -1      6766-1.74035E+01-3.72601E-02 4.61364E-03 2.05289E-01 2.28294E-01 1.29656E-01
 -1      6767-1.69689E+01 8.36243E-01-2.50803E-01 3.37230E-01-5.93237E-01-1.53977E+00
 -1      6768-4.89050E+01-3.14923E-01-3.50473E-01-3.08412E-01-5.24250E-01-1.28574E+00
 -1      6769-2.30490E+01-7.19356E-01 1.07403E-02 3.41743E-02 1.38663E-01-1.24544E-01
 -1      6770-2.87029E+01-1.39409E+00 2.76210E-03-1.60203E-01 8.05794E-02-8.13883E-02
 -1      6771-3.92635E+00 5.68185E-02 3.12712E-02 9.68640E-02 2.16467E-02 3.61103E-02
 -1      6772-9.52537E+00 7.62003E-02 1.62406E-01 4.25929E-02 8.72355E-02 9.13299E-02
 -1      6773-2.50082E+00-8.68616E-01-1.17274E+00 1.90199E-01-5.23932E-02 9.21494E-01
 -1      6774-2.68492E+00-1.05341E+00-1.18970E+00 2.51356E-01-4.29748E-02 9.50553E-01
 -1      6775-9.52958E+00-2.71769E+00-1.70882E+00 4.07139E-01-1.36836E-01 3.61496E-01
 -1      6776-5.49721E+00-9.70058E-01-5.62203E-01 2.52615E-01-1.25320E-01-2.64335E-01
 -1      6777-7.41073E+00 4.94288E-01 1.19236E-02 2.58956E-01 1.35995E-01-1.03461E-01
 -1      6778-8.00877E+00 7.17951E-01 4.70441E-01 2.40344E-01-2.06456E-01 5.26327E-01
 -1      6779-2.89241E+00 1.40976E+00 1.03375E-01 4.84297E-01-2.47609E-01 6.64356E-01
 -1      6780-3.72617E+00 1.16856E+00 1.08769E-01 3.63621E-01-1.58281E-01 5.40088E-01
 -1      6781-8.28889E+00 3.39675E-01 3.28654E-02-1.90803E-01-1.27326E-01 1.60167E-02
 -1      6782-5.37249E+00 5.51643E-01 1.41253E-02-1.82167E-01-9.04176E-02 3.97196E-03
 -1      6783-2.77101E+01-2.62860E-01 9.67150E-04-1.57849E-01-1.09013E-01 6.04729E-02
 -1      6784-2.83057E+01-4.16813E-01-2.40761E-03-1.62946E-01-1.06647E-01 1.87319E-02
 -1      6785-2.87992E+01-2.31952E-01 9.00249E-03-2.25864E-01-7.83051E-02 1.87074E-02
 -1      6786-3.80572E+00 8.08056E-01 1.91233E-01-4.83461E-01 2.79822E-01 6.38712E-01
 -1      6787-3.74968E+00 1.07023E+00 2.05435E-01-4.22706E-01 1.72101E-01 3.77036E-01
 -1      6788-2.02418E+01-1.14783E+00-2.24864E+00-1.83883E+00 3.55131E-01 1.39460E+00
 -1      6789-5.20324E+00 6.62150E-01 3.51173E-02 2.68333E-01 1.50693E-01-1.42879E-01
 -1      6790-2.74682E+01-1.91800E+00 2.70847E-02-7.01714E-02 3.72046E-02-1.59911E-01
 -1      6791-2.26022E+01-1.48955E+00 6.06836E-02-2.90025E-02 2.93971E-02-2.75924E-01
 -1      6792-1.71750E+01-3.17363E-01 4.05344E-02-4.45836E-02 2.67560E-01 1.36050E-01
 -1      6793-2.08131E+01-2.07023E+00-4.54500E+00-2.72586E+00-9.20308E-02-1.61120E+00
 -1      6794-2.22671E+01-5.14183E+00-4.30369E+00-4.07771E+00-2.20632E-01-3.62297E-01
 -1      6795-4.69731E+00 3.59126E-01 4.63364E-02-1.45985E-01-7.75634E-02 4.28287E-02
 -1      6796-5.38368E+00 6.21553E-01 8.17147E-03-3.21418E-01-1.11143E-01-4.08221E-02
 -1      6797-5.47477E+00 6.41510E-01 4.42450E-03-2.64223E-01-9.10007E-02-6.91193E-03
 -1      6798-3.74359E+00 6.41836E-02-2.39599E-04-2.39666E-01-2.58470E-02 1.98693E-01
 -1      6799-3.83468E+00 7.18555E-02-8.89320E-03-2.35666E-01-2.44558E-02 1.16177E-01
 -1      6800-4.92270E+00 1.49759E-01 5.99062E-03-3.78199E-01-1.00308E-01 4.94510E-02
 -1      6801-2.15203E+01-4.84539E-01 1.46194E-03 8.93999E-02-1.31020E-01 8.83079E-02
 -1      6802-2.67800E+01-8.29826E-01 2.81012E-03 9.41897E-02-9.91582E-02 3.43657E-02
 -1      6803-2.15267E+01-3.16965E-01 5.44778E-03 1.71051E-01-1.59762E-01 3.89902E-02
 -1      6804-2.79213E+01-7.33502E-01 4.57672E-02 3.29344E-02 1.09574E-02-6.68714E-02
 -1      6805-2.88193E+01-5.45431E-01 2.97680E-01-2.33174E-02-5.72755E-03-3.26773E-01
 -1      6806-2.51295E+01 3.88802E-01 5.32379E-01 5.04792E-01-2.81690E-01-3.47619E+00
 -1      6807-2.74898E+01-1.32187E-01 2.01301E+00-8.50515E-01-4.59018E-01-3.31142E+00
 -1      6808-2.41651E+01 1.73028E-01 1.06097E+00 1.98991E-01-3.55049E-01-2.25301E+00
 -1      6809-2.45021E+01 7.93579E-01 6.12057E-01 2.44648E-01-4.51987E-01-3.44664E+00
 -1      6810-5.68648E+00 2.10822E-01 6.18080E-02-8.93921E-02-2.53111E-01-2.75432E-01
 -1      6811-5.18312E+00 3.71384E-01 5.40373E-02-1.28407E-01-1.59322E-01-2.93053E-01
 -1      6812-4.80220E+00 1.52360E+00 6.90258E-02 6.72871E-02-1.90294E-02 2.06720E-01
 -1      6813-2.84645E+01-1.18737E+00 4.19263E-03 8.50704E-03-4.45996E-02 5.56485E-02
 -1      6814-2.91637E+01-1.40240E+00 2.16793E-03-4.97729E-02-5.61994E-02 6.63240E-02
 -1      6815-1.19986E+01-2.81938E+00-3.00271E+00 2.35676E+00 2.82411E-01-1.77033E+00
 -1      6816-1.56880E+01-4.28427E+00-4.06018E+00 3.10370E+00 3.52111E-01-1.23967E+00
 -1      6817-6.78334E+00 5.96078E-01 2.00009E-02-2.84268E-01 1.05021E-01 2.62196E-02
 -1      6818-5.22975E+00 5.72877E-01-1.41303E-03-3.69043E-01 1.10544E-01 2.15445E-02
 -1      6819-1.51096E+01-2.03159E-02 1.33083E-02 2.03575E-01-1.91847E-01 6.74676E-02
 -1      6820-1.65812E+01-1.40903E-01 1.91024E-02 1.23637E-01-2.58163E-01 3.63728E-02
 -1      6821-1.67141E+01-8.46962E-02 4.13020E-03 1.04464E-01 1.16685E-01-1.00947E-01
 -1      6822-1.67174E+01-7.43437E-02 6.60622E-03 7.31210E-02 6.45124E-02-1.16714E-01
 -1      6823-1.71565E+01-2.42599E-01 2.23375E-02 5.15720E-02 1.02968E-01-1.55024E-01
 -1      6824-2.81057E+01-5.66189E-01 8.87543E-02 3.10542E-01-3.73963E-02 1.01405E-01
 -1      6825-2.86971E+01-5.14038E-01 2.13895E-01 3.76437E-01-3.97304E-02 1.84515E-01
 -1      6826-5.00980E+01-1.49136E+00-1.68443E+00 7.96530E-01-5.50058E-01-2.31783E-01
 -1      6827-1.73113E+01 8.27130E-01-4.42557E-01-3.47629E-01-6.10212E-01 1.58153E+00
 -1      6828-1.35691E+01 2.74935E-02-8.38696E-03 1.43328E-01 1.12873E-01 2.28539E-01
 -1      6829-1.14957E+01 8.75102E-02 1.03217E-02 2.53157E-01 2.04669E-01 1.02687E-01
 -1      6830-2.33022E+01-6.81788E+00-4.71844E+00 2.27977E+00 3.92758E-01 1.40663E+00
 -1      6831-2.25259E+01-4.11046E+00-8.30570E-01 1.52764E+00 3.87302E-01 8.84165E-01
 -1      6832-2.86599E+01-5.55802E+00-1.55018E-01 2.41085E+00 5.92914E-01 3.12377E-01
 -1      6833-1.69120E+01-1.74309E-01 1.09939E-02 9.46222E-02-1.12180E-01 1.31492E-01
 -1      6834-1.64767E+01-4.43331E-02 9.87296E-03 1.10260E-01-1.04072E-01 7.91992E-02
 -1      6835-1.33995E+01 1.27434E-01-4.30329E-03 1.00068E-01-9.93310E-02 1.34759E-01
 -1      6836-1.02113E+01 3.83756E-01 4.96554E-04 1.71357E-01-1.25011E-01 1.14888E-01
 -1      6837-5.54049E+00-1.95030E-01-4.00548E-01 4.52280E-01-3.22354E-01 1.75347E-01
 -1      6838-8.84112E+00-5.15393E-01-2.44365E-01 4.41898E-01-3.84791E-01-1.88158E-01
 -1      6839-5.00970E+00 1.79535E-01 5.65294E-02-5.83835E-02-3.35434E-01-5.34413E-02
 -1      6840-1.74142E+01-8.87166E-02 8.86430E-03 5.17779E-02-5.88747E-02 9.06407E-02
 -1      6841-1.07120E+01 4.74469E-01 8.20064E-03 1.10202E-01-7.27434E-02 8.70034E-02
 -1      6842-1.65755E+01-1.79089E-01 4.25862E-02 8.73335E-02-3.16405E-01 4.43676E-02
 -1      6843-2.20876E+01 4.73723E-01 9.79370E-01 1.61089E+00-9.72169E-01 3.01530E+00
 -1      6844-2.02326E+01-8.77955E-02 2.13638E+00 6.93467E-01-5.07842E-01 1.18074E+00
 -1      6845-1.25797E+01 7.08043E-01-8.18655E-02 1.63831E+00-1.65397E+00 5.00685E+00
 -1      6846-1.02825E+01 1.11828E+00-3.71048E-01 1.69968E+00-1.26627E+00 4.02991E+00
 -1      6847-1.00677E+01 3.96417E-01 1.18790E+00 3.60662E-01-5.08562E-01 2.15194E+00
 -1      6848-1.82507E+01-2.55343E-01 1.12948E+00 7.51300E-01-6.28603E-01 9.66261E-01
 -1      6849-1.72171E+01-1.35991E-01 2.20282E-03 1.38462E-01 1.68297E-01-7.47659E-02
 -1      6850-1.76668E+01-2.95984E-01 1.77173E-02 8.37758E-02 1.47522E-01-1.31613E-01
 -1      6851-5.05057E+00 4.23194E-01 5.08504E-03 3.89941E-01-1.05819E-01 2.55622E-02
 -1      6852-5.96378E+00-2.97997E-01-3.99657E-01-3.60910E-01-3.65064E-01-4.48413E-01
 -1      6853-7.23552E+00-3.30281E-02 9.14028E-04 7.66607E-02-3.84350E-01-2.15752E-01
 -1      6854-1.97332E+01-2.56012E-01 1.29471E-02 1.25925E-02 1.65277E-02-8.58019E-02
 -1      6855-1.70829E+01-1.25581E-01 1.08784E-02 2.34252E-04-3.12825E-03-1.29672E-01
 -1      6856-6.84550E+00 9.30907E-02 4.87930E-02-4.77696E-02-2.59124E-01 3.45584E-01
 -1      6857-2.87855E+01-1.75438E+00 5.09572E-01-3.57719E-01-1.73309E-02 5.32757E+00
 -1      6858-3.42612E+01-3.41802E+00-3.03372E+00 4.27397E-01-1.93563E-01 3.20308E+00
 -1      6859-2.84874E+01-5.33214E-01 1.71467E-01-3.59913E-01-4.94481E-02-2.09426E-01
 -1      6860-2.84110E+01-4.10531E-01 2.84600E-01-4.88411E-01-1.25315E-02-3.46831E-01
 -1      6861-2.88202E+01-2.77935E-01 1.83563E-02-3.42050E-01-7.49452E-02 2.39652E-02
 -1      6862-2.94469E+01-4.52753E-01 9.33904E-03-3.82406E-01-5.23528E-02 3.38182E-03
 -1      6863-1.33681E+01-4.17885E+00-3.37802E+00-1.13648E+00 1.92576E-01 1.87108E-01
 -1      6864-1.86042E+01 1.43650E-01 3.30292E-01-6.98661E-02-1.00758E-01-1.49616E-02
 -1      6865-1.56285E+01 2.05080E-01 8.05703E-02-1.38386E-01-1.17283E-01-1.03088E-02
 -1      6866-2.25869E+01-2.50566E-01 1.17883E-01-1.61265E-01-9.29128E-02-8.45279E-02
 -1      6867-1.86007E+01-2.42352E-02 3.43415E-02-2.24808E-01 1.57122E-01 3.92096E-02
 -1      6868-1.68302E+01-7.82909E-01 7.67682E-02-6.56702E-02-1.72642E-01 3.45397E-01
 -1      6869-1.74562E+01-5.09195E+00-3.16939E+00 3.01151E-01 1.29633E-02 5.17855E-01
 -1      6870-1.61646E+01-3.34924E+00-1.01379E+00 2.16764E-01 1.44952E-01 9.24940E-01
 -1      6871-1.32750E+01-4.19945E+00-3.26180E+00 4.79182E-01 1.10666E-01 4.82930E-02
 -1      6872-1.91080E+01-5.87283E+00-3.65875E+00 6.52340E-01 1.24203E-01 6.36248E-01
 -1      6873-1.79279E+01-4.13655E+00-1.47443E+00 5.48433E-01 2.06935E-01 9.88774E-01
 -1      6874-1.96392E+01-2.78857E-01 2.70214E-02 6.90779E-02-2.61238E-01-2.37873E-02
 -1      6875-2.71018E+01 3.89515E-01 1.25985E+00 1.07468E-01-1.01036E-01 2.60094E+00
 -1      6876-2.51892E+01 2.85850E-01 2.87619E+00 1.12966E-01-2.74104E-02 1.72867E+00
 -1      6877-2.50375E+01 3.95336E-01 8.64793E-01-4.17286E-02 2.16197E-02 1.24317E+00
 -1      6878-2.68034E+01 2.65541E-01 1.06426E+00 2.35326E-02 1.13003E-02 2.22709E+00
 -1      6879-2.76428E+01-2.81347E-02 3.29921E+00 3.75270E-01 5.89530E-02 3.77265E+00
 -1      6880-9.56640E+00 4.89676E-02 1.06007E-02-1.43031E-01 9.97388E-02-1.02795E-01
 -1      6881-1.01534E+01 4.09859E-02 4.17628E-02-8.66721E-02 7.95451E-02-5.73518E-02
 -1      6882-2.31695E+01-7.26164E+00-4.56746E+00 1.02814E+00 4.72159E-02 1.73006E+00
 -1      6883-2.86167E+01-6.38415E+00-4.27663E-01 1.24822E+00-2.88300E-01 4.98142E-01
 -1      6884-1.72804E+01-4.92767E+00-2.80712E+00 6.72083E-03 7.95693E-03 5.02634E-01
 -1      6885-1.30959E+01-4.03456E+00-2.81490E+00 2.22055E-01 6.24170E-02 1.04522E-01
 -1      6886-2.74008E+01-1.82271E+00 2.91841E-02 1.78053E-01 7.75656E-02 1.43179E-01
 -1      6887-1.78240E+01-5.18223E-02 2.34559E-02 2.27726E-01-1.63644E-01 7.76385E-03
 -1      6888-1.69958E+01 1.32041E-01 1.27272E-01 1.41314E-01-1.43196E-01-4.31454E-02
 -1      6889-4.96896E+00 4.38660E-01 1.39497E-02-3.06468E-01-1.95005E-01-1.41314E-01
 -1      6890-1.38493E+01 1.34117E-01 8.32800E-01-1.11879E-01 1.39564E-01 2.57969E-01
 -1      6891-1.94904E+01-3.80324E-02 4.57030E-01 1.48525E-01 6.73430E-02-2.70448E-01
 -1      6892-5.66554E+00-7.77394E-01-5.82635E-01 5.09500E-01-2.85870E-01 5.46062E-03
 -1      6893-1.15705E+01-1.90250E+00-1.43494E+00 1.32372E+00-5.51709E-01 5.50267E-01
 -1      6894-2.81311E+01-1.81477E+00 1.60268E-02-2.51706E-02 5.74729E-03 1.27974E-01
 -1      6895-2.80644E+01-1.86797E+00 2.01151E-02-1.17489E-01-5.23276E-02 1.35819E-01
 -1      6896-2.91977E+01-1.70441E+00 2.14319E-03-8.44335E-02-5.02049E-02 7.70936E-02
 -1      6897-2.35072E+01-1.11132E+00 1.65306E-02-3.27920E-03-4.74195E-02 1.91019E-01
 -1      6898-7.06895E+00-7.55736E-01-2.30629E-01-2.84740E-01 1.95500E-01-5.38491E-01
 -1      6899-5.69921E+00-6.47966E-01-5.08650E-01-4.26656E-01 2.79258E-01-1.86469E-01
 -1      6900-5.00478E+00 9.48940E-01-9.77247E-03 1.47389E-01-5.82997E-02 4.58670E-02
 -1      6901-1.22023E+01-3.01160E+00-3.28370E+00 2.28638E+00-3.34936E-01 1.80673E+00
 -1      6902-1.35906E+01-6.91051E-01-1.91037E+00 1.12552E+00-4.03446E-01 1.84462E+00
 -1      6903-1.90729E+01-5.88654E+00-3.58663E+00 3.20178E-01 3.42714E-02 7.13635E-01
 -1      6904-5.69841E+00 4.50880E-01 3.34213E-02-4.06136E-01 1.52921E-01 6.20822E-02
 -1      6905-1.46398E+01 1.79852E-01 3.02524E-02 1.79830E-01-1.44256E-01 1.81904E-02
 -1      6906-9.27309E+00 6.59622E-02 2.27243E-02-1.63216E-01-9.36491E-02 9.30777E-02
 -1      6907-9.08717E+00 5.02469E-02 2.85657E-02-8.61336E-02-7.36806E-02 7.29300E-02
 -1      6908-2.59699E+01 9.57082E-01 7.72391E-01-8.72516E-02 1.68597E-01-2.89590E+00
 -1      6909-2.82616E+01-2.89238E-01 1.61296E+00 4.65820E-01 2.32679E-01-3.39712E+00
 -1      6910-1.78331E+01-3.93215E-02 3.95545E-02 3.27582E-02-2.83718E-02 7.63652E-02
 -1      6911-5.99889E+00-7.33163E-01-4.81416E-01-4.06555E-01 2.63728E-01-1.38005E-01
 -1      6912-4.99745E+00 1.42663E+00 8.87966E-02 3.98303E-02 3.90546E-02-1.65888E-01
 -1      6913-2.85239E+01-5.62433E+00-3.41721E-01 4.00582E-01 3.64654E-02 3.67861E-01
 -1      6914 1.39864E+00 3.13442E+00-1.94903E-01-2.40569E-01 5.11922E-02-4.35404E-01
 -1      6915-4.55438E+00 2.52550E+00-2.41088E-01-1.44579E-01 1.09665E-01 1.09294E+00
 -1      6916-2.67874E+01-6.79126E-01-3.62804E-03 1.31843E-01-1.17638E-01 2.83982E-02
 -1      6917-2.84745E+01-6.55037E-01 4.40295E-03 2.00291E-01-8.09043E-02 1.16862E-03
 -1      6918-6.09117E+00 3.51396E-01 5.13980E-03 3.32734E-01-1.12648E-01 3.00773E-03
 -1      6919-1.14012E+01 2.69118E-01 3.68527E-03 2.48952E-01-1.94369E-01 3.20377E-02
 -1      6920-1.02261E+01 2.10502E-01 2.21391E-03 2.82219E-01-1.90438E-01-1.00564E-02
 -1      6921-1.82084E+01-1.68140E-01-6.18144E-03 1.81887E-01-2.15586E-01 3.12831E-02
 -1      6922-2.76176E+01-1.56383E+00 3.01636E-02-4.53325E-01 1.69697E-01-6.07018E-02
 -1      6923-1.92426E+01-1.10882E+00 1.40575E-01-6.40162E-01-4.01293E-01 7.16080E-02
 -1      6924-2.33927E+01-5.28636E-01 6.68893E-02 3.18283E-01-3.14891E-01 2.08541E-01
 -1      6925-1.89033E+01-4.24268E-01 8.83648E-02 1.18193E-01-3.62594E-01 3.91996E-02
 -1      6926-1.42564E+01 2.49123E-01 3.01174E-02 8.54263E-02-7.53867E-02 5.68162E-02
 -1      6927-2.85788E+01-2.91004E-01 2.75597E-01-5.07609E-01 8.87178E-03-3.71508E-01
 -1      6928-1.83735E+01-5.02364E-02-1.16291E-03 2.20908E-01-2.00092E-01-4.49846E-02
 -1      6929-2.89938E+01-6.70250E-02 3.85771E-03-3.86457E-02-1.96396E-02 1.07139E-01
 -1      6930-2.88468E+01-6.13786E-02 1.62493E-02-1.63907E-02-2.88840E-02 1.84478E-01
 -1      6931-2.76501E+01-1.45222E-01-1.15035E-02-1.14174E-01-9.96110E-02 6.27146E-02
 -1      6932-2.30829E+01-4.55836E-02 5.84365E-03-9.76211E-02-1.11149E-01 1.68221E-01
 -1      6933-2.91457E+01-8.25187E-02-2.13918E-03-1.09307E-01 3.17884E-02-9.39021E-02
 -1      6934-2.85228E+01-5.48623E-01 4.40265E-02-4.72134E-01 1.65117E-01 2.25826E-01
 -1      6935-1.53282E+01-2.66317E-02 1.04667E-02-1.40946E-01 1.59032E-01 9.13107E-02
 -1      6936-2.42129E+01 1.25962E+00 8.11181E-01 2.03318E-02-1.28072E-01 3.42262E+00
 -1      6937-2.37811E+01 1.22187E+00 7.24467E-01-1.77939E-01-5.19220E-02 2.74598E+00
 -1      6938-1.33996E+01 2.37991E-02 1.13817E-01-1.17494E-01-2.04947E-01 6.60971E-01
 -1      6939-4.73863E+00 2.31661E+00-1.77032E-02-7.35926E-02 9.78663E-03 1.09821E+00
 -1      6940-1.38081E+01 4.54409E-01 2.11134E-01 6.26271E-02 1.08266E-01 1.16498E-01
 -1      6941-1.19673E+01 7.09213E-01 3.75517E-01 5.83762E-03 1.40867E-01 2.71304E-01
 -1      6942-1.65749E+01 4.00078E-01 4.07049E-01 3.17437E-02 1.07522E-01 9.20972E-02
 -1      6943-2.88710E+01-3.84294E-01-2.81680E-03 2.14094E-02 1.17456E-01 3.32512E-02
 -1      6944-1.87556E+01-6.44854E-02 1.42102E-01-2.11524E-02-2.07215E-01 7.13372E-01
 -1      6945-1.82657E+01-1.87775E-01 4.65739E-02 1.43196E-02-3.57956E-01 2.19921E-01
 -1      6946-1.10844E+01 6.70465E-02 4.93049E-01-6.90145E-02-1.74450E-01-4.07547E-01
 -1      6947-6.31327E+00 2.44335E-01 3.13518E-01-1.79877E-01-2.21832E-01-3.82732E-01
 -1      6948-3.57174E+00 1.07417E-01 1.83329E-01-6.63781E-02-2.01749E-02-2.37002E-01
 -1      6949-1.06257E+01 8.47288E-02 3.25541E-01 7.06991E-02-1.11653E-01-1.77877E-01
 -1      6950-6.09430E+00 1.70866E-01 1.45945E-01-2.53003E-02-1.11100E-01-1.00117E-01
 -1      6951-3.38928E+01-2.77018E+00-4.73162E-02 5.33739E-01 2.22494E-01-3.46996E+00
 -1      6952-3.46896E+01-2.93927E+00 1.27472E-01 4.05715E-01 2.27937E-02-3.94172E+00
 -1      6953-3.66268E+01-3.82018E+00-3.04091E+00 5.90447E-01-5.64154E-02-2.20739E+00
 -1      6954-3.03229E+01-1.13372E+00 1.91987E-01 4.07723E-01-2.92998E-01 4.87572E+00
 -1      6955-1.44595E+01 2.63296E-02 1.51183E-02 2.28768E-01 2.35401E-01 7.70157E-02
 -1      6956-1.08531E+01 1.16920E-01 2.36425E-02 2.92777E-01 2.49435E-01 5.16091E-02
 -1      6957-1.70511E+01 2.40647E-01 2.01728E-01 8.70323E-02 6.98954E-02-4.82856E-02
 -1      6958-2.06695E+01 3.25866E-01 3.86689E-01 1.98541E-01 1.79760E-01-3.06405E+00
 -1      6959-1.84385E+01 4.76551E-01 1.44045E-01 3.14967E-01 3.67003E-01-3.13918E+00
 -1      6960-2.00512E+01 7.71844E-01 7.83819E-01 6.17284E-01 3.41176E-01-2.65219E+00
 -1      6961-2.86034E+01-5.48174E-01-1.08259E-02-1.60717E-01 1.01722E-01-1.56667E-02
 -1      6962-2.86629E+01-6.54127E-01-8.51428E-04-2.17681E-01 7.73747E-02 3.94346E-03
 -1      6963-2.61278E+01-1.40334E-01 6.47131E-01 2.32369E-01-1.41400E-02 6.73114E-01
 -1      6964-2.20945E+01 1.95701E-01 1.51554E+00 1.20912E-02-2.79348E-02 8.36406E-01
 -1      6965-2.78387E+01-3.39777E-01 4.15017E-01 4.38077E-01 1.64463E-02 7.39070E-01
 -1      6966-2.83470E+01-4.56015E-01 1.61348E-01 4.02906E-01-4.54583E-02 4.07128E-01
 -1      6967-2.37428E+01-1.57540E-02 7.79957E-01 1.84452E-01-4.67422E-02 7.62719E-01
 -1      6968-2.23742E+01-2.13329E-01-7.61647E-04 2.05663E-01-1.73922E-01-2.11684E-02
 -1      6969-2.91317E+01-4.74722E-01-1.91783E-03 1.63192E-01-9.24717E-02-8.25327E-03
 -1      6970-2.41014E+01-2.63592E-01-4.32858E-03 1.24687E-01-1.79896E-01-7.69373E-02
 -1      6971-1.90414E+01-5.81554E+00-3.49766E+00 1.00785E+00 2.39353E-01 6.62868E-01
 -1      6972-2.80400E+01-6.69751E-01 1.92581E-02-4.11041E-01-1.64505E-01-1.49095E-01
 -1      6973-2.25550E+01-3.86370E-01-3.06560E-02-5.49839E-02-2.69344E-01-1.45814E-01
 -1      6974-9.31816E+00 1.89561E+00-3.54542E-01 4.46391E-01 5.62893E-01-3.56271E+00
 -1      6975-2.07948E+01 2.60481E-01 1.99698E+00 7.48919E-01 3.23907E-01-1.00366E+00
 -1      6976-1.23268E+01-4.38590E-01 1.16087E-01 3.05569E-02-1.37513E-01-4.75299E-01
 -1      6977-5.06068E+00 4.13797E-01 4.54199E-02-8.28591E-03-9.50362E-02-3.36493E-01
 -1      6978-5.67904E+00 9.07310E-02 5.60953E-02 7.66287E-02-3.03238E-01-3.42524E-01
 -1      6979-5.11948E+00-4.69831E-01-2.97298E-01 3.51899E-01-2.75882E-01-2.74425E-01
 -1      6980-1.11567E+01-2.33475E+00-1.30990E+00 9.45175E-01-3.84477E-01-1.13876E-01
 -1      6981-1.16937E+01-1.33352E+00-4.47812E-01 7.56920E-01-4.58206E-01-2.13109E-01
 -1      6982-1.36911E+01-8.55964E-01-1.98691E+00-1.09180E+00-3.50483E-01-1.89429E+00
 -1      6983-1.21958E+01-2.88068E+00-3.26189E+00-2.30809E+00-2.98946E-01-1.77672E+00
 -1      6984-2.64296E+01 3.80284E-01 1.40307E+00 1.20277E-01-4.49377E-02 2.08806E+00
 -1      6985-2.43524E+01 1.40469E+00 5.92945E-01 3.60825E-02-6.89797E-02 3.37241E+00
 -1      6986-2.68639E+01 5.40167E-01 1.35549E+00 5.87329E-02-3.26784E-02 2.64837E+00
 -1      6987-2.75459E+01-1.02481E-01 3.32511E+00 1.38635E-01-1.69879E-01 2.61297E+00
 -1      6988-1.70877E+01 4.28430E-02 5.72873E-02 4.17827E-02 5.63197E-02-4.00006E-02
 -1      6989-2.87769E+01-8.48519E-02 6.99532E-03-8.08692E-02 2.97704E-02 2.01505E-01
 -1      6990-2.87241E+01-2.71744E-01-3.02670E-03-6.58864E-02 1.08407E-01 5.21078E-02
 -1      6991-2.74997E+01-7.42151E+00-1.53865E+00-3.26671E-01 1.07270E-01-1.08851E+00
 -1      6992-2.75958E+01-6.19709E+00-8.35576E-01-3.33287E-01 5.58453E-02-8.36306E-01
 -1      6993-1.74038E+01-3.41238E+00-1.53370E+00 1.53521E+00 4.10364E-01 5.35719E-01
 -1      6994-6.93753E+00 3.84454E-01 2.65260E-02-9.09300E-02-5.39277E-02-2.79760E-01
 -1      6995-5.29099E+00 5.11878E-01 3.31444E-02-8.99502E-02-1.12021E-01-2.71461E-01
 -1      6996-3.08256E+01-1.10345E+00 6.75030E-01-4.06435E-02 1.43350E-01 5.16416E+00
 -1      6997-2.80133E+01-1.12996E+00-1.37924E-03 2.72368E-03 1.01610E-02 5.65482E-02
 -1      6998-2.84086E+01-1.09102E+00 2.75746E-03 4.46228E-02-3.73601E-02 4.00240E-02
 -1      6999-2.86750E+01-2.68548E-01-6.23219E-03 7.35913E-03-8.92084E-02-7.50223E-02
 -1      7000-2.32250E+01-3.21864E-01-2.40562E-03 1.55572E-02-2.26328E-01-8.04937E-02
 -1      7001-2.81843E+01-5.03927E-01 5.49901E-04-8.38737E-02-1.36112E-01-1.88752E-02
 -1      7002-2.90798E+01-4.64446E-01-1.09239E-02 4.36415E-02-9.22022E-02-1.86016E-02
 -1      7003-5.42790E+00 5.91544E-01 1.52363E-02-4.13890E-01-1.35373E-01-6.29553E-02
 -1      7004-5.05490E+00 5.08621E-01 2.73400E-02-4.12333E-01-1.61488E-01-9.11148E-02
 -1      7005-1.39123E+01 5.16930E-02 4.26407E-01 5.31740E-02 8.52527E-02-2.76700E-02
 -1      7006-1.65075E+01 4.42470E-01 3.72382E-01-2.31209E-02 3.87582E-02-1.89163E-02
 -1      7007-1.56850E+01-5.69127E-01 6.64216E-02-1.34838E-02 1.10698E-01-3.16133E-01
 -1      7008-1.70720E+01-3.30371E+00-1.17781E+00 1.12804E+00-3.44333E-01-5.88123E-01
 -1      7009-1.43784E+01-2.13007E+00-8.32288E-01 9.75576E-01-4.66032E-01-3.11334E-01
 -1      7010-1.36104E+01 7.32565E-02-1.84825E-02-2.28330E-01 2.25273E-01 1.42758E-02
 -1      7011-1.53678E+01-1.20625E+00 1.47940E-01 1.44325E-02-3.21913E-02-5.39679E-01
 -1      7012-1.03456E+01-1.61368E+00-3.63385E-01-3.55449E-01-2.15816E-01 6.90574E-01
 -1      7013-3.67194E+00-1.29866E-01-9.35961E-02-2.21347E-01-1.12458E-01 3.14220E-01
 -1      7014-1.01491E+01-1.27249E+00-1.92618E-01-5.04441E-01-3.51985E-01 6.15872E-01
 -1      7015-2.74563E+01-1.80972E+00 4.02159E-02-1.54289E-01 5.63978E-02-1.49533E-01
 -1      7016-2.86758E+01-1.59798E+00 3.58038E-03-1.16651E-01 6.58142E-02-8.76402E-02
 -1      7017-1.10428E+01-3.16568E-01 1.28346E-01 2.09922E-01-5.02031E-01-1.01922E-01
 -1      7018-1.69457E+01-5.67956E-03-1.47033E-02-2.29226E-01 2.09910E-01-4.06054E-03
 -1      7019-1.77609E+01-5.04383E+00-2.84625E+00-8.13387E-01-2.51828E-01 4.00468E-01
 -1      7020-1.78056E+01-4.97247E+00-2.69924E+00-1.16197E+00-2.10133E-01 3.50248E-01
 -1      7021-1.30402E+01-4.17689E+00-3.24468E+00-4.48719E-01-1.50121E-01 5.18601E-02
 -1      7022-1.31403E+01-4.13162E+00-3.19280E+00-7.15670E-01-1.35360E-01 2.30394E-02
 -1      7023-1.65781E+01-3.46392E+00-1.16723E+00-6.50804E-01-1.82811E-01 7.95132E-01
 -1      7024-3.46346E+00-1.38849E-01-2.61402E-01 1.79531E-02 2.65928E-02 3.39149E-01
 -1      7025-1.01402E+01-2.21911E+00-9.22989E-01 1.88689E-01 8.14959E-02 4.71550E-01
 -1      7026-9.59923E+00-1.47291E+00-4.13119E-01 1.00261E-02 4.03237E-03 6.76853E-01
 -1      7027-2.29487E+01-1.28345E-01 1.21600E-01 1.87188E-01 2.00387E-01-7.27606E-01
 -1      7028-1.89760E+01-5.78838E-02 1.22673E-01-3.82123E-02 2.22660E-01-6.06778E-01
 -1      7029-2.35605E+01-1.17378E-01 3.30552E-02 5.52213E-03 1.15904E-01-5.66010E-01
 -1      7030-2.82236E+01-2.67392E-01-1.74865E-03 9.68751E-02 9.87992E-02 4.80196E-02
 -1      7031-1.52571E+01 1.67850E-01 3.65143E-02-1.12080E-01 9.83269E-02 4.45253E-02
 -1      7032-2.32060E+01-6.02931E-01 1.09143E-02-2.91354E-03 1.54432E-02 8.86747E-02
 -1      7033-1.34636E+01-8.43102E-01 7.93152E-02-2.00930E-01 2.44152E-01-4.97972E-01
 -1      7034-5.12435E+00 1.34876E+00 1.65060E-01-9.07820E-02 5.76736E-02 2.32386E-01
 -1      7035-7.73672E-01 3.21402E+00-7.15236E-01-8.88599E-02 3.60188E-03-1.09815E+00
 -1      7036-9.64759E+00 1.68519E+00-5.31076E-01-1.54491E-01-7.92687E-02-3.07150E+00
 -1      7037-1.12597E+01 1.65271E+00-6.69642E-01 3.58125E-01 2.01548E-01-3.75915E+00
 -1      7038-2.43105E+01 1.52330E+00 6.88542E-01-1.47644E-01-1.37944E-01-3.46679E+00
 -1      7039-2.36361E+01 1.95333E+00 6.46820E-01 1.61962E-01 6.13752E-02-3.83715E+00
 -1      7040-1.76074E+01-2.99930E-01 1.82907E-02-9.93707E-02-2.18145E-01-1.10307E-01
 -1      7041-1.73949E+01-3.38652E-01 1.75836E-02-3.87134E-02-1.64196E-01-1.78013E-01
 -1      7042-1.87820E+01-6.82779E-02 4.61179E-02-3.00878E-02-1.58586E-01 5.37974E-01
 -1      7043-1.33969E+01 4.58085E-03 5.65228E-02-1.23250E-01-1.61419E-01 5.02574E-01
 -1      7044-3.20139E+01-2.03845E+00-2.91515E-01 1.32327E+00 3.29502E-01-4.61968E+00
 -1      7045-3.37856E+01-2.73720E+00-3.00906E+00 1.43558E+00 7.88295E-02-3.80883E+00
 -1      7046-5.93020E+00 3.25152E-01 9.40786E-03 4.07561E-01 1.41197E-01 5.78461E-02
 -1      7047-1.32705E+01-3.85387E+00-2.55940E+00-2.17954E-01 5.06696E-02 1.33072E-01
 -1      7048-1.97450E+01-1.02628E-01 1.13573E-01-1.28531E-01 1.17463E-01 3.80843E-02
 -1      7049-2.32434E+01-3.59689E-01 1.74142E-02-1.94725E-01 1.29610E-01 2.92194E-02
 -1      7050-1.96137E+01-2.72168E-01 2.92426E-02-3.69075E-02 4.52861E-02 9.07570E-02
 -1      7051-1.96269E+01-1.91386E-01 8.92717E-03-1.90419E-01 1.89315E-01-5.74408E-03
 -1      7052-1.65013E+01-8.53833E-02-6.22683E-03-2.03502E-01 2.07211E-01 4.41480E-02
 -1      7053-4.54936E+00 5.60706E-01 1.11998E-01 1.75214E-01-1.25322E-01 2.45210E-01
 -1      7054-6.92448E+00-7.30725E-01-2.58510E-01-2.74068E-01 1.86928E-01-5.42247E-01
 -1      7055-3.69384E+00-6.04242E-02-1.00186E-01-6.77877E-02 4.57731E-02-4.85435E-01
 -1      7056-4.51916E+00 3.64272E-01 3.60625E-02-3.76898E-02 1.12614E-01-4.08977E-01
 -1      7057-9.33349E+00-9.61580E-01-7.18780E-02-1.89339E-01 1.75905E-01-7.07844E-01
 -1      7058-2.87317E+01-6.56454E+00-4.17690E-01 5.36662E-01 4.80998E-01 5.75169E-01
 -1      7059-2.32432E+01-7.30234E+00-4.58577E+00 5.78641E-01 2.04340E-01 1.73326E+00
 -1      7060-2.78995E+01-1.29669E+00 4.15278E-02 6.60547E-01-2.21210E-01 1.57939E-02
 -1      7061-2.87043E+01-7.48324E-01 6.27702E-02 6.16277E-01-1.83349E-01 2.01835E-01
 -1      7062-2.83846E+01-8.51644E-01 2.45432E-02 4.58938E-01-1.56584E-01 2.01995E-02
 -1      7063-3.05418E+00-1.03425E+00-1.18326E+00 3.55322E-01 7.41249E-02-1.02337E+00
 -1      7064-4.95706E+00-8.65906E-01-5.87050E-01 5.23312E-01 2.24772E-01-5.43131E-02
 -1      7065-1.96308E+01-7.70103E-01 4.66123E-02-2.11282E-02-9.73556E-02 2.41312E-01
 -1      7066-1.79691E+01 8.43860E-01-2.80430E-01 4.75604E-01 6.82153E-01 1.56310E+00
 -1      7067-3.24186E+01-7.55040E-02-2.66402E+00-2.99422E-01 8.71351E-01 3.21496E+00
 -1      7068-2.80943E+01-7.77325E+00-2.60909E+00-2.07720E+00 1.66367E-02-1.42682E+00
 -1      7069-2.81217E+01-6.93875E-01-4.35338E-03-1.31094E-01 1.09588E-01 1.09390E-02
 -1      7070-2.30475E+01-3.42395E-01 6.42696E-03-1.94643E-01 1.60525E-01 2.23982E-02
 -1      7071-1.13631E+01-3.83896E+00-3.02114E+00 1.59177E-02 3.35144E-03-2.10198E-01
 -1      7072-1.44377E+01-3.16754E+00-1.20952E+00 1.51455E-02 1.05478E-02 7.39583E-01
 -1      7073-1.70077E+01 2.81954E-01 2.69581E-01-1.46475E-03 1.38536E-02-2.94727E-02
 -1      7074-2.01376E+01 7.84594E-02 3.94399E-01 1.38430E-02 8.89731E-03-8.13378E-02
 -1      7075-5.76522E+00 5.05350E-01 7.91958E-02-9.60574E-02-1.15779E-01 9.50230E-02
 -1      7076-1.43980E+01 1.92435E-01 1.13223E-01-1.54900E-01-1.84934E-01 6.56495E-02
 -1      7077-1.14349E+01 3.60428E-01 1.17872E-01-1.37268E-01-1.61062E-01 8.49598E-02
 -1      7078-1.08411E+01 2.32916E-01 1.28775E-01-1.23702E-01-1.77702E-01 1.04015E-01
 -1      7079-2.89990E+01-1.59258E+00-1.90668E-01 2.32360E+00 1.86905E-01-4.71217E-01
 -1      7080-2.77688E+01-8.41738E-01 1.54768E-02 1.35284E+00 2.01812E-01-5.09726E-01
 -1      7081-2.88651E+01-1.74867E+00-2.04463E-03 1.82766E+00 1.75065E-01-2.51002E-01
 -1      7082-2.47679E+01-2.04050E+00-1.85818E-01 1.65732E+00 3.73780E-01-3.37564E-01
 -1      7083-2.10826E+01-2.93694E-01-4.20417E-01 1.94868E-01-3.45088E-01 2.27848E+00
 -1      7084-2.20646E+01 3.28684E-01 2.08139E+00 5.44375E-01-1.46754E-01 6.02946E-01
 -1      7085-1.50106E+01-4.39482E-02 1.48611E-01-7.48313E-02 2.58804E-01-7.30200E-01
 -1      7086-1.91280E+01-1.72541E-01 1.48675E-01 1.71261E-01 2.42095E-01-8.44283E-01
 -1      7087-5.09286E+00 7.43541E-01 1.73767E-02 6.13256E-02 4.70410E-02-2.01823E-01
 -1      7088-1.26310E+01-3.99800E+00-3.31083E+00 6.65674E-01-1.81956E-01 1.33310E-01
 -1      7089-1.71094E+01-3.77839E+00-1.37781E+00 8.00185E-01-2.97458E-01-8.29923E-01
 -1      7090-1.33807E+01 3.57423E-02 1.65750E-02 1.25970E-01-1.03031E-01-4.83648E-02
 -1      7091-1.32487E+01 4.28547E-02 1.18026E-01-9.13143E-02-9.18376E-02 2.27318E-02
 -1      7092-2.02649E+01-3.10560E-02 8.09608E-02-1.18291E-01-8.81756E-02-2.12196E-02
 -1      7093-1.58411E+01-2.85237E-01 2.05697E-02-5.22873E-02-1.12152E-01-2.21884E-01
 -1      7094-1.10943E+01-1.66438E+00-2.53286E-01-1.21778E-01-9.12154E-02 7.95217E-01
 -1      7095-5.07660E+00-4.22910E-01-2.10144E-01-1.18582E-01-8.01044E-02 4.93583E-01
 -1      7096-1.82947E+01-1.04511E-01 2.47026E-02-1.57952E-01 1.24806E-01 4.29170E-02
 -1      7097-1.66866E+01 1.48424E-01 7.03951E-02-8.81903E-02 9.15498E-02-1.38499E-02
 -1      7098-3.28656E+01-2.62826E+00-1.33817E+00-6.09859E-01 2.08786E-01 1.90026E+00
 -1      7099-1.71326E+01 1.90473E-01 1.75120E-01 3.30042E-02 4.50329E-02-2.71042E-02
 -1      7100-2.80728E+01-1.13218E-01 1.03526E-01 3.85586E-01 1.10130E-02 7.63656E-01
 -1      7101-2.82628E+01-3.33731E-01 4.11914E-02 6.49179E-01-1.05318E-01 3.89647E-01
 -1      7102-3.18886E+00-3.24015E-01-4.38710E-01 6.79681E-02 1.63564E-02 2.59356E-01
 -1      7103-3.76990E+00 6.55172E-02 4.77503E-02-2.57118E-01-6.98906E-02 4.55689E-01
 -1      7104-3.74173E+00 3.42550E-02 2.62469E-02-2.69604E-01-4.66501E-02 3.72425E-01
 -1      7105-9.18685E+00-2.62172E-02 7.63507E-02-1.43423E-02-2.84397E-01 6.62045E-01
 -1      7106-4.89315E+00 1.20362E-01 1.06206E-01-2.91126E-01-2.71087E-01 1.41146E-01
 -1      7107-2.88235E+01-1.05643E+00 1.28610E-02 2.67622E-02-1.11550E-02 2.96225E-02
 -1      7108-2.26608E+01-2.44383E-01 7.96694E-02 1.86808E-01-2.86726E-01 4.05783E-01
 -1      7109-1.19548E+01-1.62185E+00-5.54886E-01-7.55923E-01 4.21311E-01-4.20130E-01
 -1      7110-1.17710E+01-9.28799E-01 7.44491E-02-3.41179E-01-3.25565E-01 5.74144E-01
 -1      7111-4.43521E+00 2.44643E-01 3.49872E-02 2.17040E-02-1.37487E-01 3.85032E-01
 -1      7112-3.50272E+01-3.71866E+00-3.64841E+00-1.53213E-01 3.74631E-02-2.81728E+00
 -1      7113-1.97116E+01-2.00665E+00 1.70054E-01 1.31647E-01-9.87219E-02-4.79739E-01
 -1      7114-1.82442E+01-1.20234E+00 1.29682E-01 1.40814E-01-1.32151E-01-3.72598E-01
 -1      7115-1.60736E+01-1.37281E+00 1.09105E-01 1.87893E-01-1.60537E-01-5.40841E-01
 -1      7116-2.92284E+00-9.49279E-01-1.08956E+00-3.69479E-01-9.77853E-02-9.52836E-01
 -1      7117-2.47886E+01 1.66601E-01 1.00937E+00 3.18186E-01-1.83494E-02 1.10960E+00
 -1      7118-2.65780E+01 3.99818E-02 6.87751E-01 5.91144E-01 2.32790E-02 1.14927E+00
 -1      7119-4.76953E+00 8.05261E-01 5.84224E-03 2.15831E-03-2.46900E-02 1.70356E-01
 -1      7120-1.20162E+01-1.91303E-01 7.41267E-02 1.43217E-02-2.99979E-02 3.70852E-01
 -1      7121-1.75927E+01-2.81984E+00-2.25457E-01 3.37352E-01-1.68565E-01-6.90754E-01
 -1      7122-2.82950E+01-9.67847E-01 9.51363E-03-8.12718E-02-4.38256E-02-2.79242E-02
 -1      7123-2.87977E+01-1.12857E+00 1.25585E-03-3.14674E-02-2.14025E-02-4.78342E-02
 -1      7124-4.84608E+00 6.54172E-02-7.10978E-02 1.06597E-01-1.99275E-01-7.93187E-01
 -1      7125-1.07025E+01-4.95574E-01-8.01934E-01-5.68685E-01-3.72105E-01-1.26887E+00
 -1      7126-1.14846E+01-2.40274E-02 6.87573E-02-2.19782E-02-3.69868E-01-1.04680E+00
 -1      7127-6.15689E+00 6.85216E-01 1.16917E+00 4.24339E-01-9.45523E-01 2.19142E+00
 -1      7128-4.62253E+00 1.26948E+00 2.66780E-01 6.53974E-01-9.70278E-01 8.96982E-01
 -1      7129-1.66647E+01 5.44043E-01 1.11063E+00-9.45453E-01 5.56333E-01 1.72064E+00
 -1      7130 1.60195E+00 3.29350E+00-8.99506E-02 1.01667E-01-2.00192E-02 2.97004E-01
 -1      7131-5.54576E+00 2.21263E+00-1.85204E-01-4.54046E-02-6.71723E-02-1.13275E+00
 -1      7132-2.77061E+01-1.96213E+00 6.18067E-02-1.07592E+00 2.39743E-01 4.98571E-02
 -1      7133-2.82355E+01-7.56178E-01 1.34065E-02-1.91020E-01 5.40197E-02 1.38830E-02
 -1      7134-1.58658E+01-2.48854E-01 2.12538E-02 5.31117E-02 1.23929E-01-2.09800E-01
 -1      7135-5.06650E+00 1.36247E+00 9.46734E-02-1.30851E-02-9.03055E-03-1.02222E-01
 -1      7136-4.92747E+00 1.27256E+00 4.55161E-02 2.35869E-02-2.77866E-02-4.05848E-02
 -1      7137-1.95438E+01 5.98534E-01 1.87008E+00 1.63377E-01 1.68247E-01 2.20807E-01
 -1      7138-7.31285E+00 1.80275E+00-1.21225E-01-4.02911E-01 3.69455E-01 1.26936E+00
 -1      7139-6.31402E+00 2.43717E+00-5.91107E-01-6.40077E-01 6.78810E-01 2.27540E+00
 -1      7140-2.07440E+00 2.57780E+00-2.26711E-01-4.83424E-01 4.91911E-01 6.01318E-01
 -1      7141-1.52501E+01-3.91229E-02-2.79147E-03 1.42302E-01-1.58544E-01 1.35903E-01
 -1      7142-1.48157E+01 8.24632E-02 4.48960E-03 1.53859E-01-1.43924E-01 7.66694E-02
 -1      7143-2.84259E+01-2.21337E-01 2.45523E-02-3.10592E-01 1.08929E-01 1.64521E-01
 -1      7144-2.84113E+01-3.43897E-01 6.05754E-02-4.96635E-01 1.79757E-01 2.60934E-01
 -1      7145-4.44485E+00 2.60733E-01 1.63792E-01-2.66871E-01 2.36264E-01 5.60156E-01
 -1      7146-4.83802E+00 2.22713E-01 1.82342E-01-6.55588E-02 1.00546E-01 1.32870E-01
 -1      7147-4.91753E+00 1.15457E+00 4.11848E-02 6.42760E-02-3.41559E-02-2.07307E-02
 -1      7148-4.96444E+00 9.64842E-01 4.08136E-03 1.52546E-01-6.08420E-02 4.38399E-02
 -1      7149-2.78718E+01-2.04074E-01 4.10846E-01-4.90303E-01 7.33771E-02 5.26232E-01
 -1      7150-2.67790E+01 1.15569E-01 1.20728E+00 1.26572E-02-2.17337E-02 1.29614E+00
 -1      7151-2.77853E+01 1.28465E-01 3.19537E-01 1.88459E-02-2.84682E-02 1.32211E+00
 -1      7152-2.45375E+01 3.49190E-01 1.99328E+00-1.81083E-02 3.03003E-02 1.53661E+00
 -1      7153-2.21207E+01-7.23473E-02 2.79485E-01-2.14392E-01-1.59975E-01-1.99151E-01
 -1      7154-1.91007E+01 1.37520E-01 5.15836E-01 2.88402E-02-1.32912E-01-1.03974E-01
 -1      7155-2.22581E+01-2.81878E-02 5.53180E-01-2.19592E-01-1.18348E-01-3.80922E-01
 -1      7156-3.11478E+00 1.82570E+00 2.72503E-02 5.14263E-01-1.92347E-01 7.00586E-01
 -1      7157-2.72033E+01 1.60411E-01 3.44895E-01 5.36126E-02-6.07027E-02 1.13388E+00
 -1      7158-4.39436E+00-7.89753E-01-5.51331E-01 3.32827E-01-1.86172E-01-8.29721E-02
 -1      7159-8.69183E+00-2.55764E+00-1.87898E+00 5.73738E-01-2.29933E-01 6.68766E-01
 -1      7160-2.86575E+01-4.87913E-01 1.19029E-01 1.09644E+00 7.51219E-03-1.10850E+00
 -1      7161-2.42529E+01 1.30977E+00 6.58534E-01 2.41112E-01 7.89788E-02-3.47008E+00
 -1      7162-2.39187E+01 1.54380E+00 2.09903E-01 1.03845E-02 1.04366E-01-3.37856E+00
 -1      7163-1.64158E+01 2.73625E-01 1.46348E-01 3.71909E-03 2.87384E-03 7.39957E-03
 -1      7164-4.74319E+00 8.37150E-01 1.01755E-02 9.55513E-02-3.99151E-02 1.62701E-01
 -1      7165-3.92135E+00 5.58025E-02 5.13942E-02 3.44234E-02 1.26849E-02 4.54496E-02
 -1      7166-5.12709E+00 1.49330E-01 1.16616E-01 2.94964E-02 9.17021E-02 9.23333E-02
 -1      7167-1.39869E+01 6.29865E-01 4.43724E-01-4.31792E-03 5.29544E-02-1.94439E-01
 -1      7168-2.75006E+01-2.69741E-01 3.68349E-01 1.64250E-01-1.99459E-03-6.36898E-01
 -1      7169-2.80542E+01-2.97667E+00 5.57063E-02 4.42497E-01-9.20635E-02-1.20269E-01
 -1      7170-2.80842E+01-3.63036E+00 6.99843E-02 4.71817E-01-8.50056E-02-1.64286E-01
 -1      7171-1.27206E+01-4.07237E+00-3.16643E+00 9.90337E-01-2.71233E-01 1.73719E-01
 -1      7172-1.87475E+01-5.53436E+00-3.22309E+00 1.04089E+00-2.23969E-01-5.00743E-01
 -1      7173-1.48469E+01 3.28528E-01 1.57482E-01-1.21874E-01-1.22355E-01 7.20281E-02
 -1      7174-1.03780E+01 6.39422E-01 9.62704E-02-6.49282E-02-1.08450E-01 8.04595E-02
 -1      7175-1.40273E+01-6.39485E-04 2.01686E-02 1.32338E-01 1.57302E-01 4.48532E-01
 -1      7176-1.58930E+01 5.85717E-01 1.28637E+00-2.48606E-01-1.97639E-01-3.48676E-01
 -1      7177-4.91415E+00-6.47043E-01-4.44979E-01-1.64089E-01-9.28296E-02 3.77067E-01
 -1      7178-3.73199E+00 9.54616E-02-5.93339E-02-1.35926E-01-9.64748E-02 4.61149E-01
 -1      7179-1.35157E+01-3.46120E+00-3.56330E+00 2.11567E+00-2.11951E-01 1.26350E+00
 -1      7180-2.79144E+01-9.10478E-01 4.95103E-02 9.63354E-01 2.22471E-01-2.97765E-01
 -1      7181-2.91586E+01-1.66689E+00 5.27140E-02 1.33343E+00 1.87839E-01-1.23804E-01
 -1      7182-7.39062E+00 4.14027E-01 1.36357E-02 3.20041E-01 1.56577E-01-1.10171E-01
 -1      7183-5.19710E+00 5.22918E-01 4.12496E-02 3.68664E-01 1.61349E-01-9.97848E-02
 -1      7184-1.26340E+01-6.17442E-02 3.82969E-02 1.11256E-01 2.60106E-01-2.00113E-01
 -1      7185-1.57682E+01-2.11712E+00-1.33822E-01 7.11093E-01 3.99805E-01 6.31080E-01
 -1      7186-1.06696E+01 5.00223E-02 9.59446E-02 8.95746E-02-9.08700E-02-7.23435E-02
 -1      7187-9.22023E+00 5.45054E-02 7.05148E-04 1.33251E-01-8.10895E-02-9.27033E-02
 -1      7188-1.90251E+01-8.32350E-01 6.39591E-02-1.77935E-02 6.50984E-02-2.68937E-01
 -1      7189-2.04069E+01 1.64502E-01 6.37723E-01-8.26068E-02-8.58702E-02-2.27577E-01
 -1      7190-1.96984E+01 3.61511E-01 1.41909E+00 1.84723E-01-1.02400E-01-5.34367E-02
 -1      7191-2.12967E+01 1.19499E-01 6.24529E-01 2.78356E-02-8.95114E-02-4.37369E-01
 -1      7192-2.97206E+01-8.70407E-02 2.02871E-01-2.61775E-01 2.38941E-02 4.05662E-01
 -1      7193-2.31876E+01-1.99955E-02 4.11429E-01-1.57781E-01 1.05679E-01 5.56173E-01
 -1      7194-1.88809E+01-2.51392E+00-4.11540E-01 1.17231E+00 5.49057E-01 3.77590E-01
 -1      7195-2.25496E+01-2.70437E+00-5.29411E-02 1.17951E+00 4.64946E-01 3.02996E-01
 -1      7196-9.66191E+00-2.14422E+00-2.13895E+00 1.43985E+00 3.18053E-01-1.71262E+00
 -1      7197-2.81354E+01-1.20610E-01-9.19471E-03 1.13968E-01 8.30741E-02 6.51091E-02
 -1      7198-4.16371E+00 1.11696E+00 1.98654E-01-3.44622E-01 1.40502E-01 3.71831E-01
 -1      7199-2.23124E+01-4.79038E+00-3.52599E+00 3.78240E+00 2.71979E-01-5.18492E-01
 -1      7200-6.16560E+00 5.58627E-01 8.72752E-03 3.20747E-01-1.14963E-01 1.34483E-02
 -1      7201-5.15477E+00 5.99563E-01-2.79353E-03 3.63451E-01-1.06369E-01 3.81290E-02
 -1      7202-1.67980E+01-4.81800E-01 3.38416E-02-1.66368E-02 5.06282E-02 2.61019E-01
 -1      7203-1.92579E+01-5.58311E+00-3.60824E+00 1.68586E+00 1.64072E-01 4.17599E-01
 -1      7204-5.69317E+00 2.11283E+00 2.88618E-01-2.89920E-02-2.08004E-02-1.04162E+00
 -1      7205-1.37305E+01-8.48208E-01-1.96803E+00-1.08916E+00 3.65834E-01 1.88772E+00
 -1      7206-1.24117E+01-1.53246E+00-8.36139E-02-3.83170E-01 3.02833E-01-7.09750E-01
 -1      7207-4.13048E+00 7.57531E-02-2.68496E-03 1.97647E-01-1.57346E-01-4.78710E-01
 -1      7208-1.09345E+01 3.91804E-03 1.05952E-01-6.16657E-03-2.97108E-01-7.13578E-01
 -1      7209-9.16656E+00-2.52233E+00-1.84626E+00 1.12369E+00 3.37546E-01-1.07019E+00
 -1      7210-2.95328E+01-8.68089E-02 1.98581E-01-2.60816E-01-2.81381E-02-4.43077E-01
 -1      7211-2.93744E+01-6.89063E-02 6.20421E-02-2.43249E-01-2.57594E-02-1.29887E-01
 -1      7212-2.29008E+01-2.40939E-02 1.99036E-01-1.55191E-01-9.71287E-02-2.08981E-01
 -1      7213-2.73241E+01-1.36811E-01 1.09309E-01-3.65729E-01-7.67760E-02-8.38584E-02
 -1      7214-2.30817E+01-1.20924E-02 4.45933E-01-1.70162E-01-8.79292E-02-6.01892E-01
 -1      7215-4.04450E+00 2.05754E+00-8.75099E-02 3.03578E-01 2.10883E-01-9.48825E-01
 -1      7216-2.00796E+00 2.83939E+00-9.61295E-01 4.58872E-01 3.13313E-01-1.53959E+00
 -1      7217-1.25736E+01 1.36188E+00-3.98325E-01 2.94662E-01 2.78592E-01-3.94599E+00
 -1      7218-6.48915E+00 1.92737E+00 2.84267E-01 1.53399E-01 1.78152E-01-1.36675E+00
 -1      7219-1.35300E+01 1.04166E+00 6.27856E-01 2.48251E-01 2.02582E-01-2.19115E+00
 -1      7220-2.84128E+01-7.97022E+00-2.39749E+00-1.10411E-02-4.91807E-02-1.45208E+00
 -1      7221-1.07452E+01 8.75897E-01-3.10433E-01 1.12800E+00-6.10730E-01-2.17984E+00
 -1      7222-1.07353E+01-4.54323E-01-7.70448E-01 5.84394E-01 3.95602E-01-1.28396E+00
 -1      7223-3.16696E+00-3.49948E-01-4.08935E-01 3.42405E-02 3.36806E-02 2.55281E-01
 -1      7224-2.88820E+01-2.75378E+00-2.14882E-01-2.41821E+00-2.49366E-01-3.15022E-01
 -1      7225-2.56837E+01-2.25809E+00-1.13760E-01-1.80391E+00-2.91844E-01-1.89880E-01
 -1      7226-2.81173E+01-3.77362E+00-3.89772E-01-2.18573E+00-2.85288E-01 2.31109E-01
 -1      7227-4.53477E+00-1.02203E-03-5.41306E-02 1.63081E-02-1.25004E-02 5.15380E-01
 -1      7228 1.71924E+00 2.97587E+00-2.94540E-01-4.36547E-01 3.15732E-01-2.13227E-01
 -1      7229-3.08527E+00-1.07264E+00-1.20087E+00 4.58405E-01 1.18889E-01-1.11365E+00
 -1      7230-8.68651E+00-2.35440E+00-1.72386E+00 8.70038E-01 2.65485E-01-9.15055E-01
 -1      7231-1.77357E+01-2.05939E-01 8.44464E-03-3.90935E-02-5.07048E-02-1.34042E-01
 -1      7232-1.76041E+01-6.63636E-01 3.87052E-02 3.89264E-03-7.38275E-02-2.93087E-01
 -1      7233-1.55509E+01-5.83707E-01 7.77135E-02 4.19959E-02-1.65979E-01-3.31205E-01
 -1      7234-1.90239E+01-1.04391E+00 7.26673E-02 2.66966E-02-5.84085E-02-3.30940E-01
 -1      7235-2.06054E+01-1.06868E+00 6.42117E-02 7.65038E-02-1.53153E-01-2.46354E-01
 -1      7236-2.57788E+01-4.68563E-01 4.25907E-02-3.89696E-01-2.38509E-01-1.86030E-01
 -1      7237-6.21269E+00-7.30678E-01-7.40912E-01-6.81417E-01 2.66380E-01 5.76391E-01
 -1      7238-6.46556E+00-1.17672E+00-7.04920E-01-6.85651E-01 3.07905E-01 2.11089E-01
 -1      7239-3.80709E+00 1.58843E+00 7.58368E-02 2.91755E-01-1.02155E-01 5.79636E-01
 -1      7240-4.44150E+00 1.27299E+00 1.20672E-01 1.66157E-01-7.09035E-02 1.73910E-01
 -1      7241-1.53681E+01-2.50248E+00-4.73745E-01-6.68346E-01-3.08848E-01 7.30706E-01
 -1      7242-4.92582E+01-3.23525E-01-3.25709E-01 2.86674E-01-5.18023E-01 1.03520E+00
 -1      7243-3.40911E+01-1.60483E-01-6.08211E-01 5.76954E-02-8.76092E-01 7.96453E-01
 -1      7244-6.90808E+00 1.47773E+00 3.58022E-01-3.26577E-01 1.87068E-01 9.99449E-01
 -1      7245-7.07854E+00 1.44381E+00 6.17100E-01-1.93312E-01 1.28968E-01 7.61732E-01
 -1      7246-1.67258E+01 2.84185E-01 2.44042E-01-6.51083E-02 8.11684E-02 1.69516E-02
 -1      7247-4.01618E+00 6.30929E-02 4.37916E-03-1.34966E-01 2.74237E-02-5.04787E-02
 -1      7248-2.36711E+01 1.43698E+00 8.83476E-01 6.82747E-02-6.32992E-02 3.39285E+00
 -1      7249-1.75434E+01 2.72334E-01 1.37612E+00-2.38478E-01-1.18406E-01-5.95552E-02
 -1      7250-1.90837E+01 7.90181E-02 9.89647E-01-7.51040E-02-2.08036E-01 3.25261E-01
 -1      7251-1.90597E+01 1.49278E-01 6.68506E-01 5.61100E-02-1.26747E-01 1.07690E-01
 -1      7252-4.23129E+00 1.96984E+00 2.34801E-01 2.54789E-01 8.77259E-02-4.89995E-01
 -1      7253-2.69645E+01-9.30118E-02 2.52100E-01-5.09930E-01 5.00372E-02 2.38587E-01
 -1      7254-2.33123E+01-1.16864E-02 7.13501E-01 2.31379E-01-1.15425E-01 6.15905E-01
 -1      7255-1.87352E+01 7.25852E-02 5.09935E-01 9.11467E-02-1.69042E-01 1.70714E-02
 -1      7256-4.76979E+00-5.93041E-01-3.97940E-01-1.13348E-01-5.56604E-02 4.08536E-01
 -1      7257-9.65817E+00-2.15585E+00-2.17335E+00-1.43341E+00 2.99144E-01 1.72375E+00
 -1      7258-2.87359E+01-1.92297E+00 1.40955E-01-1.66732E+00-2.11245E-01-2.72875E-01
 -1      7259-5.37800E+00 7.73986E-01 4.53360E-03 2.28554E-01-7.81767E-02 8.02979E-02
 -1      7260-4.95079E+00 8.72267E-01 2.78861E-03 2.29288E-01-6.70564E-02 4.31178E-02
 -1      7261-1.89720E+01 5.63531E-01 1.16545E+00 1.10230E-01-8.41320E-02 3.10159E-01
 -1      7262-3.96704E+00 3.07140E-02 4.70027E-02 4.29899E-02-8.03204E-05-4.36874E-02
 -1      7263-4.02832E+00 1.28694E-02-1.74212E-03 4.14101E-02-6.22700E-03-3.60245E-02
 -1      7264-1.07116E+01 4.80536E-02 1.35270E-01 7.46261E-02-9.57505E-02-5.80713E-02
 -1      7265-6.27887E+00 1.02941E-01 8.33777E-02 8.33644E-02-9.30346E-02-4.69843E-02
 -1      7266-5.65128E+00 1.05854E+00 3.47927E-02-7.44008E-02-4.45185E-02 4.70252E-03
 -1      7267-5.01193E+00 1.23890E+00 7.37701E-02-3.30120E-02-1.69025E-02 6.50780E-02
 -1      7268-2.81042E+01-8.38498E-01 3.35145E-02 6.21593E-02 1.60366E-02-3.79228E-02
 -1      7269-7.54687E+00 8.36188E-01 1.38410E-01 1.36164E-01-2.48316E-01-2.34997E-02
 -1      7270-2.45521E+01 2.27479E-01-7.17992E-02 1.94384E-02-7.20636E-01 1.46017E-01
 -1      7271-4.20964E+00 2.13240E-01 2.32287E-02-4.04322E-02-1.52405E-01 4.18586E-01
 -1      7272-1.57127E+01 1.43763E+00 9.16778E-01-1.47661E+00 9.72503E-01 2.78552E+00
 -1      7273-1.68646E+01 1.59595E+00 1.21879E+00-1.06182E+00 6.21293E-01 1.98801E+00
 -1      7274-2.83788E+01-3.23064E+00 5.50868E-02-1.49746E+00 1.86453E-01-5.15456E-02
 -1      7275-2.96163E+01-1.05572E-01 2.75347E-01-4.05302E-01 2.42029E-02 5.69725E-01
 -1      7276-2.39009E+01 5.09641E-02 9.41171E-01-1.04201E-01 9.72120E-02 9.96275E-01
 -1      7277-1.03530E+01 2.00945E-02 8.58539E-02 3.25539E-02-1.21719E-01 3.41733E-01
 -1      7278-4.75472E+00 7.52963E-01 1.77684E-02 1.96326E-01-6.03551E-02 1.62484E-01
 -1      7279-3.11300E+00-1.02552E+00-1.22830E+00-3.59108E-01 7.18075E-02 9.80316E-01
 -1      7280-5.83653E+00-1.08816E+00-7.54647E-01-6.25369E-01 2.49377E-01 4.75222E-02
 -1      7281-1.81353E+01 6.72832E-01 1.44978E+00 2.16684E-01-1.28979E-01 1.02346E+00
 -1      7282-5.69231E+00 2.19926E-01 8.59950E-02-2.12312E-01-2.42049E-01-1.91158E-01
 -1      7283-7.32047E+00 2.44386E-01 2.98175E-02-3.02059E-01-2.55513E-01-9.69361E-03
 -1      7284-1.24703E+01-9.14432E-02 4.40835E-02-6.17428E-02-3.58337E-01-4.69614E-02
 -1      7285-5.02596E+00 4.09588E-01 2.09571E-02-4.39176E-01-1.75880E-01-9.74726E-02
 -1      7286-1.06414E+01-4.49828E-01-7.63173E-01 5.55141E-01-3.71512E-01 1.28863E+00
 -1      7287-2.81024E+01-1.47489E+00 3.69577E-03 4.15231E-02 2.76427E-02 8.28165E-02
 -1      7288-2.49127E+01-3.36350E-02 2.40083E+00-8.55841E-01-1.59903E-01 8.40643E-01
 -1      7289-2.73877E+01-1.45173E-02 1.02354E+00 2.60177E-01 7.83389E-02 2.29537E+00
 -1      7290-2.47740E+01 1.98911E-01 1.94529E+00-2.37110E-01-5.29564E-03 1.87379E+00
 -1      7291-9.71483E+00 1.86063E+00-4.46356E-01-3.85217E-02-2.30921E-01 3.93884E+00
 -1      7292-4.23960E+00 2.26487E+00-9.75530E-02 1.15987E-01-2.99767E-02 1.06565E+00
 -1      7293-1.94656E+00 2.94633E+00-9.11419E-01 1.24951E-01-6.87037E-02 1.47855E+00
 -1      7294-4.50783E+00 2.25173E+00 7.79354E-02 5.60504E-02-6.23800E-02 1.04528E+00
 -1      7295-1.17902E+01 1.28585E+00 4.43744E-01 7.70314E-02-1.01977E-02 2.13953E+00
 -1      7296-2.78817E+01-7.54473E+00-2.32030E+00-2.03243E+00 3.33842E-02 1.63561E+00
 -1      7297-2.74395E+01-7.29815E+00-2.28510E+00-2.30610E+00-4.50235E-01 1.42076E+00
 -1      7298-2.21724E+01-6.50757E+00-4.34632E+00-1.73730E+00-2.40794E-01 1.45377E+00
 -1      7299-2.79799E+01-5.54349E+00-3.60929E-01-1.86520E+00-2.15741E-01 8.29850E-01
 -1      7300-2.20609E+01-6.58174E+00-4.07346E+00-1.14343E+00-1.48926E-01 1.58638E+00
 -1      7301-2.32813E+01-1.72968E+00 8.97893E-02 1.63719E-01-1.05714E-01-2.69380E-01
 -1      7302-2.47573E+01 1.93835E-01-9.63452E-02-4.67081E-02 6.84123E-01 1.40998E-01
 -1      7303-3.40220E+01-2.30817E-02-7.70475E-03-7.39731E-02 8.63250E-01 4.17067E-01
 -1      7304-2.70674E+01-7.51076E+00-1.76211E+00-1.49040E+00 5.89289E-02 1.10883E+00
 -1      7305-2.78961E+01-6.01610E+00-7.40897E-01-1.31467E+00-2.45014E-01 7.61109E-01
 -1      7306-2.74672E+01-2.24558E+00 4.27364E-02-1.48281E-01 5.98122E-02-1.55405E-01
 -1      7307-2.77000E+01-5.85178E-01 1.15309E-01 2.49554E-01 3.77149E-02-1.08177E-01
 -1      7308-2.80821E+01-5.22816E-01 2.57436E-01 3.03321E-01 5.29577E-02-2.13547E-01
 -1      7309-3.31079E+01-2.61670E+00-7.83307E-01 1.70930E-01 7.61351E-02 3.50592E+00
 -1      7310-3.37623E+01-3.00712E+00-2.41517E+00 1.07046E+00-6.38385E-02 2.85313E+00
 -1      7311-4.81385E+00 6.54860E-01 7.29164E-03 3.81008E-01 1.14704E-01-3.71687E-02
 -1      7312-2.81841E+01-1.09277E+00-7.58640E-04 7.84189E-03 4.17475E-02-5.25262E-02
 -1      7313-2.82022E+01-1.05046E+00-9.90068E-04 2.29985E-02 8.57964E-02-4.44056E-02
 -1      7314-2.33886E+01 1.84066E+00 3.11052E-01 4.36667E-02-2.73792E-03 3.32467E+00
 -1      7315-2.87086E+01-4.67588E+00-3.01725E-01 1.96159E+00 1.86588E-01 1.52750E-01
 -1      7316-2.89215E+01-3.27627E+00 9.70591E-02 1.52523E+00 2.18797E-01-2.45221E-01
 -1      7317-2.45995E+01-3.21226E+00-3.44731E-01 1.70488E+00 3.59997E-01 1.36420E-01
 -1      7318-1.78576E+01 6.42119E-02 3.35373E-01-9.42255E-02-1.57454E-01-6.84476E-02
 -1      7319-2.17825E+01-9.14988E-02 3.07813E-01-1.85849E-01-9.68407E-02-1.36887E-01
 -1      7320-1.60167E+01 1.52007E-01 1.69353E-01-1.13783E-01-1.49652E-01 5.05336E-02
 -1      7321-1.07554E+01 5.57039E-01 1.93938E-01-3.43347E-02-1.56364E-01 1.80554E-01
 -1      7322-1.67857E+01 2.86577E-01 3.22735E-01-1.11921E-01-1.22270E-01-4.20670E-02
 -1      7323-1.97632E+01-1.28402E-01 1.36961E-01 1.52417E-01-2.19212E-01 8.39639E-01
 -1      7324-3.38159E+01-6.48347E-02-1.50150E-01 4.52591E-02-8.36262E-01 4.29648E-01
 -1      7325-2.90881E+01-1.02672E+00-1.84408E-03 1.86503E-01-1.15054E-01-4.44046E-02
 -1      7326-2.37213E+01-7.70547E-01-2.94684E-03 9.75696E-02-2.17731E-01-6.49764E-02
 -1      7327-1.95613E+01-7.64603E-02 2.73795E-02-3.93590E-02 1.52503E-01-5.18347E-01
 -1      7328-1.28082E+01 1.44145E-02 3.58298E-02-1.41189E-01 1.49843E-01-4.81229E-01
 -1      7329-1.68158E+01 2.35652E-02 1.20668E-02-1.12131E-01 9.12546E-02 8.25772E-02
 -1      7330-1.95201E+01-2.94897E-01-2.37794E-03-1.25737E-01 1.38748E-01 5.41919E-02
 -1      7331-2.41529E+01-6.08306E-01 1.07997E-02-9.73929E-02 1.04373E-01 6.08467E-02
 -1      7332-1.80125E+01-1.77630E-01 1.96249E-03-8.78764E-02 1.08492E-01 1.00311E-01
 -1      7333-2.72214E+01 4.45620E-02 1.28772E+00 2.59177E-01 5.83814E-02 2.09546E+00
 -1      7334-1.72566E+01-6.91667E-02 8.71330E-03-7.67957E-02-6.97816E-02-1.07252E-01
 -1      7335-1.72315E+01-9.96580E-01 1.33024E-01-2.35298E-01-2.29217E-01 3.51166E-01
 -1      7336-1.30132E+01-3.79053E+00-2.89940E+00-1.02041E+00-2.34106E-01-1.29884E-02
 -1      7337-1.85507E+01-5.41132E+00-3.47255E+00-1.57498E+00-1.99506E-01 3.04823E-01
 -1      7338-3.82878E+00 1.45295E+00 7.79075E-02-4.81447E-01 2.79093E-01 5.58800E-01
 -1      7339-4.34898E+00 1.35710E+00 1.31487E-01-2.98101E-01 1.01475E-01 4.69496E-01
 -1      7340-1.27765E+01 8.12463E-01 8.17435E-01-1.67819E-01 1.46596E-01 8.05516E-01
 -1      7341-4.78703E+00 5.78999E-01 1.34942E-02 4.37492E-01 1.26834E-01-4.08812E-02
 -1      7342-1.29792E+01-4.12634E+00-3.21201E+00-1.89642E-01-4.03049E-02 9.02015E-02
 -1      7343-1.58767E+01-3.29853E+00-9.49653E-01-1.61927E-01-1.22921E-01 8.92482E-01
 -1      7344-1.92468E+01-5.89255E+00-3.60536E+00-2.80127E-01-7.31827E-03 6.58827E-01
 -1      7345-1.78992E+01-4.22584E+00-1.55144E+00-4.46492E-01-1.52627E-01 1.00583E+00
 -1      7346-1.07385E+01 6.11514E-01-3.27923E-01-1.11252E+00 5.71137E-01-2.32856E+00
 -1      7347-2.84892E+01-4.68424E-01-4.01477E-03 2.14479E-01-8.87686E-02-1.88877E-03
 -1      7348-2.38777E+01-3.73695E-01 4.09654E-03 1.97665E-01-1.50282E-01 1.37540E-02
 -1      7349-5.49897E+00 1.59960E+00 2.05613E-01 3.88277E-02-2.07022E-02 3.38546E-01
 -1      7350-4.94933E+00 1.42076E+00 8.00603E-02-1.64695E-03-6.47011E-03 1.13122E-01
 -1      7351-2.84631E+01-9.63408E-02 2.04326E-02 2.11940E-01 3.33580E-02-3.94708E-01
 -1      7352-5.61776E+00 4.16624E-01 4.55977E-01-1.98518E-01-2.34830E-01-3.89955E-01
 -1      7353-9.90900E+00 1.72954E-01 5.54508E-01-6.92423E-02-2.25630E-01-7.16801E-01
 -1      7354-1.81516E+00 8.90697E-02 7.79902E-02-1.23133E-01 1.64744E-02-3.87600E-01
 -1      7355-5.15341E+00 5.50507E-01 1.81292E-01-3.95566E-01-3.42622E-01-1.08500E+00
 -1      7356-9.57238E+00 2.14495E-01 5.89964E-01-4.13958E-01-4.06465E-01-1.49740E+00
 -1      7357-1.40877E+01 1.50299E-01 8.55734E-01-5.06680E-01-5.95582E-01-1.14245E+00
 -1      7358-1.46023E+01 4.06512E-01 5.95197E-01 2.51407E-02-2.23689E-01 2.61931E-01
 -1      7359-5.49525E+00 6.63882E-01 1.12763E-01 8.04265E-02-8.82812E-02 1.65511E-01
 -1      7360-1.03166E+01 7.44123E-01 4.15500E-01 1.61673E-01-1.51014E-01 5.45424E-01
 -1      7361-5.20210E+00-1.07676E-01-4.65319E-02-1.85748E-01-2.59325E-01 3.37612E-01
 -1      7362-2.19901E+01-1.51608E-01 2.08024E+00-7.37026E-01-5.04788E-01-5.17857E-01
 -1      7363-1.76574E+01 4.64420E-01 1.87786E+00-7.27782E-01-3.36019E-01-8.08892E-01
 -1      7364-1.56345E+01 5.42731E-01 7.94645E-01-5.89907E-01-4.94059E-01-1.62574E+00
 -1      7365-1.08309E+01 8.17146E-01-1.06588E-01-8.68955E-01-9.76858E-01-2.41013E+00
 -1      7366-1.93287E+01-9.77993E-04 9.39838E-01-1.07449E+00-7.56974E-01-1.36127E+00
 -1      7367-3.72922E+00 9.14630E-02 3.22827E-02 3.52934E-01 5.95732E-02 3.09526E-01
 -1      7368-3.74595E+00 9.28622E-02 2.95060E-02 3.45099E-01 8.83831E-02 3.83791E-01
 -1      7369-1.02543E+01 1.71648E-02 1.39787E-01 5.83219E-02 2.40420E-01 5.26819E-01
 -1      7370-6.20209E+00 1.20744E-01 1.04682E-01 3.37738E-01 2.79163E-01 1.30340E-01
 -1      7371-1.96232E+01 9.39965E-02 5.40162E-01-1.33451E+00-5.05485E-01 4.86589E+00
 -1      7372-1.80786E+01-9.99121E-02 3.40993E-03-1.65785E-01 1.74522E-01 3.14068E-02
 -1      7373-2.26551E+01-5.26633E-01 6.64939E-03-7.25388E-02 7.09393E-02 8.47816E-02
 -1      7374-1.98227E+01 3.04288E-01 5.81790E-01-9.55920E-01 6.18190E-01 2.81916E+00
 -1      7375-1.26837E+01 1.27171E+00 1.06780E-01-4.67211E-01 4.79306E-01 3.72210E+00
 -1      7376-6.77899E+00 2.23379E+00-7.19352E-01-7.88663E-01 1.00661E+00 3.56634E+00
 -1      7377-6.79908E+00 1.13552E-01 6.12743E-02-3.66385E-01 2.34555E-01-1.41481E-01
 -1      7378-1.09750E+01 2.68853E-03 6.24936E-02-1.12736E-01 2.26631E-01-4.91285E-01
 -1      7379-3.68250E+00 7.89281E-02 4.19095E-02-3.23018E-01 5.00240E-02-3.36384E-01
 -1      7380-5.53293E+00 8.91421E-02 9.22951E-02-3.17770E-01 2.69094E-01-1.74328E-01
 -1      7381-9.63908E+00 1.89551E-02 1.26649E-01-5.29779E-02 2.41298E-01-5.63970E-01
 -1      7382-2.67785E+01-6.15904E-01 4.83163E-02-1.92679E-01-6.88883E-02-3.01073E-02
 -1      7383-2.82253E+01-8.21331E-01 2.32466E-02-1.43349E-01-5.01610E-02-2.35558E-02
 -1      7384-3.75698E+01-3.69891E+00-2.79521E+00 7.29633E-01 2.53235E-01 3.37113E+00
 -1      7385-1.59865E+01-2.24039E+00-4.17605E-02-2.81066E-01 1.11493E-01-7.29315E-01
 -1      7386-1.65316E+01-1.73320E+00 6.32927E-02-3.43522E-01 2.55607E-01-5.69455E-01
 -1      7387-1.32472E+01-1.26716E+00 1.54485E-01-1.28983E-01 1.60168E-01-6.78058E-01
 -1      7388-2.88179E+01-4.00930E+00-3.61300E-01 2.38865E+00 2.41424E-01 2.19957E-01
 -1      7389-2.89204E+01-2.81975E+00-1.47328E-01 2.37638E+00 3.02645E-01-2.59948E-01
 -1      7390-2.88632E+01-2.65156E+00 5.83326E-02 1.84268E+00 2.10652E-01-2.14335E-01
 -1      7391-2.72996E+01-1.59812E-01 8.69985E-01 7.90888E-01-1.82732E-01-3.34516E+00
 -1      7392-2.74816E+01 1.00922E-01 1.72321E+00-1.97757E-01-2.27554E-01-4.15513E+00
 -1      7393-2.68281E+01 2.61887E-01 1.90671E+00-3.02651E-01-2.03123E-01-6.18982E+00
 -1      7394-2.66869E+01 4.18815E-01 1.02892E+00 5.81061E-01-2.35369E-01-2.74696E+00
 -1      7395-2.93962E+01-9.50766E-02 2.99634E-01-3.85472E-01-3.11520E-02-5.79896E-01
 -1      7396-2.70968E+01-8.00283E-02 2.36950E-01-4.89347E-01-5.87500E-02-2.12659E-01
 -1      7397-2.40589E+01 9.87256E-01 5.73212E-01-2.40642E-01 6.08458E-02-3.11964E+00
 -1      7398-2.79456E+01-1.30469E-01 1.30395E+00 6.31198E-01-4.11895E-01-5.41756E+00
 -1      7399-2.40364E+01 1.20836E+00 1.52282E-01 1.15288E-01 1.83801E-01-3.17964E+00
 -1      7400-1.84595E+01-3.59200E-01-4.46927E-03 7.49792E-02-1.24697E-01 1.48612E-01
 -1      7401-4.94710E+00 1.41557E+00 1.15440E-01-2.18558E-01 6.49756E-02 3.32711E-01
 -1      7402-2.82450E+01-3.39509E-01 8.48143E-02 9.59779E-01 3.65820E-02-8.26423E-01
 -1      7403-2.30730E+01-2.49486E-01 1.64408E-01 2.04163E-01 2.26517E-01-1.00704E+00
 -1      7404-4.25318E+00-1.40187E+00-1.26698E+00-7.47572E-01 1.48372E-01 1.38611E+00
 -1      7405-9.89074E+00-2.80861E+00-2.08183E+00-1.22395E+00 3.30637E-01 1.11482E+00
 -1      7406-5.38518E+00 3.37359E-01 6.09843E-03-4.59037E-01-1.80843E-01 6.39819E-02
 -1      7407-2.02963E+01 7.92278E-01 2.40750E+00 1.77633E+00 1.22781E+00-2.96173E+00
 -1      7408-1.29582E+01 2.31585E-01 1.36017E-01 1.89089E+00 1.38441E+00-4.63247E+00
 -1      7409-1.12229E+01 1.17357E+00-8.41975E-02 1.73973E+00 1.05266E+00-4.40324E+00
 -1      7410-1.07199E+01 1.87485E-01 1.05712E+00 2.56017E-01 4.44544E-01-2.07474E+00
 -1      7411-1.65098E+01 5.03272E-02 2.23519E+00 4.83020E-01 5.80069E-01-1.16674E+00
 -1      7412-1.00672E+01 3.71894E-02 9.58700E-03 1.47517E-01 1.27510E-01 2.19876E-01
 -1      7413-9.51095E+00 4.89964E-02-9.34518E-04 1.40456E-01 9.42038E-02 1.64591E-01
 -1      7414-2.10290E+01 8.58404E-01 2.15487E+00 1.99814E+00-1.21906E+00 3.65931E+00
 -1      7415-2.62892E+01-3.19734E-01 4.07137E+00 1.03129E+00-2.36884E-01-1.04106E+00
 -1      7416-5.00596E+01-3.50530E-01 6.09756E-02-3.44518E-03-2.64001E-01-1.56677E-01
 -1      7417-4.90454E+01-6.59058E-01-1.87629E-01 1.86388E-01-6.91853E-01 3.54982E-02
 -1      7418-1.66716E+01 7.82709E-01 1.32792E+00-2.44478E-01-1.50363E-01-1.18489E+00
 -1      7419-5.32326E+00 3.64213E-01 3.97857E-02 5.14615E-02-1.28067E-01 3.20340E-01
 -1      7420-2.53421E+00-8.92037E-01-1.14406E+00 1.84724E-01 5.15430E-02-9.79667E-01
 -1      7421-2.29193E+00-9.15838E-01-1.18190E+00 1.04730E-01 4.10350E-02-9.03881E-01
 -1      7422-5.04178E+00-9.38045E-01-6.55784E-01 1.93782E-01 1.03912E-01 1.61798E-01
 -1      7423-9.06899E+00-2.66118E+00-1.71381E+00 2.73658E-01 1.06003E-01-4.63412E-01
 -1      7424-1.63309E+01 1.63824E-01 2.84039E-01-1.52042E-01-1.64675E-01 1.36068E-02
 -1      7425-4.91131E+01-3.52505E-01-5.33317E-01-4.00606E-01 3.57133E-01 1.03971E+00
 -1      7426-4.90113E+01-1.33791E+00-1.96776E+00-1.15754E+00 5.97974E-01-3.80578E-01
 -1      7427-1.92270E+01 2.18979E-01 6.00227E-01-7.57034E-03 1.21328E-01 3.01384E-02
 -1      7428-1.70065E+01 4.06326E-01 5.47751E-01-4.64053E-03 1.22099E-01 2.74127E-02
 -1      7429-7.59661E+00 7.93632E-01 7.61185E-02-1.06572E-01 2.59770E-01-3.85384E-02
 -1      7430-2.91291E+01-6.81073E-01 1.03251E-03 1.51841E-01-9.06512E-02-9.08722E-04
 -1      7431-2.63792E+01 5.67786E-02 9.38280E-01 1.39744E-01 2.73580E-02-9.78498E-01
 -1      7432-2.77463E+01-5.78079E-01 1.90210E-02 3.67617E-01-1.64626E-01 1.46862E-01
 -1      7433-1.86854E+01-4.93505E+00-2.69095E+00 1.40566E+00-3.00402E-01-3.05909E-01
 -1      7434-2.35405E+01-4.71736E+00-7.95178E-01 1.20412E+00-3.35318E-01-1.02869E+00
 -1      7435-2.89212E+01-2.76975E+00 5.50280E-02-1.80319E+00-2.12518E-01-1.53236E-01
 -1      7436-2.11069E+01-1.98309E+00-5.57263E-02-1.16755E+00-4.86613E-01 6.16273E-03
 -1      7437-2.36144E+01-3.56363E+00-5.42945E-01-1.59770E+00-4.12243E-01 5.03069E-01
 -1      7438-3.11815E+00-1.06291E+00-1.23967E+00-4.71401E-01 1.24622E-01 1.06852E+00
 -1      7439-9.49335E+00-2.68242E+00-1.96739E+00-9.54311E-01 2.80472E-01 9.37948E-01
 -1      7440-2.83384E+01-7.44876E-01 4.45999E-03-1.50880E-01 6.19658E-02 1.43462E-02
 -1      7441-2.27404E+01-4.21479E-01 1.17629E-02-1.31140E-01 1.37468E-01 3.93373E-02
 -1      7442-1.46001E+01 5.34545E-01 7.31275E-01-5.19705E-02 1.59711E-01 2.65526E-01
 -1      7443-1.64683E+01-4.58067E-01 3.22934E-02 1.72319E-02-1.34493E-01 2.31771E-01
 -1      7444-1.32211E+01-1.54573E-01 3.67383E-02 3.70384E-02-1.66040E-01 2.55493E-01
 -1      7445-1.58964E+01-5.16793E-01 4.37292E-02-2.19930E-02-1.17104E-01 2.89523E-01
 -1      7446-4.99156E+01-6.34625E-01 5.13717E-02 1.06845E-01 3.76737E-01 1.51866E-01
 -1      7447-4.97865E+01-5.03094E-01 8.89853E-02-1.19779E-01 2.54235E-01 4.19076E-01
 -1      7448-4.92029E+01-7.87695E-01-1.40236E-01-1.36921E-01 7.19650E-01 7.26663E-02
 -1      7449-2.86432E+01-1.28193E+00-4.13278E-03-4.85004E-02 6.71408E-02-8.06011E-02
 -1      7450-3.43190E+01-1.26486E-01-4.55399E-01 6.14457E-02 8.39052E-01 7.48133E-01
 -1      7451-2.80099E+01-1.10517E+00-3.44959E-03-1.67606E-02 2.23189E-02 5.93214E-02
 -1      7452-7.25872E+00 2.46236E-01 7.22018E-02-2.54024E-01-2.85237E-01-1.79682E-02
 -1      7453-5.69908E+00 1.19191E-01 8.41580E-02-1.33595E-01-2.77087E-01-2.36816E-01
 -1      7454-5.33173E+00 3.15393E-02 7.04739E-03-1.71810E-01 2.17165E-01-4.00387E-01
 -1      7455-5.20235E+00 1.26665E-01 3.10677E-02-3.70121E-01-1.26182E-01 1.17556E-01
 -1      7456-1.66267E+01-1.14937E+00 1.28389E-01 1.57556E-01-2.07634E-01-4.18228E-01
 -1      7457-2.87186E+01-1.69328E-01 3.07001E-01-5.27980E-01-1.35879E-02-4.64689E-01
 -1      7458-2.46019E+01 3.60936E-02 8.00052E-01-1.51812E-01-8.01752E-02-1.00646E+00
 -1      7459-2.34342E+01-2.19946E+00 1.36107E-01 1.55706E-01-1.09425E-01-2.85259E-01
 -1      7460-1.91591E+01-1.47489E+00 1.08019E-01 3.09349E-02-3.66912E-02-3.76431E-01
 -1      7461-9.08358E+00 8.93143E-01 6.67481E-02-5.81643E-01 6.66349E-01 1.78256E+00
 -1      7462-2.64826E+00 1.34954E+00-2.08887E-01-6.08317E-01 3.84460E-01 7.99356E-01
 -1      7463-8.97132E+00 1.11848E+00 2.18771E-01-4.50761E-01 4.47243E-01 1.26352E+00
 -1      7464-5.72437E+00 7.60816E-01 9.83191E-02-1.13590E-02-9.18799E-02 9.26687E-02
 -1      7465-5.37690E+00 7.27575E-01-8.45946E-03-9.77852E-02-7.53649E-02 2.02113E-02
 -1      7466-4.53858E+00 9.79282E-01 8.76478E-02 4.93509E-02-8.08320E-02 1.02043E-01
 -1      7467-1.02664E+01 5.43819E-01 1.05963E-01-1.11619E-01-1.26055E-01 7.00807E-02
 -1      7468-1.83425E+01-1.10413E-01 8.91956E-03 1.35384E-01-1.39336E-01 6.46495E-02
 -1      7469-2.42206E+01 1.61325E+00-1.80734E-01 1.21899E-01-2.91058E-01 3.04198E+00
 -1      7470-6.43151E+00 6.68142E-01 8.65217E-01-4.54780E-01 8.85000E-01 2.54283E+00
 -1      7471-1.27726E+01 9.58177E-01-6.98132E-02-1.65773E+00 1.85737E+00 4.81622E+00
 -1      7472-2.18069E+01 1.78541E-02 6.57316E-01-1.56804E+00 1.24191E+00 3.91987E+00
 -1      7473-1.92417E+01-2.11715E-01 2.31709E+00-4.18444E-01 4.48811E-01 1.58941E+00
 -1      7474-1.42294E+01 5.58832E-01 9.63485E-01-1.00381E+00 1.02235E+00 2.06494E+00
 -1      7475-1.15116E+01-3.89761E+00-3.25134E+00 2.49102E-01 5.71324E-02-2.67111E-01
 -1      7476-5.69757E+00 7.26506E-01 3.28372E-01-3.90699E-01-2.35369E-01-4.15839E-01
 -1      7477-5.14798E+00 7.24268E-01 1.33288E-02-7.48590E-01-5.44775E-01-1.07126E+00
 -1      7478-1.29672E+01-4.11982E+00-3.53886E+00 1.26922E+00-2.83214E-01 4.54580E-01
 -1      7479-1.43835E+01-6.67394E-02 4.94109E-02 1.41448E-01 2.97069E-01 1.20099E-01
 -1      7480-1.44924E+01 8.79936E-02-1.90203E-02 2.29611E-01-1.97315E-01-5.62265E-03
 -1      7481-1.08336E+01 3.68380E-01 3.33005E-01-2.90216E-02-2.02671E-01 2.16422E-01
 -1      7482-1.85690E+01 2.51341E-02 1.99132E-01-1.78976E-01-1.48289E-01 2.03674E-02
 -1      7483-2.29233E+01-1.44666E-01 1.51537E-01-2.62698E-01-1.36428E-01-9.83772E-02
 -1      7484-2.42854E+01-2.09835E-01 2.19072E-01-2.59240E-01-9.61589E-02-1.83384E-01
 -1      7485 1.65893E+00 3.16130E+00-1.37447E-01 2.19117E-01 3.01071E-02 3.94022E-01
 -1      7486-6.40577E+00 2.26037E+00 3.42462E-03 2.95350E-01 2.41086E-01-1.47429E+00
 -1      7487-2.83202E+01-2.18582E-01 4.21750E-01 5.71464E-01-2.10024E-02 7.19488E-01
 -1      7488-2.81852E+01-2.05359E-01 1.89289E-01 5.94851E-01-6.73316E-02 2.14049E-01
 -1      7489-2.85100E+01-2.88324E-01 2.57013E-01 5.60348E-01-3.98178E-02 2.85503E-01
 -1      7490-3.83794E+00 5.15489E-02 1.40434E-04-2.04174E-01 1.54137E-02-1.38214E-01
 -1      7491-3.94556E+00 5.74447E-02-2.64724E-03-1.76735E-01 1.87403E-02-6.55218E-02
 -1      7492-5.16244E+00 1.40589E-01 1.29868E-02-3.40041E-01 9.81785E-02-6.55705E-02
 -1      7493-9.45184E+00 4.19324E-02-1.85534E-02-1.64242E-01 1.06705E-01-1.85908E-01
 -1      7494-1.75964E+01-3.37500E-01 2.06377E-02 5.08878E-02-1.30170E-01 1.69479E-01
 -1      7495-3.44587E+01-1.33804E+00-1.22763E+00-2.46873E+00 1.24141E-01 2.21373E+00
 -1      7496-2.36997E+01-1.05006E-01 3.91418E-02-1.97597E-02 1.15451E-01 5.68461E-01
 -1      7497-2.36114E+01-1.18729E-01 8.53740E-02-1.56166E-01 1.55054E-01 6.96826E-01
 -1      7498-2.74298E+01 2.47235E-01 3.15147E+00-4.65303E-01-1.70769E-01 3.70859E+00
 -1      7499-3.26051E+01-1.15060E+00 1.99087E-01-1.63842E+00-7.15133E-01-3.96574E+00
 -1      7500-2.93082E+01-1.99781E-01 8.64953E-01-9.57253E-01 7.90022E-01 4.92728E+00
 -1      7501-2.26736E+01-6.70903E+00-4.68107E+00-2.17504E+00-3.62740E-01 1.39776E+00
 -1      7502-2.80630E+01-5.56005E+00-4.55425E-01-2.20607E+00-6.02452E-01 4.24224E-01
 -1      7503-2.23591E+01-4.37716E+00-9.10343E-01-1.41091E+00-3.67001E-01 1.01929E+00
 -1      7504-4.00821E+00 5.61418E-02 4.61872E-03 1.25624E-01-1.87147E-02-3.84232E-02
 -1      7505-2.82459E+01-6.72563E-01 1.47639E-02-2.28541E-01-1.43442E-01-1.18119E-02
 -1      7506-2.79996E+01-4.30696E-01 2.61853E-02-2.07893E-01-1.44770E-01-1.36064E-01
 -1      7507-1.13755E+01 4.00745E-02 1.22229E+00-3.75196E-01 5.01585E-01 1.97070E+00
 -1      7508-6.06418E+00 8.11730E-01-1.14258E-01-6.46565E-01 9.99949E-01 1.45051E+00
 -1      7509-1.04122E+01-3.35506E-02-1.67721E-02 3.66536E-02 3.57672E-01-9.19660E-01
 -1      7510-1.57858E+01-1.45166E-01 6.54802E-02-7.09033E-02-3.31039E-01 7.17558E-02
 -1      7511-1.66026E+01-2.90431E-01 7.14035E-02-5.70861E-03-3.04844E-01-7.66675E-02
 -1      7512-1.55810E+01 1.10150E-01 4.19954E-02-1.96418E-01-1.54180E-01-1.17478E-02
 -1      7513-2.05320E+01-2.29243E-01 3.73405E-03 1.82071E-01-2.16203E-01-1.65318E-02
 -1      7514-2.40333E+01 2.21458E-01 1.19087E+00-8.79991E-01 1.49106E-01-4.07393E+00
 -1      7515-2.70032E+01-2.91731E-02 1.00682E+00-7.62345E-01 2.19201E-01-3.37941E+00
 -1      7516-2.72570E+01 2.49332E-01 1.63771E+00 2.70552E-01 1.62689E-01-5.92197E+00
 -1      7517-2.64858E+01 3.38830E-01 9.74865E-01-6.73253E-01 2.32995E-01-2.81091E+00
 -1      7518-2.54782E+01 2.51036E-01 6.01070E-01-5.74999E-01 4.54126E-01-3.49523E+00
 -1      7519-1.06995E+01 8.29808E-02 5.82430E-02 2.49339E-01 2.65679E-01 1.93866E-01
 -1      7520-2.60326E+01-1.27265E+00-2.48537E+00 9.63764E-01-8.29135E-01 2.08219E+00
 -1      7521-1.50117E+01-3.39365E-02 8.37737E-02-7.21638E-02 2.28079E-01-5.27824E-01
 -1      7522-9.89958E+00-2.24449E+00-1.01002E+00-1.49500E-01-6.88998E-02 4.75372E-01
 -1      7523-5.88558E+00-2.49129E-01-3.66825E-01 3.47210E-01 3.54304E-01-4.18602E-01
 -1      7524-6.00993E+00-2.83639E-03 1.11698E-02-1.21287E-01 3.40410E-01-1.20531E-01
 -1      7525-3.88957E+00-1.19606E+00-1.26645E+00-5.88890E-01 1.71379E-01 1.27057E+00
 -1      7526-1.89165E+01 6.21359E-01 1.24797E+00-7.35771E-02 1.12769E-01 2.25175E-01
 -1      7527-1.75090E+01-1.37216E+00 1.44030E-01-2.66992E-02 6.17577E-02-4.57405E-01
 -1      7528-2.39424E+01-6.07718E-01-1.22946E-02-9.34455E-02 1.55951E-01 6.47852E-02
 -1      7529-2.95259E+01-9.13530E-01 9.76297E-04-9.50631E-02 6.67598E-02 2.04488E-02
 -1      7530-2.70984E+01 2.19361E-01 3.56282E-01-1.45023E-01-3.86637E-02 1.10607E+00
 -1      7531-2.86707E+01-3.26288E-01 3.80320E-01-2.18396E-01 2.52596E-02 7.09275E-01
 -1      7532-3.63923E+00 9.16907E-02 6.03668E-02 2.80694E-01-6.20045E-02-4.44359E-01
 -1      7533-2.69305E+01 2.56790E-01 8.50039E-01-7.01021E-01-2.72619E-01 3.50696E+00
 -1      7534-2.81973E+01-1.03106E-01 8.58642E-01-5.56470E-01-1.01171E-01 2.40372E+00
 -1      7535-2.54571E+01 4.56870E-02 2.36974E+00-2.31618E-02 1.93647E-01 2.30710E+00
 -1      7536-2.86029E+01-6.26521E-01 1.40340E+00-1.54137E-01-1.24840E-01 1.52573E+00
 -1      7537-6.23046E+00 6.88817E-01 1.19014E+00 3.11320E-01 8.91443E-01-1.61241E+00
 -1      7538-4.27176E+00 1.37308E+00 3.16659E-01 6.03563E-01 9.98399E-01-8.62921E-01
 -1      7539-1.59293E+01-8.77389E-01 9.71800E-02-6.97337E-02 1.17186E-01-4.32096E-01
 -1      7540-1.75494E+01-9.70746E-01 8.33484E-02-3.38902E-02 1.02957E-02-3.66328E-01
 -1      7541-2.26883E+01-1.86094E+00 1.38386E-01-3.54693E-02 5.14527E-02-3.07041E-01
 -1      7542-2.41263E+01 9.22607E-02 1.18651E+00 8.60030E-01 1.76005E-02-4.21715E+00
 -1      7543-2.51850E+01 1.86657E-01 6.09833E-01 5.32508E-01-4.62241E-01-3.58459E+00
 -1      7544-5.10066E+00 1.08826E-01 3.89986E-02-3.73791E-01-1.18460E-01 1.40985E-01
 -1      7545-2.89924E+01-3.22188E+00 7.09262E-02-1.70941E-01 1.09486E-02-1.12114E-01
 -1      7546-4.52161E+00 1.50489E-01 2.16234E-02 5.16443E-01 1.66513E-01 1.20555E-01
 -1      7547 1.37963E+00 3.05564E+00 5.97160E-02 2.44328E-01 1.90234E-01 4.91340E-01
 -1      7548-3.88419E+00 2.27813E+00-4.10938E-01 2.09386E-01 4.32971E-01-9.13347E-01
 -1      7549-1.61499E+01-2.03721E+00-1.92411E-02 2.40056E-01-1.48684E-01-7.00532E-01
 -1      7550-1.97490E+01-3.50569E-01 9.77443E-03-1.12975E-01 1.81973E-01 9.86076E-02
 -1      7551-1.66524E+01-2.30425E-01 3.20500E-03-1.05459E-01 2.42935E-01 8.00280E-02
 -1      7552-4.83639E+00 6.64529E-02-8.18320E-02-1.13793E-01 1.91779E-01-7.72713E-01
 -1      7553-2.78604E+01-7.78913E+00-2.34692E+00 1.98518E+00-2.36946E-01-1.53143E+00
 -1      7554-2.74146E+01-7.62836E+00-2.19498E+00 1.62911E+00 8.97316E-02-1.30282E+00
 -1      7555-2.29899E+01-6.47186E+00-4.07270E+00 1.46300E+00-3.36327E-01-1.56422E+00
 -1      7556-2.87280E+01-5.73687E+00-2.36143E-01 1.62363E+00-3.17431E-01-6.91617E-01
 -1      7557-1.73839E+01-2.09453E-02 2.56606E-02 2.18932E-01 1.86223E-01 2.62831E-02
 -1      7558-2.81735E+01-8.30919E-02 6.64154E-02 3.27689E-01 5.79522E-03-5.17637E-01
 -1      7559-2.76176E+01-4.34738E-01 3.96330E-02 6.89242E-01 1.82193E-01-4.30166E-01
 -1      7560-2.44752E+00-8.67574E-01-1.22706E+00-1.97424E-01-3.20136E-02-9.93393E-01
 -1      7561-4.78435E+00-8.41775E-01-6.06489E-01-1.54538E-01-8.29765E-02 1.93434E-01
 -1      7562-3.89628E+00 2.31502E+00 1.97075E-02 2.38988E-01-8.60451E-02 1.08666E+00
 -1      7563-3.17189E+00 2.08984E+00 7.82205E-02 3.45774E-01-1.09452E-01 6.73766E-01
 -1      7564-2.76877E+01-1.06290E-01-1.03207E-03-1.94049E-01-9.98677E-02 5.17358E-02
 -1      7565-2.32486E+01-3.70259E-02 2.48904E-04-1.05786E-01-1.00280E-01 8.42619E-02
 -1      7566-2.92943E+01-4.41351E-02 7.86932E-03-1.19453E-01-1.98036E-02 2.69840E-02
 -1      7567-2.88155E+01-1.16232E-01-4.23404E-03-2.39716E-01-6.48587E-02 1.43353E-02
 -1      7568-2.43506E+01-4.17910E-02 3.40483E-02-1.25214E-01-7.51795E-02 1.75979E-02
 -1      7569-2.92803E+01-8.77615E-01 2.71035E-02-1.20233E-01-2.25115E-02-6.49846E-02
 -1      7570 1.38248E+00 3.26547E+00-5.78708E-02 1.00230E-01 2.10090E-02-4.28718E-01
 -1      7571-4.38442E+00 2.61085E+00-4.27010E-02 9.31059E-02-6.34928E-02 1.04586E+00
 -1      7572-3.68685E+00 8.98568E-02 6.20147E-02-3.09025E-01 8.75678E-02-4.08952E-01
 -1      7573-9.80534E+00 2.36033E-03 1.04286E-01-7.13016E-03 2.92898E-01-6.32871E-01
 -1      7574-2.36484E+01 7.66692E-01 1.03731E+00 1.19100E-01-1.44841E-01-2.41308E+00
 -1      7575-2.59142E+01 7.67025E-01 5.06263E-01 2.32931E-01-2.96377E-01-2.96705E+00
 -1      7576-2.42333E+01 1.22739E+00 5.42010E-01 2.02829E-01-3.42228E-01-3.42651E+00
 -1      7577-4.13256E+00 7.72712E-02-2.28616E-03-2.07130E-01 1.51911E-01-4.56387E-01
 -1      7578-2.64929E+00 1.85615E+00-3.14390E-01-6.38946E-01 3.79436E-01 9.24467E-01
 -1      7579-4.22173E+00 2.46788E-01 1.85655E-02-7.71530E-02 1.26195E-01-4.42001E-01
 -1      7580-2.36519E+00 1.25979E-01 1.19286E-01-1.06590E-01-2.24327E-02-3.61605E-01
 -1      7581-4.04736E+00 1.04132E+00 1.10309E-01-3.66141E-01-2.20178E-01-4.83555E-01
 -1      7582-2.91790E+01-5.82038E-02 7.80879E-03-6.07690E-02-2.00067E-02 4.04508E-02
 -1      7583-2.36762E+00-9.24409E-01-1.18781E+00-1.08586E-01-3.73460E-03-9.40004E-01
 -1      7584-8.81486E+00-2.51057E+00-1.65073E+00-2.48746E-01-6.76603E-02-4.92464E-01
 -1      7585-1.63619E+01-2.98464E+00-8.85702E-01-9.04750E-01-4.42386E-01 6.60161E-01
 -1      7586-2.80895E+01-1.20877E-01 1.21409E-01 3.49721E-01-1.78574E-03-7.71383E-01
 -1      7587-8.55267E+00 5.93771E-02 6.06647E-02 1.54152E-01 1.57343E-01 5.02363E-01
 -1      7588-2.30300E+01-7.12528E+00-4.57619E+00 1.12744E+00-2.05554E-01-1.71873E+00
 -1      7589-4.35990E+00 1.90301E-01 5.19344E-02-6.90283E-02 1.54346E-01-4.40842E-01
 -1      7590-1.92028E+01-5.89685E+00-3.56184E+00-5.73079E-01-1.68679E-01 6.24869E-01
 -1      7591-2.86645E+01-8.81075E-01 1.00044E-03 4.74976E-02-6.18671E-04 4.64455E-02
 -1      7592-2.65596E+01 2.92211E-02 1.16716E+00-3.98932E-01 9.89795E-02-2.02761E+00
 -1      7593-2.66278E+01-9.18399E-02 1.89533E+00 3.25921E-01 1.97194E-01-4.45392E+00
 -1      7594-2.78825E+01 6.20349E-02 1.55526E+00 7.62414E-01 5.56919E-01-3.88781E+00
 -1      7595-5.47102E+00-5.83388E-01-3.17839E-01 1.02852E-01-6.16905E-02-4.83193E-01
 -1      7596-1.70239E+01-1.23768E+00 1.18275E-01 3.67514E-01 3.05619E-01 3.80402E-01
 -1      7597-4.02285E+00 1.19356E+00 1.22605E-01 2.38442E-01-1.09786E-01 4.48518E-01
 -1      7598-5.10912E+00 2.18813E-01 3.20237E-02-2.56275E-01-2.87562E-01 3.16805E-02
 -1      7599-6.60603E+00 1.05271E+00 1.85362E-01-3.36748E-02 7.06766E-02 1.57593E-01
 -1      7600-4.67495E+00 2.07926E+00 2.28893E-01 8.39449E-02-2.59413E-02 5.18334E-01
 -1      7601-1.13790E+01 4.56674E-01 1.20523E-01-4.76708E-01-6.00246E-01-1.41089E+00
 -1      7602-9.39132E+00 7.80199E-01-4.83017E-02-4.31757E-01-5.38244E-01-1.50845E+00
 -1      7603-2.31347E+00 1.42262E+00-2.20745E-01-5.18222E-01-2.91613E-01-7.08775E-01
 -1      7604-1.63105E+01 5.22701E-01 7.94783E-01 1.12698E-01-1.54000E-01 2.79623E-01
 -1      7605-8.50263E+00 9.60184E-02 2.78528E-01 2.10890E-01-3.55661E-01 8.20905E-01
 -1      7606-1.33921E+01 1.62960E-01 1.38518E+00 3.07013E-01-3.38427E-01 1.03698E+00
 -1      7607-8.89310E+00 1.35916E-01 3.38041E-01 6.62197E-04-1.31116E-01 3.23205E-01
 -1      7608-1.35926E+01 8.69972E-02 1.00807E+00 9.67654E-02-1.89132E-01 3.59190E-01
 -1      7609-2.32493E+01 1.94911E+00 1.82938E-01 1.04603E-01-8.68900E-02 3.03600E+00
 -1      7610-3.14361E+01-1.58171E+00-6.69109E-01 3.47381E-01 5.09257E-02 5.33558E+00
 -1      7611-2.83106E+01-1.07370E+00 1.55203E-02 1.07217E-01 1.20913E-01 5.72564E-02
 -1      7612-2.95763E+01-1.09806E+00 1.22141E-03 1.90479E-02 5.88568E-02 3.68656E-02
 -1      7613-1.90064E+01 8.21716E-01 6.90685E-01-1.53461E+00-8.92405E-01-2.42658E+00
 -1      7614-1.63084E+01 7.78792E-01 1.14715E-01-8.90415E-01-7.71579E-01-3.18312E+00
 -1      7615-1.77048E+01 1.34464E+00 1.21192E+00-1.09341E+00-4.89358E-01-1.45262E+00
 -1      7616-5.83050E+00 1.14629E-01 8.53510E-03 3.35823E-01 1.30972E-01 8.65237E-02
 -1      7617-5.25980E+00 1.22070E-01 3.94101E-04 3.24036E-01 8.92845E-02 5.08444E-02
 -1      7618-1.55631E+01 6.94219E-02 7.04361E-01-4.56043E-02-1.55238E-01-3.32144E-02
 -1      7619-1.51277E+01 2.58734E-02 3.60583E-01 6.48248E-02-9.89262E-02 7.94631E-02
 -1      7620-2.88836E+01-6.52421E+00-8.18526E-01 1.34142E+00-1.10189E-01-8.87824E-01
 -1      7621-2.49767E+01 6.73094E-02 1.72455E+00 2.30353E+00 9.27028E-01-2.18837E+00
 -1      7622-2.02988E+01 1.39678E+00 1.21014E+00 1.16004E+00 9.85839E-01-1.82562E+00
 -1      7623-2.78264E+01-9.74804E-02 6.55828E-01-7.25468E-01 3.30010E-02-2.15724E+00
 -1      7624-2.55721E+01 9.24831E-02 2.34276E+00 2.46766E-01-8.24215E-02-2.54463E+00
 -1      7625-1.89589E+01 7.79613E-01 5.49105E-01-6.34728E-01-6.43421E-01-3.09019E+00
 -1      7626-1.63830E+01 9.90467E-01 3.04854E-01-6.85040E-01-5.91295E-01-3.12170E+00
 -1      7627-1.89027E+01 1.27557E+00 1.12871E+00-9.19745E-01-5.04213E-01-1.65934E+00
 -1      7628-9.22232E+00 1.87591E+00-6.11127E-01-7.36913E-01-7.29819E-01-3.59611E+00
 -1      7629-5.20497E+00 7.49474E-01 6.67761E-03-1.48739E-01-6.89106E-02-1.59973E-01
 -1      7630-1.43449E+01-2.09115E+00-1.66547E-01-3.13641E-01-1.71939E-01 7.20512E-01
 -1      7631-5.88850E+00 9.60812E-01 8.01574E-03 7.90306E-02-2.42071E-02 4.44846E-02
 -1      7632-1.59044E+01-3.39049E-01 6.92177E-02-1.28257E-02 3.08972E-01-1.79484E-01
 -1      7633-2.95138E+01-1.19264E+00 7.39470E-04-3.11368E-02 4.71552E-02 3.86073E-02
 -1      7634-3.20065E+01-1.61235E+00 1.79647E-01-1.01380E+00 2.80028E-01 3.98743E+00
 -1      7635-3.49173E+01-2.70008E+00-2.57570E+00-1.34663E+00 2.35028E-01 2.93721E+00
 -1      7636-2.89358E+01-2.35112E+00 2.40789E-02-5.02298E-02 2.66056E-03-1.15578E-01
 -1      7637-1.89193E+01-1.71738E-02 4.09277E-01-9.75950E-02-1.05620E-01-1.46046E-01
 -1      7638-1.55245E+01 1.06073E-01 3.42628E-01-9.51821E-02-1.71111E-01 8.98760E-02
 -1      7639-1.34063E+01 9.37841E-02 5.15524E-01 1.50515E-02-1.33991E-01 8.90382E-02
 -1      7640-2.04196E+01 5.80609E-02 9.23377E-01-1.30438E-01-9.04340E-02-4.46469E-01
 -1      7641-1.72704E+01-2.46005E-02 6.23490E-01-3.31280E-02-1.92355E-01-1.26286E-01
 -1      7642-2.87273E+01-3.93081E+00 1.00963E-01 1.88197E-01-2.08439E-02-1.69180E-02
 -1      7643-2.12522E+01 1.38414E-02 2.50629E+00 3.90385E-01-1.23327E-01-2.14028E-01
 -1      7644-2.92392E+00 2.14888E+00-1.49202E-01 4.77252E-01 4.55313E-01-7.89936E-01
 -1      7645-2.79940E+01 3.23798E-02 8.64320E-01 6.48815E-01 3.72283E-02 2.25456E+00
 -1      7646-2.70472E+01-7.02571E-02 6.04253E-01 7.89757E-01 9.97398E-02 3.30666E+00
 -1      7647-2.62181E+01 3.25404E-02 2.19286E+00-2.55069E-01 4.95867E-02 3.01070E+00
 -1      7648-2.64143E+01 6.99941E-02 1.74298E+00-1.86643E-01 3.65127E-01 5.07684E+00
 -1      7649-2.76330E+01-1.17065E-01 1.03394E+00 4.19960E-01 2.03802E-01 2.23120E+00
 -1      7650-4.98917E+01-4.42661E-01 3.77383E-02 9.54590E-02-2.94192E-01 4.52590E-01
 -1      7651-1.69849E+01-2.47402E-01 3.33114E-02-5.27730E-02-2.72016E-01-6.73807E-02
 -1      7652-2.85389E+01-1.81103E-01 4.38470E-03-1.24016E-01 1.05153E-01 1.32144E-01
 -1      7653-2.76455E+01-6.11319E-01 1.40195E-01-2.92808E-02-1.21630E-02-1.40882E-01
 -1      7654-2.35924E+01-6.07611E-02 5.27684E-01-3.21352E-02-9.66295E-03-4.65228E-01
 -1      7655-1.63771E+01-2.04895E-01 1.51630E-02-3.48712E-02-8.83983E-02-1.74334E-01
 -1      7656-1.75980E+01-1.62757E+00 8.48858E-02 5.48090E-01 3.66747E-01 3.70889E-01
 -1      7657-9.71133E+00-2.13754E-02 1.40574E-02 5.34371E-02-3.59608E-01 9.33314E-01
 -1      7658-6.90044E+00 1.67668E-02 5.22635E-02 2.44589E-01-2.98508E-01-2.02206E-01
 -1      7659-2.37282E+01-5.65739E+00-4.40252E+00-3.35865E+00-1.82729E-01 8.47379E-01
 -1      7660-2.28489E+01-6.69286E+00-4.52478E+00-2.82269E+00-2.82565E-01 1.24997E+00
 -1      7661-2.85006E+01-3.37781E-01 2.54235E-01-2.69892E-02 1.90663E-03-6.19176E-01
 -1      7662-2.84273E+01-4.51541E-01 2.28124E-01-4.54347E-02 4.53031E-02-5.87713E-01
 -1      7663-1.73056E+01 5.20481E-01 7.47123E-01-5.40970E-03 8.92327E-02-3.50850E-02
 -1      7664-2.46045E+01-3.86935E-01 2.54750E+00 3.96006E-01 2.44492E-01 1.17649E+00
 -1      7665-1.70272E+01-1.90790E+00 1.04593E-01 3.01711E-03 1.12036E-02 5.38250E-01
 -1      7666-2.80552E+01-9.52256E-01 3.95092E-03 5.10826E-02 2.56386E-02-3.60319E-02
 -1      7667-1.46560E+01-2.20845E+00-1.56576E-01 1.12965E-01-1.44741E-02-7.72322E-01
 -1      7668-3.89359E+00 5.34975E-02-1.70800E-02-1.34620E-01-1.88099E-02 1.04478E-01
 -1      7669-3.99352E+00 4.39416E-02 8.14283E-03-1.20810E-01-1.27846E-02 4.28002E-02
 -1      7670-4.93981E+00 1.40682E-01 1.92191E-02-2.70547E-01-9.72526E-02 4.29536E-02
 -1      7671-1.69505E+01-1.57198E+00 1.29892E-01-2.52367E-01 1.80356E-01-5.25498E-01
 -1      7672-1.84886E+01 5.05277E-01 7.99741E-01-5.93844E-02-1.94202E-02-1.30406E-01
 -1      7673-2.36270E+01-1.06379E-01 4.43914E-01-6.31719E-02-1.69422E-02-4.35728E-01
 -1      7674-1.71399E+01 4.43103E-01 5.14549E-01-1.43183E-02-2.45195E-02 1.51982E-01
 -1      7675-1.83537E+01 5.82939E-01 9.37039E-01 1.37504E-03-2.64320E-02-6.91582E-02
 -1      7676-2.47667E+01 1.58486E-02 7.74607E-01-1.39701E-02-8.02644E-03-7.96842E-01
 -1      7677-2.03286E+01-2.93932E-02 3.99076E-01 1.34503E-01-7.85283E-02 2.14210E-01
 -1      7678-4.19035E+00-1.32656E+00-1.22344E+00 7.24180E-01 1.52998E-01-1.27140E+00
 -1      7679-4.32896E+00 1.85140E-01 3.00576E-02-3.86813E-03-1.71076E-01 4.06563E-01
 -1      7680-2.83488E+01-3.57162E+00 8.02002E-02-2.81346E-01 5.15493E-02-1.12586E-01
 -1      7681-2.89862E+01-3.39823E+00 4.83771E-02 2.10299E-03-4.89922E-03-8.15517E-02
 -1      7682-3.17273E+01-9.78635E-01 1.49514E+00 1.39938E+00-3.41678E-01 2.02620E+00
 -1      7683-2.98255E+01-1.39929E-01 1.28514E+00 1.70429E+00-6.61248E-01 4.12530E+00
 -1      7684-2.91244E+01-1.15990E+00 3.60904E-04 1.70912E-02-5.53740E-02 4.92488E-02
 -1      7685-1.54335E+01-2.40120E+00-6.11724E-02 1.09943E-02 1.19216E-03 8.85916E-01
 -1      7686-9.21805E+00 9.74072E-02 4.53769E-01-1.78276E-01 2.38374E-01 7.08868E-01
 -1      7687-9.37382E+00 1.04103E-01 3.72321E-01 2.31070E-02 1.06211E-01 2.58757E-01
 -1      7688-3.72694E+00-1.10626E+00-1.16869E+00 5.73675E-01 1.76801E-01-1.14437E+00
 -1      7689-5.22412E+00 7.52087E-02-9.46800E-04 1.62474E-01 6.11862E-02 6.92151E-02
 -1      7690-1.97654E+01 5.62493E-01 1.70166E+00 7.22625E-02 3.80922E-02-7.29797E-01
 -1      7691-2.31771E+01 2.73435E-01 2.53091E+00 4.51561E-02 6.11356E-02-4.84252E-01
 -1      7692-1.84624E+01-8.05807E-02 8.50332E-03 1.97596E-01-1.78929E-01 1.43136E-03
 -1      7693-1.32760E+01 4.24983E-02 2.83763E-01-6.78563E-02-1.03332E-01-7.14046E-03
 -1      7694-1.53680E+01 2.52158E-02 1.66122E-01-1.68480E-01-1.62410E-01-4.40317E-03
 -1      7695-9.89607E+00 1.51273E-01 1.58614E-01-6.67384E-02-1.62226E-01 1.42110E-01
 -1      7696-4.75912E+00-8.10213E-01-5.42433E-01 5.43803E-01-2.29108E-01-3.37567E-02
 -1      7697-5.24829E+00-1.04675E+00-8.14672E-01 5.97736E-01-2.70025E-01 2.75250E-01
 -1      7698-3.82699E+00 5.10319E-02 1.47931E-03 1.99600E-01 2.44626E-02 1.32158E-01
 -1      7699-1.60324E+01 1.35238E+00 1.19650E+00-1.12853E-01-1.68002E-03-2.50642E+00
 -1      7700-2.11326E+01 5.01787E-01 2.42393E+00 1.20078E-01 1.74863E-01-7.18385E-01
 -1      7701-3.87059E+00 6.54452E-02 4.09860E-02-3.01766E-01 9.57355E-02-4.18266E-01
 -1      7702-5.66304E+00 7.88473E-02 8.65474E-02-2.81671E-01 2.75308E-01-1.37165E-01
 -1      7703-3.78907E+00 7.67689E-02-6.09752E-03 2.60778E-01 2.38883E-02 1.46815E-01
 -1      7704-3.70955E+00 7.46545E-02 5.01191E-03 2.76274E-01 3.27127E-02 2.32838E-01
 -1      7705-9.97856E+00 3.92629E-02 2.30885E-03 1.62701E-01 1.41322E-01 3.24051E-01
 -1      7706-5.79006E+00 1.33375E-01 1.15379E-02 4.09920E-01 1.36819E-01 1.06049E-01
 -1      7707-5.84715E+00-2.75678E-01-3.76557E-01 3.11427E-01-3.59920E-01 3.54743E-01
 -1      7708-5.24563E+00 7.73597E-02 1.43503E-02-1.88836E-01-3.15253E-01 5.86782E-02
 -1      7709-1.87655E+01 1.72671E-03 2.07480E-01-1.34245E-01-1.10265E-01-6.94408E-02
 -1      7710-1.72980E+01 6.25776E-03 3.83668E-02 2.20970E-01 1.62550E-01-1.17123E-02
 -1      7711-1.69047E+01-4.36895E-01 2.20655E-02 9.85619E-03 1.16403E-01-2.41658E-01
 -1      7712-1.77766E+01-2.18173E+00-1.64229E-01-9.76111E-01-4.65187E-01 2.44932E-01
 -1      7713-2.87009E+01-4.12926E-01 9.09094E-03-1.20929E-01-1.07223E-01-7.52744E-02
 -1      7714-3.84332E+00 6.16107E-02 3.21023E-02 3.02970E-01-9.99209E-02-4.36880E-01
 -1      7715-2.58437E+01 3.16740E-01 1.92448E+00 1.84916E-01-2.34196E-03 2.23367E+00
 -1      7716-1.75246E+01-5.26635E-02 6.76004E-03 1.89568E-01 1.58496E-01-4.47983E-02
 -1      7717-1.90278E+01-1.41861E-02 3.87478E-01-1.04350E-01 1.11316E-01 1.83089E-01
 -1      7718-3.75924E+00 5.93594E-02-3.34539E-03-2.10517E-01 2.85902E-02-2.02086E-01
 -1      7719-8.82073E+00 5.24153E-02 1.71577E-02-1.70496E-01 1.08388E-01-2.52980E-01
 -1      7720-4.59996E+00 1.07431E-01 7.37265E-03-3.63658E-01 1.10105E-01-1.03284E-01
 -1      7721-8.81887E+00 3.87410E-02-1.26884E-02-1.64828E-01 1.27345E-01-3.54310E-01
 -1      7722-4.71938E+00 4.44696E-01 1.10221E-01-2.46138E-02-1.06153E-01 1.22825E-01
 -1      7723-3.41129E+00 9.43697E-02 1.76352E-01-7.42603E-02 2.80367E-02 2.81336E-01
 -1      7724-5.13722E+00 1.00147E-01 1.36759E-01 1.27706E-02 5.77665E-02 1.02216E-01
 -1      7725-2.43000E+01-2.57493E-01 2.89448E-01-1.67318E-01-5.39034E-02-2.37363E-01
 -1      7726-2.88167E+01-6.38130E-01 4.07578E-02-2.00800E-01 2.95057E-03-2.36370E-01
 -1      7727-2.48604E+01-1.67223E-01 4.07371E-01-1.16622E-01-6.88828E-02-4.01368E-01
 -1      7728 1.17504E+00 3.22004E+00-4.52976E-02 2.73190E-02-8.05206E-02-4.90634E-01
 -1      7729-4.08126E+00 2.62477E+00-2.11125E-01 9.53472E-02-1.28317E-01 9.90212E-01
 -1      7730-2.04951E+01 2.22910E-02 9.98528E-01 3.31698E-02-8.18211E-02 5.77726E-01
 -1      7731-4.97565E+00 1.18610E+00 1.66678E-01-1.27054E-01 6.38684E-02 2.50944E-01
 -1      7732-4.02555E+01-6.19719E-01-2.22414E+00-2.60990E+00-1.04423E-01 1.14989E+00
 -1      7733-3.87218E+01-8.32650E-01-8.08148E-01-2.48141E+00 4.34334E-01 1.60933E+00
 -1      7734-2.90654E+01-4.09546E+00-7.90195E-01-3.42884E+00-3.61212E-01 4.55117E-02
 -1      7735-2.79887E+01-4.98185E+00-4.14495E-01-3.08977E+00 4.64557E-02 9.46983E-02
 -1      7736-2.06479E+01-4.11280E-01 1.33857E-02-5.18845E-02-2.32974E-01-3.94470E-02
 -1      7737-1.70716E+01 6.94026E-01 1.26018E+00 4.25665E-02-9.79373E-02 3.37920E-01
 -1      7738-2.92831E+01-8.08540E-01 5.36951E-02-1.88188E-01-3.02942E-02-6.74680E-02
 -1      7739-2.81554E+01-2.57325E+00 5.72073E-02 2.40429E-01-9.39533E-02-1.44727E-01
 -1      7740-2.89510E+01-2.38024E+00 2.58665E-02 1.13684E-01-2.24656E-02-1.21706E-01
 -1      7741-1.37462E+01-3.61172E-02 1.40343E-01-1.75593E-02 2.82451E-01-7.87123E-01
 -1      7742-2.80334E+00 2.21504E+00-1.36233E-01 2.98227E-01-1.98722E-01 5.45923E-01
 -1      7743-1.58306E+01-4.88596E-01 5.19978E-02 1.39471E-02-2.68967E-02 3.06678E-01
 -1      7744-2.83817E+01-5.59396E-01 1.90723E-01-3.05565E-01-5.93830E-02-1.95855E-01
 -1      7745-2.91807E+01-7.24135E-01 4.94459E-02-2.49866E-01-3.56927E-02-9.65857E-02
 -1      7746-1.57595E+01 1.04969E-01 3.92292E-01-1.01399E-01 1.74762E-01-7.74019E-02
 -1      7747-1.97772E+01 4.62635E-01 1.14833E+00 4.78291E-02-1.26231E-01-8.23095E-02
 -1      7748-3.71536E+00 6.14057E-02-9.93567E-03-2.60404E-01 2.86482E-02-2.23504E-01
 -1      7749-4.53265E+00 1.28076E-01 2.71441E-02-4.27048E-01 1.09961E-01-1.11306E-01
 -1      7750-1.00998E+01 8.99568E-01 3.61444E-01-9.98605E-02 1.63995E-01 5.46811E-01
 -1      7751-4.70068E+00 1.13308E-01 4.17836E-02-1.87608E-01-7.32776E-02 4.28337E-02
 -1      7752-2.71271E+01-2.05551E-01 1.79647E-01-4.66287E-01-7.57742E-02-1.27334E-01
 -1      7753-1.75322E+01-2.10365E-01 5.14182E-02 9.34904E-02-2.88465E-01-1.05700E-01
 -1      7754-1.94239E+01-1.18418E-01-4.95701E-03 9.03868E-02-2.54197E-01-1.68299E-01
 -1      7755-2.93242E+01-7.16323E-01 5.56506E-02-2.52934E-01-4.02500E-02-6.33367E-02
 -1      7756-2.91731E+01-6.26383E-01 4.03192E-02-3.62949E-01-6.26732E-02-5.37273E-02
 -1      7757-2.50582E+01-3.54584E-01 1.11704E-01-2.38428E-01-1.04106E-01-1.03518E-01
 -1      7758-2.09894E+01 7.45919E-01 2.06108E+00-2.04170E+00 1.22119E+00 3.79473E+00
 -1      7759-2.54457E+01-2.62482E-01 4.19251E+00-1.00087E+00 1.25085E-01-6.85014E-01
 -1      7760-2.29229E+01-1.14573E-01 4.96745E-03 4.54163E-02-2.08958E-01-2.37625E-01
 -1      7761-5.48634E+00 7.86533E-01 1.28741E-02-1.56749E-01-8.33973E-02 3.22286E-03
 -1      7762-4.70553E+00 1.01798E+00 7.20620E-02-3.13301E-02-6.29278E-02 8.36245E-02
 -1      7763-1.90591E+01-1.85638E-02 5.26875E-02 5.56580E-02-1.37997E-01-4.11085E-01
 -1      7764-7.97373E+00 1.72504E+00-1.29520E+00 6.68604E-01 8.24800E-01-3.08899E+00
 -1      7765-7.04235E+00 2.10150E+00-7.83154E-01-1.02122E+00 1.26986E+00 3.51947E+00
 -1      7766-1.45594E+01 2.90669E-02 2.91882E-01-7.01156E-02 1.03375E-01 5.87948E-02
 -1      7767-2.91205E+01-3.82840E+00-4.80037E-01 3.28297E+00 3.55284E-01-2.83944E-02
 -1      7768-2.86964E+01-4.93404E+00-2.90033E-01 3.23697E+00-1.01134E-01 5.17389E-02
 -1      7769-2.88336E+01-6.46588E+00-2.35369E-01-1.04492E+00 2.77089E-01 4.51093E-01
 -1      7770-1.96458E+01 6.99946E-02 1.00016E+00-5.81347E-02 1.04973E-01 4.50055E-01
 -1      7771-2.83084E+01-8.89888E-01 6.91035E-03-1.09241E-01 5.78193E-02 2.09661E-02
 -1      7772-2.95191E+01-1.08474E+00-6.63140E-03-5.98787E-02 5.85789E-02 3.28828E-02
 -1      7773-5.91323E+00 2.99649E-01 1.56128E-03 4.53550E-01 1.52541E-01 5.89109E-02
 -1      7774-2.95357E+00 2.56178E+00-1.52075E-01 2.30106E-01 3.68186E-01-7.54469E-01
 -1      7775-4.43148E+00 7.01759E-02 1.93727E-02-2.48065E-01 8.50123E-02-2.00683E-01
 -1      7776-8.72757E+00 6.23137E-02 4.31707E-02-1.62693E-01 1.37042E-01-4.56891E-01
 -1      7777-2.23393E+01-5.14715E-02 1.10611E-01-2.48540E-01-1.50449E-01-7.52203E-02
 -1      7778-2.66439E+01-8.37452E-01 7.78046E-01 4.59747E-01-3.70485E-01 4.70216E+00
 -1      7779-6.35126E+00 2.24344E+00-5.72078E-01-7.59247E-01-1.21178E+00-3.28796E+00
 -1      7780-1.61398E+01-2.23004E-02 1.41168E-02 1.83244E-01-1.72946E-01 3.66031E-02
 -1      7781-2.31041E+01 3.14274E-01 7.07193E-01 1.06082E+00 7.59297E-02 3.73498E+00
 -1      7782-2.37465E+01 4.76247E-01 1.09553E+00 5.58592E-01 3.48814E-01 2.88448E+00
 -1      7783-3.70888E+00 6.56856E-02-1.08850E-02 2.91002E-01-3.47981E-02-2.84796E-01
 -1      7784-6.16576E+00-6.72550E-01-7.24288E-01 6.85321E-01-2.49666E-01 5.69352E-01
 -1      7785-5.91337E+00-1.17046E+00-8.75010E-01 7.96030E-01-2.69507E-01 4.20495E-01
 -1      7786-2.37367E+01 1.01757E+00 7.93598E-01 4.97950E-02 3.54373E-01 3.00608E+00
 -1      7787-4.61932E+00 1.45676E-01 3.35429E-02-4.62227E-01 1.36393E-01-1.21824E-01
 -1      7788-1.88410E+01 1.60073E-03 1.36753E-01-2.30877E-01-1.60278E-01-1.30700E-02
 -1      7789-5.10789E+00-1.19254E+00-8.93900E-01 4.42802E-01-1.84379E-01 8.23979E-01
 -1      7790-2.45292E+01-1.89242E-02 4.20530E-01 1.72138E-01-7.02004E-02 6.55817E-01
 -1      7791-2.45941E+01 5.37789E-02 9.50395E-01 8.97105E-02-3.84585E-02 1.18777E+00
 -1      7792-1.65417E+01 4.14862E-01 6.66800E-01-3.93531E-02 1.66385E-01 9.76564E-02
 -1      7793-2.44655E+01 2.51760E-01 9.21384E-01-1.05624E-01 1.86469E-01-2.76008E+00
 -1      7794-1.74294E+01-7.85198E-02 6.43089E-03 2.02234E-01-2.02855E-01 2.63443E-02
 -1      7795-2.91583E+01-4.49026E-02 1.54518E-02 5.40681E-02 1.48677E-02 4.05919E-02
 -1      7796-1.39530E+01 9.28694E-02 5.41764E-01 1.07734E-02 1.40955E-01-4.86450E-02
 -1      7797-1.67206E+01 1.43436E-02 7.55057E-01 4.57564E-02 2.31967E-01 1.12596E-01
 -1      7798-2.31925E+01 1.80055E+00 1.82611E-01 1.14085E-01-1.93215E-01 3.17208E+00
 -1      7799-2.90460E+01-2.81431E+00 7.40608E-02-7.05359E-02-3.93295E-04-1.30681E-01
 -1      7800-2.78796E+01-7.29386E-01 9.11518E-02 1.11285E-01 2.82128E-02-7.23525E-02
 -1      7801-1.68331E+01 1.29301E+00 9.66242E-01 1.15272E+00 6.08664E-01-1.91693E+00
 -1      7802-2.67783E+01-1.93682E-01 5.97118E-01-4.73561E-01 7.11026E-02 1.10232E+00
 -1      7803-2.47654E+01 1.07722E-01 1.65196E+00-1.57889E-01-1.62631E-02 2.11094E+00
 -1      7804-2.81593E+01-8.95943E-01-5.98156E-03-1.14032E-02 1.06011E-01 1.88077E-02
 -1      7805-1.71377E+01 1.06466E-01 1.05275E+00 3.18388E-01-3.98642E-01 2.86247E-01
 -1      7806-1.02046E+01 1.26171E+00-3.31909E-01-1.55813E+00-1.25562E+00-3.48562E+00
 -1      7807-2.07339E+01 5.36053E-01 1.83650E+00-6.80260E-02 7.27882E-03 2.70307E-01
 -1      7808-3.98008E+00 1.78951E+00 7.63516E-03-5.40789E-01-2.50420E-01-8.98908E-01
 -1      7809-4.14519E+00 1.49033E+00 1.87897E-01-3.85848E-01-1.73046E-01-5.05636E-01
 -1      7810-4.04116E+01-6.33143E-01-2.16118E+00 2.61292E+00 2.10736E-01 1.08623E+00
 -1      7811-3.82613E+01-7.24249E-01-1.27450E+00 2.33370E+00-1.15742E-01 1.40542E+00
 -1      7812-3.55066E+00 8.66579E-02 1.35744E-01 5.16358E-02-7.19738E-04-2.35631E-01
 -1      7813-2.38554E+00 1.05963E-01 1.00186E-01 7.54075E-02 9.03676E-03-3.59104E-01
 -1      7814-8.43320E+00 1.12390E-01 3.21910E-01 4.59015E-02 1.50700E-01-5.86417E-01
 -1      7815-4.66890E+00 1.98744E-01 1.99784E-01 1.20016E-01 1.50536E-01-1.98612E-01
 -1      7816-9.44308E+00 1.18223E-01 3.83175E-01 1.65491E-02 1.46156E-01-3.37938E-01
 -1      7817-1.59832E+01 6.17571E-02 1.38716E+00-1.24680E-01-1.69564E-01-1.81801E-01
 -1      7818-1.62429E+01 1.18781E-01 1.67748E+00-4.15836E-01-3.03953E-01-7.94772E-01
 -1      7819-4.78879E+00 1.18578E+00 6.62780E-02-2.71347E-02-5.46095E-02 8.20913E-02
 -1      7820-2.69929E+01-6.57647E+00-1.92440E+00-4.13306E+00-1.63260E-01 7.97172E-01
 -1      7821-2.84299E+01-8.21014E+00-4.06113E+00-3.04196E+00-1.93431E-01 3.07083E+00
 -1      7822-7.40013E+00-2.37466E+00-1.78884E+00 9.22745E-02-1.77111E-02-7.33451E-01
 -1      7823-3.20616E+01-2.57308E+00-9.88483E-01-2.15537E-01 1.85145E-01 1.92072E+00
 -1      7824-4.67236E+00 1.22632E-01 1.69362E-01 2.63533E-02-7.72630E-02 1.56180E-01
 -1      7825-9.11017E+00 1.02567E-01 2.09343E-01-6.57217E-03-1.04727E-01 1.51990E-01
 -1      7826-3.38539E+00-1.37945E+00-1.23922E+00 4.24663E-01-5.24794E-02 1.04626E+00
 -1      7827-8.94228E+00-2.76322E+00-2.04249E+00 8.05527E-01-1.75240E-01 7.98814E-01
 -1      7828-2.11032E+01 2.11660E-02 1.68634E+00 2.33536E-02-6.49749E-02 5.90432E-01
 -1      7829-4.01959E+00 3.39075E-01 4.28737E-02 2.81826E-01 3.27459E-01-6.30009E-01
 -1      7830-7.50161E+00 2.62677E-01 2.91986E-01 3.05977E-01 3.73080E-01-1.20721E+00
 -1      7831-2.33289E+01-7.26905E+00-4.33136E+00-9.30470E-01 1.35125E-03 1.79738E+00
 -1      7832-2.80471E+01-4.31319E-01 3.56211E-01 2.22871E-01 2.07118E-02-3.88440E-01
 -1      7833-7.36446E+00 1.87757E+00-9.77337E-01-1.08086E+00-1.07662E+00-3.24999E+00
 -1      7834-4.85473E+00 7.19209E-01 4.08620E-03 3.01512E-01-7.79802E-02 3.96294E-02
 -1      7835-2.36897E+01-5.32614E+00-4.10642E+00 3.15158E+00 1.81195E-01 7.06844E-01
 -1      7836-2.33058E+01-6.71909E+00-4.53297E+00 3.01976E+00 2.47961E-01 1.18673E+00
 -1      7837-2.09723E+01 2.39518E-02 1.58256E+00 2.36238E-02-1.06006E-01-4.72338E-01
 -1      7838-2.52465E+01 6.35210E-02 1.54006E+00-1.30076E-01 9.65361E-02-2.18408E+00
 -1      7839-7.08698E+00 2.81180E-01 9.63478E-02-5.16340E-01-5.27168E-01-1.43961E+00
 -1      7840-1.32284E+01-2.77292E-02 1.34774E+00-2.71954E-01-4.54163E-01-2.41373E+00
 -1      7841-2.27620E+01-1.00443E-01 5.31052E-02 8.60119E-03-1.40434E-01 5.95171E-01
 -1      7842-2.36628E+01-1.31730E-01 8.96709E-02 1.67669E-01-1.44017E-01 7.06174E-01
 -1      7843-2.62480E+01-1.28645E-01-7.21364E-01-2.04650E+00 8.46388E-01 1.99456E+00
 -1      7844-2.85729E+01-5.01628E+00-3.36282E-01 1.33771E+00-1.69479E-01-3.33468E-01
 -1      7845-2.29357E+01-3.16496E-01-1.22920E-01 2.15061E-01-3.49925E-01-4.48374E+00
 -1      7846-9.05064E+00 6.34580E-02 8.54377E-02-7.91813E-02-7.28308E-02 6.22392E-02
 -1      7847-3.84395E+00 4.65661E-02 1.12677E-01 1.22491E-02-1.18862E-02-1.56501E-01
 -1      7848-2.72768E+01-2.24690E-01 2.37173E-01-6.88092E-01-1.01400E-02-7.82342E-01
 -1      7849-7.41132E+00-2.42125E+00-1.90443E+00-9.25163E-02 4.39511E-02-7.59302E-01
 -1      7850-2.22189E+01 1.43644E-01 2.74989E+00 1.57580E-01 9.51388E-02 8.23003E-01
 -1      7851-1.67972E+01 4.62715E-02 1.09308E+00 4.30832E-01 3.94234E-01-5.26766E-01
 -1      7852-1.01845E+01 5.23090E-02 1.07183E-01-8.48438E-02 8.13134E-02-4.80520E-02
 -1      7853-5.81121E+00 7.12896E-02 5.44742E-02-8.13639E-02 4.87353E-02-3.17839E-02
 -1      7854-2.95548E+00-5.69806E-01-5.24240E-01-7.74606E-02 1.98003E-02-1.05651E-02
 -1      7855-4.95997E+00-3.29808E-01-2.25038E-01-3.37838E-01-2.45125E-01 3.20748E-01
 -1      7856-3.97443E+00 7.80447E-02-6.37554E-02-1.44629E-01-1.65695E-01 4.51295E-01
 -1      7857-2.79939E+01-4.69123E+00-4.70456E-01-1.85539E+00-1.68481E-01 2.69584E-01
 -1      7858-2.42340E+01 1.08444E+00 3.86869E-01-2.03852E-01-3.22055E-01-3.35736E+00
 -1      7859-1.00879E+01 3.58373E-01-3.77583E-03 2.14420E-01-1.42166E-01 7.35387E-02
 -1      7860-5.01971E+00 7.67361E-02 2.16025E-02-2.16890E-01-9.71455E-02 2.32276E-01
 -1      7861-3.40083E+01-2.14317E+00-1.68786E-01 1.24898E+00-1.12834E-02 3.06285E+00
 -1      7862-1.50688E+01 6.05744E-01 1.00414E-01-1.98503E-01-5.22630E-01 2.39851E-01
 -1      7863-2.43896E+01-4.49189E-02 8.68021E-02-1.40533E-01-6.78195E-02-1.56384E-01
 -1      7864-2.88752E+01-1.32851E-01 2.74419E-03-3.42521E-01-8.01822E-02 3.33993E-03
 -1      7865-4.96679E+00 3.77016E-02 7.89658E-03-1.44416E-01-2.15968E-01 3.01115E-01
 -1      7866-1.43108E+01 6.71860E-02 1.09483E+00 6.80138E-02 1.45286E-01-2.00236E-01
 -1      7867-2.03761E+01 3.73067E-02 1.60583E+00-3.12396E-02 1.02082E-01 4.32401E-01
 -1      7868-2.68445E+01-2.39439E-02 6.60133E-01 6.77283E-01-7.11664E-02 1.07701E+00
 -1      7869-2.54026E+01 3.83646E-02 1.69242E+00 1.03632E-01 7.73649E-02 2.41363E+00
 -1      7870-2.38812E+01-7.49227E-02-4.97454E-03 4.68548E-02-9.47023E-02-3.28540E-01
 -1      7871-2.31127E+01-5.46202E-02 3.73582E-02 1.37626E-02-1.14192E-01-4.16824E-01
 -1      7872-4.95495E+01-6.23575E-01-2.59368E-02-4.33093E-01 3.14058E-01 4.84439E-01
 -1      7873-2.05730E+00 1.59313E-02-2.38064E-01 9.99539E-02-3.07459E-02 5.49093E-01
 -1      7874-2.99643E-01 7.79038E-02-3.67539E-01 8.93244E-02 4.67822E-02 2.76349E-02
 -1      7875-1.25203E+00 7.49012E-01 6.47933E-01 3.58143E-01-9.20722E-01 4.75710E-01
 -1      7876 1.00813E-01 6.36489E-01-3.37993E-02 4.78799E-01-5.57036E-01-4.45956E-02
 -1      7877-3.55536E+00 4.68897E-01-4.97191E-02 3.94396E-01-6.51782E-01 1.11664E+00
 -1      7878-2.09103E+00-2.79635E-02-2.71414E-01-1.03250E-01 4.95263E-02 5.83114E-01
 -1      7879-2.39546E-01 2.01309E-01-3.36727E-01-1.32757E-01-2.84787E-02 1.54929E-01
 -1      7880 3.25473E-01 6.85173E-01 8.55480E-02-5.03274E-01 5.60399E-01-1.11558E-01
 -1      7881-1.24045E+00 7.95480E-01 5.62309E-01-2.89078E-01 8.66038E-01 3.59453E-01
 -1      7882-3.44399E+00 5.41484E-01-6.98389E-02-3.05386E-01 6.45581E-01 1.15866E+00
 -1      7883-2.57562E+01-1.71837E-01 3.31061E+00-6.68484E-01-1.78327E-01 1.21925E+00
 -1      7884-2.46834E+01 2.09056E-01 4.59020E-01-1.67972E+00-9.17904E-01-2.94870E+00
 -1      7885-1.98659E+01 8.49839E-01 1.95920E+00-1.58713E+00-1.40471E+00-3.18959E+00
 -1      7886-1.90342E+01 4.93312E-02 2.71606E+00-4.86753E-01-5.23313E-01-9.23941E-01
 -1      7887-1.37992E+01 8.91112E-01-1.21634E-01-1.70071E+00-1.18323E+00-4.63304E+00
 -1      7888 4.82769E-01 4.10340E-02-4.76418E-01-1.17574E-01 2.42100E-02-1.18246E-01
 -1      7889-2.94025E+00-5.52561E-01-5.54855E-01 1.08380E-01-1.64098E-02 8.22898E-03
 -1      7890-2.78759E+01-1.03620E-01 1.84390E-01 2.04490E-01 6.16849E-02-2.07426E-01
 -1      7891-3.70767E+00 7.64655E-01-9.62432E-02-3.00296E-01 6.98336E-01 5.14867E-01
 -1      7892-8.43302E+00 1.38816E+00-1.59239E-01-9.55297E-01 1.28810E+00 2.71800E+00
 -1      7893-1.88014E+00 1.80640E+00-3.98556E-01-6.37415E-01 8.99058E-01 4.80065E-01
 -1      7894-3.17189E+00 2.76931E+00-4.54043E-02 1.33582E-01-1.53063E-01 7.90136E-01
 -1      7895-2.55277E+01-1.48459E+00-2.26685E+00-9.52110E-01 3.92247E-01 2.91996E+00
 -1      7896-2.75121E+01-1.09709E-01 6.20270E-01-2.46566E-01 7.87085E-02 9.69153E-01
 -1      7897-2.72353E+01-2.86174E-01 1.06850E-01-3.47104E-01-9.48934E-02-7.14684E-02
 -1      7898-1.12899E+01 1.39783E-01 2.39190E-01-6.88915E-02 1.86519E-01-1.51364E-01
 -1      7899 1.71866E+00 3.29494E+00-3.45830E-02-1.80097E-01-1.19407E-01 2.11510E-01
 -1      7900-1.10381E+00 3.21783E+00-4.89677E-01-7.40535E-02-7.82240E-02-9.08022E-01
 -1      7901-3.67439E+00 4.05767E-02-1.66131E-02-2.29456E-01-2.15454E-02 2.32192E-01
 -1      7902-2.71379E+01-1.13215E-01 2.31539E-02 7.74969E-02-9.42097E-02 2.75600E-01
 -1      7903-7.74987E+00 5.27302E-01-6.65372E-02-5.53366E-01 3.36285E-01-2.95734E-01
 -1      7904-3.93060E+00 8.24452E-02 7.52870E-02-2.22016E-02 8.95406E-03-3.03946E-02
 -1      7905-3.84843E+00 7.65046E-02 1.29663E-01 1.13424E-04 2.45932E-02-1.73867E-01
 -1      7906-4.97937E+00 1.86466E-01 1.65808E-01 1.63103E-02 1.20436E-01-1.68451E-01
 -1      7907-9.54555E+00 8.12297E-02 2.23903E-01-1.57445E-02 1.23679E-01-1.40256E-01
 -1      7908-3.33725E+01-3.15926E+00-7.91706E-01 5.98701E-01 2.47706E-01-4.54446E+00
 -1      7909-2.95115E+01-2.03122E+00 7.58429E-01 2.00592E-01-7.60017E-02-4.56768E+00
 -1      7910-3.54286E+01-3.95615E+00-3.23669E+00 5.65526E-02 1.70494E-01-2.89510E+00
 -1      7911-4.98454E+00 3.89217E-01 1.58009E-01 3.86577E-03 1.02980E-01-1.53943E-01
 -1      7912-4.96967E+01-5.55414E-01-1.91548E-02 3.01666E-01-3.61803E-01 4.10572E-01
 -1      7913-2.76461E+01-6.07349E-01 1.54282E-01-8.80783E-02-1.61950E-02-1.39438E-01
 -1      7914-2.88422E+01-6.30052E-01 2.54813E-01-4.20175E-02 6.16107E-03-3.22532E-01
 -1      7915-2.88105E+01-5.53942E-01 3.09107E-01-1.12232E-01-1.80371E-02-3.06525E-01
 -1      7916-4.06123E+00 1.13426E+00 1.83226E-01-6.99262E-01-7.11205E-01-8.38104E-01
 -1      7917-1.66113E+00 1.58315E+00-2.83015E-01-4.24232E-01-5.62534E-01-3.85406E-01
 -1      7918-1.41059E+01 1.75761E-01 1.28626E+00 3.61201E-01 3.42472E-01-8.99535E-01
 -1      7919-8.30417E-01 6.59004E-01 3.30112E-01-3.86746E-01-7.54691E-01-3.31353E-01
 -1      7920-6.45503E+00 8.00991E-01 1.10424E+00-3.49865E-01-9.36640E-01-1.68008E+00
 -1      7921-6.97442E+00 1.32269E+00 4.82637E-01-9.56926E-01-1.11964E+00-1.62195E+00
 -1      7922-4.82082E+00 7.23085E-02-3.12491E-03 1.64406E-01-5.67261E-02-7.19305E-02
 -1      7923-2.81005E+01-7.96012E+00-2.45659E+00 9.29920E-01-1.02292E-01-1.49125E+00
 -1      7924-8.84031E+00 1.24990E+00-2.11744E-01-5.92555E-01-5.33058E-01-2.18740E+00
 -1      7925-3.34390E+00 1.37673E+00 4.30612E-03-4.93248E-01 3.11296E-01 7.65756E-01
 -1      7926-2.64914E+01-5.10972E-01-1.46529E+00 1.95135E+00-6.86624E-01 1.95870E+00
 -1      7927 8.33954E-02 5.17409E-01-2.27929E-01-5.55216E-01-6.73519E-01-8.06819E-02
 -1      7928-2.92841E+01-3.86714E-01 6.85140E-02-5.13216E-01-5.83205E-02-3.84884E-02
 -1      7929-3.70633E+01-2.81707E+00-1.88119E+00-3.84375E-01-6.54948E-02 2.63758E+00
 -1      7930-9.05354E-01 3.24666E+00-4.28817E-01-1.73537E-02 2.67617E-02 8.64299E-01
 -1      7931 1.36389E+00 3.22933E+00-2.20920E-01-4.15917E-02 6.48184E-02-2.63952E-01
 -1      7932 1.36913E+00 3.21791E+00-1.50413E-01-7.54513E-03 9.80875E-02 2.10354E-01
 -1      7933-1.34849E+01-1.20986E+00-3.51329E+00-1.73476E+00 8.11425E-02 2.92837E+00
 -1      7934-1.98896E+00 7.12563E-02 8.13581E-02 1.24212E-01-3.46669E-02-3.37573E-01
 -1      7935-3.46248E+00 4.05750E-01-1.33723E-01 2.98413E-01 3.27034E-01-6.51238E-01
 -1      7936-1.33103E+01-9.20284E-01-3.20963E+00 1.56111E+00 1.57207E-02-2.99612E+00
 -1      7937-1.78703E+01-1.36176E+00-3.80751E+00 2.36279E+00-1.63722E-01-2.37491E+00
 -1      7938-2.86073E+01-8.77964E-02 1.45145E-01 2.70648E-01-5.30922E-02 2.11168E-01
 -1      7939-2.85901E+01-2.56475E-01 2.79717E+00 9.50608E-01-3.24652E-01-3.86726E+00
 -1      7940-2.12212E+01-2.37952E+00-4.46225E+00 3.04301E+00 7.17772E-02-1.56338E+00
 -1      7941-8.63008E+00 5.01093E-02 3.14193E-02 1.47635E-01 1.30918E-01 3.98570E-01
 -1      7942-1.13824E+01-9.40706E-01-2.77824E+00 1.37521E+00 1.02467E-02 3.20854E+00
 -1      7943-9.29676E+00-2.02405E+00-2.30709E+00 1.62079E+00-3.22906E-01 2.17226E+00
 -1      7944-4.89154E+00 1.24001E+00 7.58390E-02-6.87029E-01-8.60709E-01-1.04325E+00
 -1      7945-1.60651E+00 1.95098E+00-1.85661E-01-4.77055E-01-8.04604E-01-4.21414E-01
 -1      7946-3.33938E+00 1.12142E-01 1.77058E-01 6.52392E-02-9.14000E-04 2.74516E-01
 -1      7947-4.35398E+00 1.98143E-01 1.78732E-01 1.40476E-01-1.32342E-01 1.82559E-01
 -1      7948-1.98338E+01 3.36696E-01-6.47495E-02 4.12210E-01 2.09795E-01-2.87255E+00
 -1      7949-8.22637E+00-8.34593E-01-2.48070E+00 9.34991E-01-9.55948E-02 3.47137E+00
 -1      7950-1.02220E+01-5.55538E-01-1.45416E+00 9.18809E-01-3.04262E-01 2.02342E+00
 -1      7951-4.78535E+00 5.76002E-02-7.08224E-02-1.15073E-01-1.88193E-01 7.38654E-01
 -1      7952-2.82454E+01-1.35338E-02 4.92962E-01-3.51656E-01-3.72404E-02-7.73559E-01
 -1      7953 1.15782E+00 3.19692E+00-2.22198E-01-7.10722E-02-4.50141E-02-2.85494E-01
 -1      7954-3.31484E+00 2.39032E+00-2.17429E-01-4.61094E-01-4.02571E-01-8.30160E-01
 -1      7955-1.76906E+00 2.32520E+00-3.19641E-01-6.63227E-01-5.04675E-01-4.61689E-01
 -1      7956-2.54920E+00 1.67878E+00-2.71786E-01-6.80315E-01-2.99101E-01-7.28200E-01
 -1      7957-3.70501E+00 2.38044E+00-4.18351E-01-4.73536E-01-4.44608E-01-8.95229E-01
 -1      7958-2.20123E+00 2.44634E+00-4.40118E-01-6.38322E-01-5.40416E-01-5.28914E-01
 -1      7959-5.72686E+00 1.38564E-01 7.40128E-02-9.60931E-02 7.89216E-02-3.25650E-02
 -1      7960-1.63043E+01 2.14010E+00-1.03285E-01-3.36159E-01-7.21684E-01-3.01539E-02
 -1      7961-2.83807E+01-8.25447E-02 2.55314E-02 2.12381E-01-2.83081E-02 4.15950E-01
 -1      7962-2.74160E+01-2.02205E-01 2.43394E-02 2.82195E-01-1.36695E-01 2.04694E-01
 -1      7963 1.47352E+00 3.20881E+00-2.71378E-01 1.27091E-02 4.43298E-02 2.95451E-01
 -1      7964-2.25499E+00 2.27627E+00-2.79314E-01-5.67432E-01 7.01723E-01 4.02809E-01
 -1      7965-5.56515E+00 9.09500E-01 3.24984E-02-9.66061E-02-5.66384E-02 1.08118E-02
 -1      7966-4.69175E+00 1.86125E-01 1.47431E-01 1.55099E-02-1.02492E-01 1.49224E-01
 -1      7967-4.67231E+00 1.35689E-01 5.92504E-02-9.53929E-02-6.95768E-02 3.35435E-02
 -1      7968-1.12310E+01-1.75856E+00-3.37231E+00-1.93316E+00 8.64074E-02 3.24725E+00
 -1      7969-1.03708E+01-4.25374E-01-1.41502E+00-9.56313E-01 3.52487E-01 2.01604E+00
 -1      7970-1.21764E+01-2.85193E+00-3.25583E+00-2.29984E+00 3.08094E-01 1.78106E+00
 -1      7971-2.91164E+01-7.56182E-01 6.10902E-02-1.75065E-01-2.56702E-02-9.29632E-02
 -1      7972-2.84943E+01-1.33833E-01 1.96887E-03-4.70905E-02-8.43303E-02-9.36748E-02
 -1      7973-2.78002E+01-1.55820E-01 2.41482E-03-9.35373E-02-1.22584E-01-1.62368E-01
 -1      7974-2.41990E+01-1.98973E+00 8.34250E-02 5.32660E-02-1.71209E-02-2.55516E-01
 -1      7975-1.94269E+01 8.70196E-02 1.55565E+00-4.54233E-01-3.00087E-01-1.77244E-01
 -1      7976-2.86629E+01-2.63213E-01 4.15485E+00-9.68081E-01 9.66501E-02 3.58395E+00
 -1      7977-2.54986E+01 1.23121E-01 1.58176E+00-2.00772E+00-1.03995E+00-2.27401E+00
 -1      7978-2.93031E+01-9.14240E-01-3.14889E+00-2.00537E+00-7.00312E-01-2.17830E+00
 -1      7979-3.04062E+01-4.48779E-01 1.44600E+00-8.57328E-01 7.86865E-02 5.59215E+00
 -1      7980-2.51092E+01-3.27880E+00-5.14198E+00 3.89810E+00 1.38587E-02-4.26536E-01
 -1      7981-2.44793E+01-9.37095E-01-1.38367E+00 1.86585E+00 3.49776E-01-1.10340E+00
 -1      7982-2.55959E+01-5.57835E+00-4.45827E+00 4.56161E+00 2.37418E-01 7.36151E-01
 -1      7983-2.29990E+01-2.97358E-01-1.47177E-01-1.74532E-01 2.60693E-01-4.42349E+00
 -1      7984-2.74330E+01-2.53065E+00-4.06663E+00 3.69962E+00 1.13463E-02 5.32763E-01
 -1      7985-2.83411E+01-1.37243E+00-1.46072E+00 2.11356E+00 1.33312E-01-7.65219E-01
 -1      7986-8.42022E+00-9.86636E-01-2.42800E+00-1.07236E+00 6.14025E-02 3.49695E+00
 -1      7987-9.28043E+00-2.10184E+00-2.24847E+00-1.55962E+00 3.94380E-01 2.25100E+00
 -1      7988-1.78601E+01 8.94687E-01-4.30638E-02 5.49233E-01 6.42290E-01 7.40592E-01
 -1      7989-1.11920E+01-1.80138E+00-3.32651E+00 1.91270E+00 6.66606E-02-3.23035E+00
 -1      7990-1.37386E+01-9.22688E-01-1.99548E+00 1.04851E+00 4.15970E-01-1.98656E+00
 -1      7991-1.03373E+01-4.07983E-01-1.39379E+00 9.76406E-01 3.40718E-01-1.97623E+00
 -1      7992-2.93294E+00 1.09564E-01 2.17326E-01 9.69375E-02 5.66089E-03 2.67520E-01
 -1      7993-7.33284E+00 1.62969E-01 7.34314E-02 2.12182E-01-3.69812E-01 1.38225E+00
 -1      7994-3.01278E+00 3.24957E-01-1.54357E-01 3.11302E-01-2.07085E-01 5.89494E-01
 -1      7995-3.81480E+00 2.81971E-01 1.41326E-02 3.13860E-01-2.88130E-01 5.55286E-01
 -1      7996-1.23865E+01 5.49440E-01 3.36328E-01-1.48194E+00-1.44163E+00-4.48835E+00
 -1      7997-1.78058E+01 6.61456E-01-2.07893E-01-4.54081E-01-5.51498E-01 7.71971E-01
 -1      7998-2.78333E+01-1.82349E-01 9.07407E-02 3.04751E-01-9.96795E-02 4.54869E-01
 -1      7999-2.52259E+01-3.34348E+00-5.26292E+00-3.88838E+00 4.54216E-03 4.49188E-01
 -1      8000-2.53465E+01-5.88857E+00-4.90437E+00-4.76382E+00 2.49851E-01-7.50735E-01
 -1      8001-2.45340E+01 4.43114E-01 2.48647E-01 8.64986E-01 5.89624E-01 3.25296E+00
 -1      8002-2.95209E+01-1.05930E-01 2.35560E-01 4.43962E-01-2.14687E-02 6.08552E-01
 -1      8003-1.53633E+01 6.27263E-01 6.22535E-02 1.65955E-01 5.12554E-01 2.47287E-01
 -1      8004-2.67450E+01 7.35750E-02 7.31017E-01-7.50823E-02 4.80067E-01 5.82441E+00
 -1      8005-2.79431E+01-1.19009E-01 5.44977E-03 7.45082E-02 7.48406E-02-2.23472E-01
 -1      8006-8.40994E+00-9.97544E-01-2.41542E+00 1.06057E+00 4.50336E-02-3.49302E+00
 -1      8007-9.26076E+00-2.10566E+00-2.26821E+00 1.56672E+00 4.00318E-01-2.25164E+00
 -1      8008-2.74502E+01-2.62582E+00-4.17798E+00-3.74002E+00 2.12972E-03-5.22202E-01
 -1      8009-2.84987E+01-1.69537E+00-1.84037E+00-2.36390E+00 1.06353E-01 7.39291E-01
 -1      8010-6.30562E+00-1.61167E+00-1.40533E+00 7.29370E-01-2.13420E-01 1.40166E+00
 -1      8011-4.42914E+00 1.30907E-01 2.30089E-02 4.31890E-01 1.42517E-01 1.25905E-01
 -1      8012-2.82145E+01-3.36704E+00-4.98574E+00 4.06020E+00-1.12846E-01-5.03463E-01
 -1      8013-2.50304E+01-2.37114E+00-4.36405E+00 3.49061E+00 3.47003E-01 5.90751E-01
 -1      8014-2.82489E+01-1.24780E+00-1.28375E+00 2.42253E+00-2.71640E-02 4.16521E-01
 -1      8015-2.55037E+01-6.41399E+00-5.06155E+00 4.82828E+00-3.77064E-01-6.87740E-01
 -1      8016-5.24943E+00 7.41421E-01-6.97081E-03 2.80857E-01-9.05019E-02 5.08095E-02
 -1      8017-2.89803E+01-3.26067E+00 5.89445E-02 2.77217E-01-2.34579E-02-9.48703E-02
 -1      8018-2.90515E+01-2.81303E+00 7.59850E-02 1.08418E-01-1.11940E-02-1.28768E-01
 -1      8019-1.93966E+00 2.02374E+00-2.21717E-01-6.13011E-01-5.31215E-01-3.49600E-01
 -1      8020-2.03849E+00 2.13967E+00-1.93347E-01-5.82433E-01-7.12181E-01-2.12831E-01
 -1      8021-2.13245E+01 2.27492E-01 3.03713E-01 3.57505E-01 4.59879E-01 4.09502E+00
 -1      8022-2.99380E+01-9.19499E+00-4.24230E+00-9.08233E-01-2.56619E-02 3.61437E+00
 -1      8023-2.88017E+01-6.06674E-02 1.85887E-02-1.55994E-01-5.31781E-02-1.10726E-02
 -1      8024-2.49436E+01-2.44603E+00-4.31709E+00-3.45834E+00 3.56271E-01-4.55960E-01
 -1      8025-2.82584E+01-1.19586E+00-1.18468E+00-2.35923E+00-3.15990E-02-4.55978E-01
 -1      8026-8.20116E-01 6.31964E-01 2.78945E-01 3.12741E-01 7.30453E-01-2.09416E-01
 -1      8027-5.30052E+00 2.77924E-01-2.94600E-01 3.55341E-01 4.73789E-01-1.02289E+00
 -1      8028-2.12410E+01 4.39933E-01 1.63630E+00 2.58390E-02 3.20001E-02 2.57749E-01
 -1      8029-8.27963E+00 1.51604E-01 1.82114E-01-1.77470E-01 3.34960E-01 1.35303E+00
 -1      8030-2.88078E+01-4.87898E-01 1.11743E-04-2.00151E-01 1.25998E-01 7.19462E-02
 -1      8031-2.83259E+01-3.42086E+00-4.99921E+00-4.07612E+00-1.06436E-01 5.92370E-01
 -1      8032-2.56562E+01-6.35177E+00-4.98382E+00-4.81259E+00-3.34592E-01 6.63350E-01
 -1      8033-3.91533E+00 6.66530E-02 6.10793E-02-2.85498E-02-1.28298E-02 3.61005E-02
 -1      8034-2.77812E+01-1.67438E-01 9.91675E-02-2.92955E-01 1.12724E-01 4.61221E-01
 -1      8035-2.98062E+01-9.10319E+00-4.08279E+00 8.99242E-01 1.05572E-01 3.56519E+00
 -1      8036-2.31054E+01 9.94224E-02 2.81371E+00-1.93964E-01-1.37607E-01 1.03197E+00
 -1      8037-2.84212E+01-3.03105E-01 5.28685E-02 4.90264E-01-1.52076E-01 2.74028E-01
 -1      8038-2.85338E+01-5.83033E-02 3.10956E+00-8.79192E-01 2.91584E-01-3.69600E+00
 -1      8039-2.84773E+01-1.19607E-01 1.84035E-02-2.25404E-01 3.45552E-02 3.84853E-01
 -1      8040-4.01742E+00 1.87259E-01 2.46972E-02-1.78021E-01 2.32264E-01 6.82686E-01
 -1      8041 1.09118E+00 3.20178E+00 3.29074E-02 2.10652E-01-3.09976E-02-2.95347E-01
 -1      8042-9.31145E+00-2.77497E+00-2.30641E+00 9.97754E-01-2.59517E-01 1.13610E+00
 -1      8043-2.84165E+01-4.31937E+00 1.01318E-01-1.99828E+00-2.01999E-01-5.98623E-02
 -1      8044-2.84638E+01-1.17471E+00 9.45774E-03 2.94127E-01-1.36148E-01-2.53810E-02
 -1      8045-4.28144E+00-1.49237E+00-1.27407E+00 7.39573E-01-1.63769E-01 1.35730E+00
 -1      8046-9.73213E+00-2.95395E+00-2.51369E+00 1.36296E+00-2.53963E-01 1.41334E+00
 -1      8047-3.70157E+01 5.66344E-01 1.40411E+00-2.32061E+00-5.17901E-01-1.96379E+00
 -1      8048-3.97666E+01-8.54922E-01-2.98721E+00-2.20901E+00 9.30069E-02-1.34953E+00
 -1      8049-2.91816E+00 5.10596E-02 2.06867E-01-9.82508E-02 2.05901E-02 3.13208E-01
 -1      8050-5.68493E+00 3.74897E-02-4.96714E-01 1.48315E-01-4.64047E-02 1.65867E+00
 -1      8051-5.65006E+00 1.07408E-01-2.58949E-01 1.34487E-02-1.69006E-01 1.06533E+00
 -1      8052-7.08774E+00-5.53625E-01-7.31849E-01 7.60206E-01-3.59871E-01 7.92255E-01
 -1      8053-5.70554E+00 1.31964E-01-5.10307E-01 1.62827E-01 3.61253E-02-1.65511E+00
 -1      8054-5.69858E+00 1.12018E-01-2.76099E-01 1.90164E-02 1.72891E-01-1.07874E+00
 -1      8055-7.13128E+00-5.80173E-01-7.31667E-01 7.93761E-01 3.66263E-01-8.25744E-01
 -1      8056-3.72425E+01-4.44902E+00-4.36235E+00 3.36265E-01-1.17394E-01-3.55348E+00
 -1      8057-5.23184E+00-1.31641E+00-1.33042E+00 9.49170E-01-2.12199E-01 1.65159E+00
 -1      8058-5.03929E+00-1.24505E+00-1.13415E+00 8.74546E-01-1.42104E-01 1.90540E+00
 -1      8059-9.64596E+00-2.17075E+00-2.17673E+00 1.41500E+00-3.04442E-01 1.73612E+00
 -1      8060-5.25347E+00-1.26670E+00-1.35435E+00 9.65748E-01 2.13826E-01-1.63913E+00
 -1      8061-5.04101E+00-1.33614E+00-1.14684E+00 8.72652E-01 1.27307E-01-1.89070E+00
 -1      8062 1.41935E-01 6.63932E-02-4.01258E-01 1.17685E-01-3.65099E-02-1.34516E-01
 -1      8063 1.95286E-02 5.74526E-01 4.23804E-02 5.41459E-01 5.89307E-01 5.26558E-02
 -1      8064-2.79176E+01-6.04969E+00-2.29905E+00-4.74011E+00 1.62306E-01 1.28546E+00
 -1      8065-2.93581E+01-6.20906E+00-2.26566E+00-5.85864E+00-2.37410E-01 1.03956E+00
 -1      8066-3.00402E+01-2.90378E+00-6.05353E-01-3.84623E+00-1.99113E-01-1.15212E-01
 -1      8067-3.20995E+01-9.01075E-01 5.48716E-01-2.90566E+00 4.57508E-01 7.78449E-01
 -1      8068-2.87045E+01-8.27776E-01 1.02040E-01-1.95604E+00-6.00282E-02 1.27366E+00
 -1      8069-2.98969E+01-2.91560E+00-6.21188E-01-3.92736E+00 2.17684E-01 3.84684E-02
 -1      8070-5.65648E+00 1.31315E-01-2.47016E-01-2.53011E-02 1.87145E-01 1.06102E+00
 -1      8071-5.66577E+00 1.49686E-01-4.88904E-01-1.64863E-01 5.80683E-02 1.63942E+00
 -1      8072-7.15291E+00-5.92992E-01-7.40311E-01-7.70697E-01 3.66464E-01 8.01525E-01
 -1      8073-2.87035E+01-8.89518E-01 9.28780E-03 1.98804E+00-8.26423E-02-1.23302E+00
 -1      8074-3.20316E+01-8.85919E-01 5.59501E-01 2.89264E+00 5.06459E-01-7.97573E-01
 -1      8075-2.99123E+01-2.62115E+00-2.98435E-01 3.70584E+00 2.18861E-01-1.85121E-01
 -1      8076-5.64219E+00 1.22866E-01-2.53757E-01-2.33575E-02-1.69618E-01-1.05935E+00
 -1      8077-5.65234E+00 1.48033E-01-4.97731E-01-1.67630E-01-5.33455E-02-1.63542E+00
 -1      8078-1.03347E+01-4.22664E-01-1.40402E+00-9.56069E-01-3.44515E-01-2.01991E+00
 -1      8079-7.13291E+00-6.00107E-01-7.33700E-01-7.87227E-01-3.54677E-01-8.04657E-01
 -1      8080-4.99715E+00-1.30263E+00-1.12404E+00-8.67225E-01-1.31387E-01-1.87231E+00
 -1      8081-5.20506E+00-1.23541E+00-1.33922E+00-9.67471E-01-2.13752E-01-1.61552E+00
 -1      8082-9.28187E+00-2.12062E+00-2.23975E+00-1.56332E+00-3.88601E-01-2.25118E+00
 -1      8083-2.87085E+01-8.33020E-01 8.39870E-02 1.96998E+00 5.10483E-02 1.27434E+00
 -1      8084-3.21911E+01-7.89466E-01 5.97853E-01 2.96835E+00-4.30062E-01 8.00889E-01
 -1      8085-2.98696E+01-2.92227E+00-6.65177E-01 3.90694E+00-2.18757E-01 2.68283E-02
 -1      8086-4.99663E+00-1.30609E+00-1.11493E+00-8.59770E-01 1.34498E-01 1.87769E+00
 -1      8087-5.18967E+00-1.26773E+00-1.34080E+00-9.54124E-01 2.05102E-01 1.62515E+00
 -1      8088-4.74994E+00 7.72517E-02 3.38388E-02-7.97106E-02-4.42405E-02 3.73253E-02
 -1      8089-2.93114E+01-6.27449E+00-2.38523E+00 5.85279E+00-2.36866E-01-9.86562E-01
 -1      8090-2.76194E+01-6.08929E+00-2.39968E+00 4.73840E+00 1.33143E-01-1.06017E+00
 -1      8091-2.80150E+01-5.96532E-02 6.73554E-01 2.86888E-01-3.22713E-02 1.11144E+00
 -1      8092-2.93790E+01-6.12944E+00-2.25128E+00 5.81627E+00 2.11980E-01 9.80012E-01
 -1      8093-2.75543E+01-5.93038E+00-2.31365E+00 4.72085E+00-1.95146E-01 1.07222E+00
 -1      8094-2.76551E+01-6.13651E+00-2.45518E+00-4.76143E+00-1.38487E-01-1.06370E+00
 -1      8095-2.93789E+01-6.19810E+00-2.38131E+00-5.85328E+00 1.93716E-01-1.01503E+00
 -1      8096-4.84786E+01-2.29359E+00-2.85732E+00-1.91994E+00 6.34953E-01 3.55290E-01
 -1      8097-4.05626E+01-3.88520E-01-2.50059E+00-2.45177E+00-1.11833E-01-1.39574E+00
 -1      8098-2.91998E+01 2.53240E-01-1.02492E+00-6.20934E-01 9.82293E-01 6.70069E+00
 -1      8099-2.92539E+01-5.65598E-01 3.65775E-02-4.33689E-01-5.67781E-02-3.72134E-02
 -1      8100-3.47069E+01-3.96177E+00-4.06944E+00 3.61762E-01 1.92302E-01-3.93621E+00
 -1      8101-3.21496E+01-7.80192E-01 6.37450E-01-2.99242E+00-4.31634E-01-8.00046E-01
 -1      8102-2.86140E+01-8.06711E-01 1.46746E-01-2.02955E+00 7.18772E-02-1.24244E+00
 -1      8103-2.66215E+01-6.42227E+00-1.92917E+00 4.13062E+00 6.26651E-02 6.57372E-01
 -1      8104-2.91972E+01-8.30074E+00-3.91055E+00 3.11834E+00 2.21728E-01 3.13257E+00
 -1      8105-2.81135E+01-1.03455E-01 8.53897E-03-8.92824E-02 6.40970E-02 2.39964E-01
 -1      8106-2.87170E+01-5.73650E-02 4.39728E-04-5.62656E-02-2.68958E-02-2.14913E-01
 -1      8107-2.74132E+01-1.00658E-01 1.53476E-02-5.67502E-02-6.79168E-02-2.64243E-01
 -1      8108-2.83188E+01-8.18019E-02 8.74560E-04 1.46000E-02-6.16506E-02-1.32813E-01
 -1      8109-8.41775E+00-9.89924E-01-2.43306E+00-1.06734E+00-6.23146E-02-3.48985E+00
 -1      8110-4.26453E+00 7.80883E-02 2.42790E-02 2.36270E-01 9.24109E-02 2.32618E-01
 -1      8111-1.12393E+01-1.76928E+00-3.38237E+00-1.92879E+00-8.42790E-02-3.23402E+00
 -1      8112-3.50656E+00 2.66155E-01-3.79178E-01-3.19982E-01 3.94142E-01 5.41771E-01
 -1      8113 5.06343E-01 5.52510E-01 2.37145E-01-1.08504E-01 2.57068E-01-4.74146E-01
 -1      8114 6.77543E-01 1.26048E+00 8.29070E-01-7.66932E-01 1.00222E+00-6.15073E-01
 -1      8115-3.51016E+00-8.50215E-01-7.37095E-01-2.43560E-03-1.63327E-02-8.01815E-01
 -1      8116-3.46756E+01 2.83935E-01 1.62843E+00-2.30754E+00 9.78170E-01 4.41741E+00
 -1      8117 1.83617E-02 3.87929E-01 9.00629E-02 2.37837E-01-3.42325E-01-4.68536E-01
 -1      8118-3.45660E+01 3.47074E-01 1.70682E+00 2.28480E+00-8.65262E-01 4.29397E+00
 -1      8119-1.85743E+00 2.22495E+00-2.07558E-01-6.41291E-01 6.15279E-01 4.25153E-01
 -1      8120-2.78950E+00 1.16882E+00 9.33696E-03 6.36778E-01-6.58336E-01 3.65000E-01
 -1      8121 5.87939E-01-2.42150E-01 2.14384E-01-2.03980E-01-3.38533E-02-4.89323E-01
 -1      8122-2.90791E+00 1.11127E+00 5.23113E-03 4.90174E-01 1.00337E+00-4.56819E-01
 -1      8123-2.66289E+00 6.82903E-01-1.55751E-01 5.07474E-01 7.00422E-01-4.33457E-01
 -1      8124 4.31590E-01 1.19327E+00 9.24733E-01 6.63411E-01 1.04387E+00 6.01278E-01
 -1      8125 4.84591E-01 3.92562E-01 3.71409E-02 2.04263E-01 1.68262E-01 5.37962E-01
 -1      8126-3.81390E-02 4.76804E-01 3.62347E-01-1.00792E-01-3.18451E-01 5.80568E-01
 -1      8127 7.77248E-01 1.22170E-02 3.50772E-01 2.10319E-01-1.70630E-03 5.10407E-01
 -1      8128-8.24423E+00 1.01383E+00 5.87572E-02 5.19684E-01-5.75082E-01 1.31879E+00
 -1      8129-4.00969E+01-3.18519E+00-2.57229E-01 1.38309E+00 2.05703E-01-7.20823E-01
 -1      8130-2.90916E+01-1.35763E+00 2.52447E-02 3.50037E-01-1.26739E-01-4.81288E-02
 -1      8131-2.82968E+01-3.56615E+00 8.75595E-02-1.22234E+00 1.66934E-01-5.21389E-02
 -1      8132-5.37343E+00 6.04040E-01-2.07901E-02 3.42861E-01-1.12110E-01 1.00263E-01
 -1      8133-1.92017E+00 2.27899E+00-6.17936E-01-5.02093E-01 4.76737E-01 5.58476E-01
 -1      8134-2.64905E+00 2.09193E+00-3.21491E-01-5.17198E-01 3.04960E-01 8.79207E-01
 -1      8135-2.43293E+01-1.61603E-01 3.34413E-01-2.96591E-01-7.36996E-02-2.98132E-01
 -1      8136-1.76807E+01-6.25359E-01-2.06418E+00 1.47785E+00 2.46574E-01-1.51101E+00
 -1      8137-2.90938E+01-5.59669E-01 1.70406E-01-1.84484E-01 4.90518E-02 4.64042E-01
 -1      8138-1.46404E+00 1.46400E+00-3.81275E-01-5.26650E-01 5.59006E-01 4.19225E-01
 -1      8139-2.37951E+00 1.54331E+00-3.10963E-01 6.03128E-01-6.40230E-01 5.26098E-01
 -1      8140-2.50963E+00 1.89341E+00-7.18079E-02 5.05500E-01-3.37779E-01 5.29902E-01
 -1      8141-2.53984E+00 1.65315E+00-2.71263E-01 5.89029E-01 6.58805E-01-5.65946E-01
 -1      8142-2.13045E+00 9.23933E-01 1.50215E-01 7.38793E-01-6.46762E-01 1.94462E-01
 -1      8143 1.51821E+00 2.20540E-01-3.06476E-01-3.09408E-01-4.66553E-01 5.95918E-01
 -1      8144-2.13929E-01-2.06949E-01 2.83260E-01 1.35612E-01-2.40933E-01-4.21583E-01
 -1      8145 4.03589E-02 8.24890E-01 8.89674E-01 7.37889E-02-4.76893E-01-5.97007E-01
 -1      8146 7.63080E-01 6.34755E-03 6.23025E-02-5.90296E-02-5.78841E-02 4.48110E-01
 -1      8147-3.45185E+00 2.41921E+00-4.58205E-01 2.69001E-01-2.17250E-01 9.17609E-01
 -1      8148 1.11014E+00 2.98207E-01-2.32804E-01 4.00264E-01-2.91254E-01-6.51034E-01
 -1      8149 9.61195E-01-1.46171E-01 3.06474E-02-1.70597E-01-6.85363E-03 2.88928E-01
 -3
    1PSTEP                         3           1           1          
  100CL  101 1.000000000        8149                     0    1           1
 -4  ERROR       1    1
 -5  STR(%)      1    1    0    0
 -1         1 3.29098E+01
 -1         2 3.04306E+01
 -1         3 3.17891E+01
 -1         4 3.41481E+01
 -1         5 1.29275E+01
 -1         6 1.25862E+01
 -1         7 2.28938E+01
 -1         8 1.03824E+01
 -1         9 1.04174E+01
 -1        10 2.29106E+01
 -1        11 3.03112E+01
 -1        12 3.13033E+01
 -1        13 1.31183E+01
 -1        14 3.11453E+01
 -1        15 3.11622E+01
 -1        16 1.30880E+01
 -1        17 2.28599E+01
 -1        18 9.77643E+00
 -1        19 9.68829E+00
 -1        20 2.29035E+01
 -1        21 1.69853E+01
 -1        22 2.49476E+01
 -1        23 2.37079E+01
 -1        24 2.91186E+01
 -1        25 2.96374E+01
 -1        26 2.96374E+01
 -1        27 5.31145E+00
 -1        28 5.95341E+00
 -1        29 6.99027E+00
 -1        30 2.90361E+01
 -1        31 2.84370E+01
 -1        32 2.94360E+01
 -1        33 2.97746E+01
 -1        34 2.93780E+01
 -1        35 2.96374E+01
 -1        36 1.74744E+01
 -1        37 5.63243E+00
 -1        38 6.47184E+00
 -1        39 1.80132E+01
 -1        40 2.87365E+01
 -1        41 2.89365E+01
 -1        42 3.06125E+01
 -1        43 1.85306E+01
 -1        44 2.51598E+01
 -1        45 2.63393E+01
 -1        46 3.05152E+01
 -1        47 3.05152E+01
 -1        48 3.04453E+01
 -1        49 2.87152E+01
 -1        50 2.80932E+01
 -1        51 3.07763E+01
 -1        52 3.13098E+01
 -1        53 3.13098E+01
 -1        54 3.03929E+01
 -1        55 3.23316E+01
 -1        56 3.05152E+01
 -1        57 3.04803E+01
 -1        58 2.95803E+01
 -1        59 2.84042E+01
 -1        60 2.94348E+01
 -1        61 3.10431E+01
 -1        62 3.13098E+01
 -1        63 3.08513E+01
 -1        64 3.16514E+01
 -1        65 3.29098E+01
 -1        66 1.57627E+01
 -1        67 3.29098E+01
 -1        68 2.43363E+01
 -1        69 1.43451E+01
 -1        70 2.10444E+01
 -1        71 2.08101E+01
 -1        72 2.05631E+01
 -1        73 1.64853E+01
 -1        74 1.91101E+01
 -1        75 1.90009E+01
 -1        76 1.91866E+01
 -1        77 2.10230E+01
 -1        78 2.15613E+01
 -1        79 1.69859E+01
 -1        80 2.09273E+01
 -1        81 2.06866E+01
 -1        82 1.85242E+01
 -1        83 1.77977E+01
 -1        84 1.90555E+01
 -1        85 1.90938E+01
 -1        86 2.01048E+01
 -1        87 2.12922E+01
 -1        88 1.70738E+01
 -1        89 1.50589E+01
 -1        90 3.41481E+01
 -1        91 1.38225E+01
 -1        92 2.46035E+01
 -1        93 3.41481E+01
 -1        94 3.17891E+01
 -1        95 2.72720E+01
 -1        96 2.49032E+01
 -1        97 2.57347E+01
 -1        98 2.60268E+01
 -1        99 2.60653E+01
 -1       100 2.60653E+01
 -1       101 2.59166E+01
 -1       102 2.50874E+01
 -1       103 3.17891E+01
 -1       104 2.95305E+01
 -1       105 2.60876E+01
 -1       106 2.53189E+01
 -1       107 2.58808E+01
 -1       108 2.60461E+01
 -1       109 2.60653E+01
 -1       110 2.59910E+01
 -1       111 2.55020E+01
 -1       112 2.39906E+01
 -1       113 1.09635E+01
 -1       114 1.09635E+01
 -1       115 1.03824E+01
 -1       116 1.69287E+01
 -1       117 1.09635E+01
 -1       118 1.06729E+01
 -1       119 1.03824E+01
 -1       120 9.35915E+00
 -1       121 4.82931E+00
 -1       122 4.68202E+00
 -1       123 4.51179E+00
 -1       124 4.12713E+00
 -1       125 4.03390E+00
 -1       126 3.92877E+00
 -1       127 3.92877E+00
 -1       128 5.62860E+00
 -1       129 7.65817E+00
 -1       130 1.79984E+01
 -1       131 2.42031E+01
 -1       132 2.83501E+01
 -1       133 2.83501E+01
 -1       134 2.44331E+01
 -1       135 1.85319E+01
 -1       136 7.93733E+00
 -1       137 4.38063E+00
 -1       138 5.52514E+00
 -1       139 3.94028E+00
 -1       140 3.96073E+00
 -1       141 4.10119E+00
 -1       142 4.40445E+00
 -1       143 4.69174E+00
 -1       144 4.84470E+00
 -1       145 9.40023E+00
 -1       146 9.87076E+00
 -1       147 7.09423E+00
 -1       148 4.75567E+00
 -1       149 4.59690E+00
 -1       150 4.31946E+00
 -1       151 4.08051E+00
 -1       152 3.98134E+00
 -1       153 3.92877E+00
 -1       154 4.77869E+00
 -1       155 6.64339E+00
 -1       156 1.28283E+01
 -1       157 2.11007E+01
 -1       158 2.62766E+01
 -1       159 2.83501E+01
 -1       160 2.63916E+01
 -1       161 2.14825E+01
 -1       162 1.32346E+01
 -1       163 6.15898E+00
 -1       164 4.95289E+00
 -1       165 4.73271E+00
 -1       166 3.95051E+00
 -1       167 4.03096E+00
 -1       168 4.25282E+00
 -1       169 4.54809E+00
 -1       170 4.76822E+00
 -1       171 7.12246E+00
 -1       172 9.90880E+00
 -1       173 1.04174E+01
 -1       174 1.14468E+01
 -1       175 1.14468E+01
 -1       176 1.04174E+01
 -1       177 1.09321E+01
 -1       178 1.14468E+01
 -1       179 1.71787E+01
 -1       180 2.51062E+01
 -1       181 2.57839E+01
 -1       182 2.59739E+01
 -1       183 2.60672E+01
 -1       184 2.60672E+01
 -1       185 2.58425E+01
 -1       186 2.49191E+01
 -1       187 2.80231E+01
 -1       188 2.93459E+01
 -1       189 2.40084E+01
 -1       190 2.54451E+01
 -1       191 2.58789E+01
 -1       192 2.60205E+01
 -1       193 2.60672E+01
 -1       194 2.59548E+01
 -1       195 2.53808E+01
 -1       196 2.64711E+01
 -1       197 2.86845E+01
 -1       198 2.98286E+01
 -1       199 1.74074E+01
 -1       200 2.43554E+01
 -1       201 2.38593E+01
 -1       202 3.13033E+01
 -1       203 1.60253E+01
 -1       204 3.13033E+01
 -1       205 2.36643E+01
 -1       206 1.45718E+01
 -1       207 7.93198E+00
 -1       208 7.03892E+00
 -1       209 7.66865E+00
 -1       210 1.05252E+01
 -1       211 7.48545E+00
 -1       212 7.35379E+00
 -1       213 1.01274E+01
 -1       214 3.03112E+01
 -1       215 2.96401E+01
 -1       216 3.04013E+01
 -1       217 8.17587E+00
 -1       218 8.32984E+00
 -1       219 2.88865E+01
 -1       220 2.96680E+01
 -1       221 3.03287E+01
 -1       222 2.94005E+01
 -1       223 3.03112E+01
 -1       224 2.99757E+01
 -1       225 3.00207E+01
 -1       226 1.92886E+01
 -1       227 8.25285E+00
 -1       228 1.86082E+01
 -1       229 2.92773E+01
 -1       230 2.99984E+01
 -1       231 2.98646E+01
 -1       232 3.02729E+01
 -1       233 3.11453E+01
 -1       234 3.11453E+01
 -1       235 3.11537E+01
 -1       236 3.11453E+01
 -1       237 3.06129E+01
 -1       238 3.12749E+01
 -1       239 3.12749E+01
 -1       240 2.78930E+01
 -1       241 2.86246E+01
 -1       242 3.14622E+01
 -1       243 3.14622E+01
 -1       244 3.08003E+01
 -1       245 3.11537E+01
 -1       246 3.08791E+01
 -1       247 3.09439E+01
 -1       248 3.12749E+01
 -1       249 2.95839E+01
 -1       250 2.82588E+01
 -1       251 3.00434E+01
 -1       252 3.14622E+01
 -1       253 3.11312E+01
 -1       254 3.10518E+01
 -1       255 2.20895E+01
 -1       256 2.11731E+01
 -1       257 2.11311E+01
 -1       258 2.09032E+01
 -1       259 1.90992E+01
 -1       260 2.07763E+01
 -1       261 2.11602E+01
 -1       262 1.88761E+01
 -1       263 2.22811E+01
 -1       264 1.75888E+01
 -1       265 2.16313E+01
 -1       266 2.11521E+01
 -1       267 2.10171E+01
 -1       268 2.00012E+01
 -1       269 1.99377E+01
 -1       270 2.09682E+01
 -1       271 2.00181E+01
 -1       272 2.05786E+01
 -1       273 1.76997E+01
 -1       274 1.61275E+01
 -1       275 3.11622E+01
 -1       276 1.46077E+01
 -1       277 2.36448E+01
 -1       278 3.11622E+01
 -1       279 7.78829E+00
 -1       280 7.00950E+00
 -1       281 7.87609E+00
 -1       282 1.03579E+01
 -1       283 7.39889E+00
 -1       284 7.44279E+00
 -1       285 1.04821E+01
 -1       286 2.94511E+01
 -1       287 2.80650E+01
 -1       288 2.50239E+01
 -1       289 2.58827E+01
 -1       290 2.62105E+01
 -1       291 2.62146E+01
 -1       292 2.62146E+01
 -1       293 2.58387E+01
 -1       294 2.52310E+01
 -1       295 3.02982E+01
 -1       296 2.87580E+01
 -1       297 2.65444E+01
 -1       298 2.54533E+01
 -1       299 2.60466E+01
 -1       300 2.62125E+01
 -1       301 2.62146E+01
 -1       302 2.60266E+01
 -1       303 2.55348E+01
 -1       304 2.40455E+01
 -1       305 1.08297E+01
 -1       306 1.08297E+01
 -1       307 1.02544E+01
 -1       308 1.68448E+01
 -1       309 1.08297E+01
 -1       310 1.05421E+01
 -1       311 1.00154E+01
 -1       312 9.36481E+00
 -1       313 4.84363E+00
 -1       314 4.66593E+00
 -1       315 5.36649E+00
 -1       316 4.16885E+00
 -1       317 4.00156E+00
 -1       318 4.37230E+00
 -1       319 4.08633E+00
 -1       320 4.79378E+00
 -1       321 7.98533E+00
 -1       322 1.85314E+01
 -1       323 2.41496E+01
 -1       324 2.76507E+01
 -1       325 2.76507E+01
 -1       326 2.41282E+01
 -1       327 1.80279E+01
 -1       328 8.27887E+00
 -1       329 4.85261E+00
 -1       330 4.80424E+00
 -1       331 3.85007E+00
 -1       332 3.92792E+00
 -1       333 4.39879E+00
 -1       334 5.05975E+00
 -1       335 4.95045E+00
 -1       336 4.95045E+00
 -1       337 9.33825E+00
 -1       338 9.57062E+00
 -1       339 7.10422E+00
 -1       340 4.75478E+00
 -1       341 5.01621E+00
 -1       342 4.76767E+00
 -1       343 4.08520E+00
 -1       344 4.18693E+00
 -1       345 4.22931E+00
 -1       346 4.44006E+00
 -1       347 6.38956E+00
 -1       348 1.32584E+01
 -1       349 2.13405E+01
 -1       350 2.59002E+01
 -1       351 2.76507E+01
 -1       352 2.58895E+01
 -1       353 2.10781E+01
 -1       354 1.31534E+01
 -1       355 6.56574E+00
 -1       356 4.82842E+00
 -1       357 4.32716E+00
 -1       358 3.88900E+00
 -1       359 4.16336E+00
 -1       360 4.72927E+00
 -1       361 5.00510E+00
 -1       362 4.95045E+00
 -1       363 7.14435E+00
 -1       364 9.51327E+00
 -1       365 1.01827E+01
 -1       366 1.14073E+01
 -1       367 1.14073E+01
 -1       368 9.93547E+00
 -1       369 1.07950E+01
 -1       370 1.14073E+01
 -1       371 1.71554E+01
 -1       372 2.51706E+01
 -1       373 2.60291E+01
 -1       374 2.63085E+01
 -1       375 2.63085E+01
 -1       376 2.61846E+01
 -1       377 2.59468E+01
 -1       378 2.48692E+01
 -1       379 2.77219E+01
 -1       380 3.04306E+01
 -1       381 2.40371E+01
 -1       382 2.55999E+01
 -1       383 2.61688E+01
 -1       384 2.63085E+01
 -1       385 2.62466E+01
 -1       386 2.60657E+01
 -1       387 2.54080E+01
 -1       388 2.62956E+01
 -1       389 2.90763E+01
 -1       390 3.04306E+01
 -1       391 2.14222E+01
 -1       392 2.48683E+01
 -1       393 2.77803E+01
 -1       394 2.93854E+01
 -1       395 2.93950E+01
 -1       396 2.91260E+01
 -1       397 2.91523E+01
 -1       398 2.69701E+01
 -1       399 2.16710E+01
 -1       400 2.21411E+01
 -1       401 2.31453E+01
 -1       402 2.63243E+01
 -1       403 2.85828E+01
 -1       404 2.93902E+01
 -1       405 2.92605E+01
 -1       406 2.91391E+01
 -1       407 2.80612E+01
 -1       408 2.43206E+01
 -1       409 2.22908E+01
 -1       410 7.78835E+00
 -1       411 8.47020E+00
 -1       412 8.54789E+00
 -1       413 8.54789E+00
 -1       414 9.21946E+00
 -1       415 9.21946E+00
 -1       416 8.35388E+00
 -1       417 8.14923E+00
 -1       418 7.18516E+00
 -1       419 9.08536E+00
 -1       420 8.12928E+00
 -1       421 8.50904E+00
 -1       422 8.54789E+00
 -1       423 8.88367E+00
 -1       424 9.21946E+00
 -1       425 8.78667E+00
 -1       426 8.25155E+00
 -1       427 7.66720E+00
 -1       428 8.43673E+00
 -1       429 2.16338E+01
 -1       430 2.64640E+01
 -1       431 2.86498E+01
 -1       432 2.89257E+01
 -1       433 2.85515E+01
 -1       434 2.88020E+01
 -1       435 2.86319E+01
 -1       436 2.60611E+01
 -1       437 2.28388E+01
 -1       438 2.22687E+01
 -1       439 2.40489E+01
 -1       440 2.75569E+01
 -1       441 2.87878E+01
 -1       442 2.87386E+01
 -1       443 2.86768E+01
 -1       444 2.87169E+01
 -1       445 2.73465E+01
 -1       446 2.44499E+01
 -1       447 2.28663E+01
 -1       448 7.35719E+00
 -1       449 8.02421E+00
 -1       450 8.53872E+00
 -1       451 8.53872E+00
 -1       452 8.16412E+00
 -1       453 7.89405E+00
 -1       454 8.07227E+00
 -1       455 8.02418E+00
 -1       456 7.49932E+00
 -1       457 8.56681E+00
 -1       458 7.69070E+00
 -1       459 8.28147E+00
 -1       460 8.53872E+00
 -1       461 8.35142E+00
 -1       462 8.02908E+00
 -1       463 7.98316E+00
 -1       464 8.04822E+00
 -1       465 7.76175E+00
 -1       466 8.95835E+00
 -1       467 2.36891E+01
 -1       468 2.30519E+01
 -1       469 2.39833E+01
 -1       470 2.45229E+01
 -1       471 2.97557E+01
 -1       472 3.00151E+01
 -1       473 3.04736E+01
 -1       474 3.04736E+01
 -1       475 1.80439E+01
 -1       476 3.02069E+01
 -1       477 3.04736E+01
 -1       478 1.70233E+01
 -1       479 1.67023E+01
 -1       480 1.78527E+01
 -1       481 1.73343E+01
 -1       482 2.97407E+01
 -1       483 1.87178E+01
 -1       484 2.94411E+01
 -1       485 2.99756E+01
 -1       486 2.94761E+01
 -1       487 2.99756E+01
 -1       488 1.88482E+01
 -1       489 2.02652E+01
 -1       490 2.87152E+01
 -1       491 1.64686E+01
 -1       492 3.13098E+01
 -1       493 1.63389E+01
 -1       494 1.71354E+01
 -1       495 1.53001E+01
 -1       496 1.88299E+01
 -1       497 3.03929E+01
 -1       498 3.05152E+01
 -1       499 1.53390E+01
 -1       500 3.07763E+01
 -1       501 2.87152E+01
 -1       502 1.86754E+01
 -1       503 1.53001E+01
 -1       504 2.80932E+01
 -1       505 3.04453E+01
 -1       506 3.41481E+01
 -1       507 1.56243E+01
 -1       508 2.01644E+01
 -1       509 3.29098E+01
 -1       510 3.16514E+01
 -1       511 3.29098E+01
 -1       512 3.29098E+01
 -1       513 3.41481E+01
 -1       514 3.23316E+01
 -1       515 3.41481E+01
 -1       516 1.56935E+01
 -1       517 1.42759E+01
 -1       518 1.83343E+01
 -1       519 2.08629E+01
 -1       520 1.63753E+01
 -1       521 1.76117E+01
 -1       522 3.05152E+01
 -1       523 3.05152E+01
 -1       524 3.23316E+01
 -1       525 3.04803E+01
 -1       526 3.04453E+01
 -1       527 3.04803E+01
 -1       528 2.95803E+01
 -1       529 2.87152E+01
 -1       530 2.95803E+01
 -1       531 2.87152E+01
 -1       532 2.84042E+01
 -1       533 2.87152E+01
 -1       534 2.80932E+01
 -1       535 2.94348E+01
 -1       536 2.84042E+01
 -1       537 3.07763E+01
 -1       538 3.10431E+01
 -1       539 2.94348E+01
 -1       540 3.13098E+01
 -1       541 3.13098E+01
 -1       542 3.10431E+01
 -1       543 3.08513E+01
 -1       544 3.03929E+01
 -1       545 3.08513E+01
 -1       546 3.16514E+01
 -1       547 2.58790E+01
 -1       548 1.73054E+01
 -1       549 2.58790E+01
 -1       550 1.72362E+01
 -1       551 1.81917E+01
 -1       552 1.80746E+01
 -1       553 1.54816E+01
 -1       554 1.97428E+01
 -1       555 1.96193E+01
 -1       556 1.70072E+01
 -1       557 1.88493E+01
 -1       558 1.68104E+01
 -1       559 1.79054E+01
 -1       560 1.64770E+01
 -1       561 1.77893E+01
 -1       562 1.68020E+01
 -1       563 1.72051E+01
 -1       564 1.71505E+01
 -1       565 1.58843E+01
 -1       566 1.71505E+01
 -1       567 1.72434E+01
 -1       568 1.53001E+01
 -1       569 1.77627E+01
 -1       570 1.86809E+01
 -1       571 1.58195E+01
 -1       572 1.99265E+01
 -1       573 2.01956E+01
 -1       574 1.75844E+01
 -1       575 1.94972E+01
 -1       576 1.76620E+01
 -1       577 2.72066E+01
 -1       578 2.02148E+01
 -1       579 2.72066E+01
 -1       580 2.46205E+01
 -1       581 2.28659E+01
 -1       582 1.70936E+01
 -1       583 1.95476E+01
 -1       584 2.46726E+01
 -1       585 2.53902E+01
 -1       586 2.25270E+01
 -1       587 2.20076E+01
 -1       588 2.33921E+01
 -1       589 2.20076E+01
 -1       590 2.20076E+01
 -1       591 2.26143E+01
 -1       592 2.22809E+01
 -1       593 2.25919E+01
 -1       594 2.42226E+01
 -1       595 2.39559E+01
 -1       596 2.49926E+01
 -1       597 2.45342E+01
 -1       598 2.46376E+01
 -1       599 2.59166E+01
 -1       600 2.57839E+01
 -1       601 2.60268E+01
 -1       602 2.60672E+01
 -1       603 2.51237E+01
 -1       604 2.49014E+01
 -1       605 2.72720E+01
 -1       606 2.93459E+01
 -1       607 5.71335E+00
 -1       608 6.22715E+00
 -1       609 6.07096E+00
 -1       610 6.27250E+00
 -1       611 6.16480E+00
 -1       612 5.02411E+00
 -1       613 5.05147E+00
 -1       614 5.06405E+00
 -1       615 5.95224E+00
 -1       616 5.52514E+00
 -1       617 1.09635E+01
 -1       618 1.14468E+01
 -1       619 3.41481E+01
 -1       620 2.96451E+01
 -1       621 2.44166E+01
 -1       622 1.99196E+01
 -1       623 1.31183E+01
 -1       624 1.60253E+01
 -1       625 1.58264E+01
 -1       626 1.15469E+01
 -1       627 5.44602E+00
 -1       628 2.42031E+01
 -1       629 2.44331E+01
 -1       630 5.89558E+00
 -1       631 5.11233E+00
 -1       632 5.00515E+00
 -1       633 7.39544E+00
 -1       634 5.05062E+00
 -1       635 5.04558E+00
 -1       636 8.01953E+00
 -1       637 2.58425E+01
 -1       638 2.49191E+01
 -1       639 2.47322E+01
 -1       640 2.57347E+01
 -1       641 2.59739E+01
 -1       642 2.60653E+01
 -1       643 1.99240E+01
 -1       644 2.51944E+01
 -1       645 1.03116E+01
 -1       646 1.05027E+01
 -1       647 8.78708E+00
 -1       648 8.44768E+00
 -1       649 8.25879E+00
 -1       650 9.90487E+00
 -1       651 8.23299E+00
 -1       652 9.41799E+00
 -1       653 1.01651E+01
 -1       654 9.58362E+00
 -1       655 8.43315E+00
 -1       656 2.50874E+01
 -1       657 2.51062E+01
 -1       658 8.57639E+00
 -1       659 8.25256E+00
 -1       660 8.10082E+00
 -1       661 8.32942E+00
 -1       662 7.93733E+00
 -1       663 1.22636E+01
 -1       664 8.79758E+00
 -1       665 1.26430E+01
 -1       666 1.32878E+01
 -1       667 2.97623E+01
 -1       668 2.61388E+01
 -1       669 1.03824E+01
 -1       670 1.04174E+01
 -1       671 2.29106E+01
 -1       672 2.28938E+01
 -1       673 8.88166E+00
 -1       674 8.86913E+00
 -1       675 2.06734E+01
 -1       676 2.14550E+01
 -1       677 3.13033E+01
 -1       678 2.83501E+01
 -1       679 3.29686E+01
 -1       680 3.29686E+01
 -1       681 3.41481E+01
 -1       682 3.29686E+01
 -1       683 3.41481E+01
 -1       684 1.74892E+01
 -1       685 1.62529E+01
 -1       686 1.83946E+01
 -1       687 1.59359E+01
 -1       688 2.20613E+01
 -1       689 2.28938E+01
 -1       690 2.39906E+01
 -1       691 1.69287E+01
 -1       692 1.03824E+01
 -1       693 1.03824E+01
 -1       694 9.87076E+00
 -1       695 1.04174E+01
 -1       696 9.90880E+00
 -1       697 1.04174E+01
 -1       698 2.29106E+01
 -1       699 1.71787E+01
 -1       700 2.40084E+01
 -1       701 3.08072E+01
 -1       702 3.13033E+01
 -1       703 3.08072E+01
 -1       704 2.99782E+01
 -1       705 2.94955E+01
 -1       706 3.04742E+01
 -1       707 3.13033E+01
 -1       708 1.31183E+01
 -1       709 1.45718E+01
 -1       710 1.61825E+01
 -1       711 1.87757E+01
 -1       712 1.87757E+01
 -1       713 2.49873E+01
 -1       714 1.54427E+01
 -1       715 1.78730E+01
 -1       716 2.92824E+01
 -1       717 2.92824E+01
 -1       718 1.88522E+01
 -1       719 2.37180E+01
 -1       720 1.45571E+01
 -1       721 2.72720E+01
 -1       722 2.95305E+01
 -1       723 2.85171E+01
 -1       724 3.07757E+01
 -1       725 3.19552E+01
 -1       726 2.48177E+01
 -1       727 2.60021E+01
 -1       728 2.60021E+01
 -1       729 2.54292E+01
 -1       730 2.50134E+01
 -1       731 2.49279E+01
 -1       732 2.58808E+01
 -1       733 2.57347E+01
 -1       734 2.54292E+01
 -1       735 2.60461E+01
 -1       736 2.60268E+01
 -1       737 2.58808E+01
 -1       738 2.60653E+01
 -1       739 2.60653E+01
 -1       740 2.60461E+01
 -1       741 2.59166E+01
 -1       742 2.59910E+01
 -1       743 2.59910E+01
 -1       744 2.50874E+01
 -1       745 2.55020E+01
 -1       746 2.55020E+01
 -1       747 2.39906E+01
 -1       748 1.09635E+01
 -1       749 1.09635E+01
 -1       750 1.69287E+01
 -1       751 1.03470E+01
 -1       752 1.06376E+01
 -1       753 1.06376E+01
 -1       754 1.03470E+01
 -1       755 5.45014E+00
 -1       756 7.71506E+00
 -1       757 8.22667E+00
 -1       758 4.84358E+00
 -1       759 4.91723E+00
 -1       760 5.53805E+00
 -1       761 5.33829E+00
 -1       762 5.42341E+00
 -1       763 5.58497E+00
 -1       764 4.58635E+00
 -1       765 4.77868E+00
 -1       766 5.60519E+00
 -1       767 4.54268E+00
 -1       768 4.58930E+00
 -1       769 5.04852E+00
 -1       770 5.97415E+00
 -1       771 6.02672E+00
 -1       772 6.53550E+00
 -1       773 4.94051E+00
 -1       774 4.94051E+00
 -1       775 6.98589E+00
 -1       776 5.76209E+00
 -1       777 4.91218E+00
 -1       778 5.92391E+00
 -1       779 6.68576E+00
 -1       780 5.67097E+00
 -1       781 5.80446E+00
 -1       782 1.53207E+01
 -1       783 1.01506E+01
 -1       784 9.17818E+00
 -1       785 2.28290E+01
 -1       786 1.97267E+01
 -1       787 1.62813E+01
 -1       788 1.89590E+01
 -1       789 2.06873E+01
 -1       790 2.62766E+01
 -1       791 2.42031E+01
 -1       792 2.28290E+01
 -1       793 2.83501E+01
 -1       794 2.83501E+01
 -1       795 2.41370E+01
 -1       796 2.20635E+01
 -1       797 2.41370E+01
 -1       798 2.44331E+01
 -1       799 2.63916E+01
 -1       800 2.48138E+01
 -1       801 2.67722E+01
 -1       802 2.67722E+01
 -1       803 1.96027E+01
 -1       804 2.25532E+01
 -1       805 2.25532E+01
 -1       806 7.93733E+00
 -1       807 1.32346E+01
 -1       808 1.05278E+01
 -1       809 1.58251E+01
 -1       810 1.68959E+01
 -1       811 5.30389E+00
 -1       812 7.08224E+00
 -1       813 7.08224E+00
 -1       814 5.48558E+00
 -1       815 4.91333E+00
 -1       816 5.83659E+00
 -1       817 4.73271E+00
 -1       818 5.52514E+00
 -1       819 5.48558E+00
 -1       820 5.67808E+00
 -1       821 5.66786E+00
 -1       822 6.46029E+00
 -1       823 4.58262E+00
 -1       824 4.51239E+00
 -1       825 6.22975E+00
 -1       826 4.72753E+00
 -1       827 4.57590E+00
 -1       828 5.05733E+00
 -1       829 4.85792E+00
 -1       830 4.71428E+00
 -1       831 5.03736E+00
 -1       832 4.97851E+00
 -1       833 4.90204E+00
 -1       834 5.06822E+00
 -1       835 7.83636E+00
 -1       836 5.55860E+00
 -1       837 5.69241E+00
 -1       838 8.34494E+00
 -1       839 1.09747E+01
 -1       840 1.04600E+01
 -1       841 1.04600E+01
 -1       842 1.14468E+01
 -1       843 1.14468E+01
 -1       844 1.09747E+01
 -1       845 1.71787E+01
 -1       846 2.54451E+01
 -1       847 2.51062E+01
 -1       848 2.40084E+01
 -1       849 2.58789E+01
 -1       850 2.57839E+01
 -1       851 2.54451E+01
 -1       852 2.60205E+01
 -1       853 2.59739E+01
 -1       854 2.58789E+01
 -1       855 2.60672E+01
 -1       856 2.60672E+01
 -1       857 2.60205E+01
 -1       858 2.58425E+01
 -1       859 2.59548E+01
 -1       860 2.59548E+01
 -1       861 2.49102E+01
 -1       862 2.53719E+01
 -1       863 2.53719E+01
 -1       864 2.64711E+01
 -1       865 2.49191E+01
 -1       866 2.49102E+01
 -1       867 2.93459E+01
 -1       868 2.86845E+01
 -1       869 2.71325E+01
 -1       870 2.94955E+01
 -1       871 1.60253E+01
 -1       872 2.36643E+01
 -1       873 2.10821E+01
 -1       874 2.87211E+01
 -1       875 2.87211E+01
 -1       876 1.45718E+01
 -1       877 1.61167E+01
 -1       878 1.65632E+01
 -1       879 1.37963E+01
 -1       880 1.34815E+01
 -1       881 2.25592E+01
 -1       882 1.70748E+01
 -1       883 1.71492E+01
 -1       884 8.34034E+00
 -1       885 1.71821E+01
 -1       886 1.67675E+01
 -1       887 1.79394E+01
 -1       888 1.78444E+01
 -1       889 9.08183E+00
 -1       890 1.70214E+01
 -1       891 1.66825E+01
 -1       892 1.78052E+01
 -1       893 1.76592E+01
 -1       894 1.77417E+01
 -1       895 1.77224E+01
 -1       896 9.50081E+00
 -1       897 1.71378E+01
 -1       898 1.72502E+01
 -1       899 1.81161E+01
 -1       900 1.80695E+01
 -1       901 9.29911E+00
 -1       902 1.66123E+01
 -1       903 1.64165E+01
 -1       904 1.71556E+01
 -1       905 1.68501E+01
 -1       906 8.33860E+00
 -1       907 1.65770E+01
 -1       908 1.70475E+01
 -1       909 1.66242E+01
 -1       910 1.66154E+01
 -1       911 8.29099E+00
 -1       912 1.67596E+01
 -1       913 1.80295E+01
 -1       914 1.05253E+01
 -1       915 1.97678E+01
 -1       916 2.10129E+01
 -1       917 2.05960E+01
 -1       918 2.04464E+01
 -1       919 1.01722E+01
 -1       920 1.90717E+01
 -1       921 1.68583E+01
 -1       922 1.42347E+01
 -1       923 1.07699E+01
 -1       924 9.50058E+00
 -1       925 8.98846E+00
 -1       926 9.07958E+00
 -1       927 1.27757E+01
 -1       928 8.88701E+00
 -1       929 1.37861E+01
 -1       930 1.11262E+01
 -1       931 1.19813E+01
 -1       932 8.49644E+00
 -1       933 6.72641E+00
 -1       934 7.25932E+00
 -1       935 8.19130E+00
 -1       936 7.47631E+00
 -1       937 9.59665E+00
 -1       938 8.66467E+00
 -1       939 7.26564E+00
 -1       940 6.68556E+00
 -1       941 8.38758E+00
 -1       942 9.68590E+00
 -1       943 7.57082E+00
 -1       944 8.56396E+00
 -1       945 7.19890E+00
 -1       946 6.61907E+00
 -1       947 7.23178E+00
 -1       948 7.79140E+00
 -1       949 8.82549E+00
 -1       950 7.50860E+00
 -1       951 7.46449E+00
 -1       952 7.59459E+00
 -1       953 7.60784E+00
 -1       954 1.00350E+01
 -1       955 7.31754E+00
 -1       956 7.31460E+00
 -1       957 8.29796E+00
 -1       958 6.81393E+00
 -1       959 9.08001E+00
 -1       960 6.65831E+00
 -1       961 7.82400E+00
 -1       962 6.74188E+00
 -1       963 6.74860E+00
 -1       964 8.34285E+00
 -1       965 7.34133E+00
 -1       966 7.36966E+00
 -1       967 7.02653E+00
 -1       968 8.06017E+00
 -1       969 8.44395E+00
 -1       970 7.16136E+00
 -1       971 7.12180E+00
 -1       972 7.86243E+00
 -1       973 6.92728E+00
 -1       974 8.56350E+00
 -1       975 9.92257E+00
 -1       976 1.80254E+01
 -1       977 1.69845E+01
 -1       978 1.01580E+01
 -1       979 1.82765E+01
 -1       980 1.69876E+01
 -1       981 2.70894E+01
 -1       982 2.78920E+01
 -1       983 1.88428E+01
 -1       984 1.83401E+01
 -1       985 2.38593E+01
 -1       986 2.41039E+01
 -1       987 3.02729E+01
 -1       988 3.11453E+01
 -1       989 3.05557E+01
 -1       990 3.05512E+01
 -1       991 3.08867E+01
 -1       992 3.09318E+01
 -1       993 1.98190E+01
 -1       994 3.09318E+01
 -1       995 1.81114E+01
 -1       996 1.80344E+01
 -1       997 1.84002E+01
 -1       998 3.00807E+01
 -1       999 1.98023E+01
 -1      1000 3.04714E+01
 -1      1001 3.04708E+01
 -1      1002 3.01405E+01
 -1      1003 3.04714E+01
 -1      1004 3.02729E+01
 -1      1005 3.07370E+01
 -1      1006 1.92888E+01
 -1      1007 2.04353E+01
 -1      1008 1.61741E+01
 -1      1009 1.51416E+01
 -1      1010 2.87000E+01
 -1      1011 2.78612E+01
 -1      1012 3.14622E+01
 -1      1013 1.68021E+01
 -1      1014 3.08003E+01
 -1      1015 3.06129E+01
 -1      1016 1.59474E+01
 -1      1017 1.63440E+01
 -1      1018 3.12749E+01
 -1      1019 2.86246E+01
 -1      1020 1.63440E+01
 -1      1021 1.63703E+01
 -1      1022 1.59474E+01
 -1      1023 2.86246E+01
 -1      1024 1.46151E+01
 -1      1025 3.11622E+01
 -1      1026 3.13033E+01
 -1      1027 1.52953E+01
 -1      1028 3.13033E+01
 -1      1029 3.13033E+01
 -1      1030 3.10518E+01
 -1      1031 1.53202E+01
 -1      1032 1.38667E+01
 -1      1033 1.84481E+01
 -1      1034 3.11622E+01
 -1      1035 3.11537E+01
 -1      1036 3.11622E+01
 -1      1037 1.86924E+01
 -1      1038 1.41917E+01
 -1      1039 1.57114E+01
 -1      1040 2.52960E+01
 -1      1041 1.76570E+01
 -1      1042 2.52960E+01
 -1      1043 1.69519E+01
 -1      1044 3.08791E+01
 -1      1045 3.06129E+01
 -1      1046 3.08875E+01
 -1      1047 2.96565E+01
 -1      1048 2.99875E+01
 -1      1049 2.96565E+01
 -1      1050 3.12749E+01
 -1      1051 3.12749E+01
 -1      1052 2.99875E+01
 -1      1053 2.95680E+01
 -1      1054 2.78771E+01
 -1      1055 2.95680E+01
 -1      1056 2.82588E+01
 -1      1057 2.86246E+01
 -1      1058 2.82429E+01
 -1      1059 2.86246E+01
 -1      1060 3.00434E+01
 -1      1061 2.86246E+01
 -1      1062 3.14622E+01
 -1      1063 3.14622E+01
 -1      1064 3.00434E+01
 -1      1065 3.11312E+01
 -1      1066 3.08003E+01
 -1      1067 3.11312E+01
 -1      1068 3.10518E+01
 -1      1069 1.87585E+01
 -1      1070 1.92168E+01
 -1      1071 1.58196E+01
 -1      1072 1.87375E+01
 -1      1073 1.87585E+01
 -1      1074 1.63440E+01
 -1      1075 1.85386E+01
 -1      1076 1.86526E+01
 -1      1077 1.62591E+01
 -1      1078 1.77347E+01
 -1      1079 1.86367E+01
 -1      1080 1.62722E+01
 -1      1081 1.87892E+01
 -1      1082 1.79506E+01
 -1      1083 1.65862E+01
 -1      1084 1.81509E+01
 -1      1085 1.79589E+01
 -1      1086 1.59718E+01
 -1      1087 1.74118E+01
 -1      1088 1.85538E+01
 -1      1089 1.55445E+01
 -1      1090 1.91143E+01
 -1      1091 1.74118E+01
 -1      1092 1.59474E+01
 -1      1093 1.52813E+01
 -1      1094 1.82814E+01
 -1      1095 2.57987E+01
 -1      1096 1.78653E+01
 -1      1097 2.57987E+01
 -1      1098 2.50445E+01
 -1      1099 2.33739E+01
 -1      1100 1.76181E+01
 -1      1101 2.55241E+01
 -1      1102 1.83897E+01
 -1      1103 2.34784E+01
 -1      1104 2.24371E+01
 -1      1105 2.37245E+01
 -1      1106 2.25220E+01
 -1      1107 2.20177E+01
 -1      1108 2.21158E+01
 -1      1109 2.33019E+01
 -1      1110 2.18831E+01
 -1      1111 2.37048E+01
 -1      1112 2.27134E+01
 -1      1113 2.34784E+01
 -1      1114 2.23317E+01
 -1      1115 2.27134E+01
 -1      1116 2.33739E+01
 -1      1117 2.22281E+01
 -1      1118 2.19742E+01
 -1      1119 2.20012E+01
 -1      1120 1.77947E+01
 -1      1121 2.24058E+01
 -1      1122 2.28793E+01
 -1      1123 2.21334E+01
 -1      1124 2.19908E+01
 -1      1125 2.11033E+01
 -1      1126 7.61928E+00
 -1      1127 2.21128E+01
 -1      1128 2.19938E+01
 -1      1129 2.24349E+01
 -1      1130 2.19887E+01
 -1      1131 2.20304E+01
 -1      1132 2.20378E+01
 -1      1133 2.27095E+01
 -1      1134 2.24708E+01
 -1      1135 8.29903E+00
 -1      1136 2.08606E+01
 -1      1137 7.95415E+00
 -1      1138 2.07639E+01
 -1      1139 2.21751E+01
 -1      1140 2.19973E+01
 -1      1141 2.23899E+01
 -1      1142 2.19563E+01
 -1      1143 2.19762E+01
 -1      1144 7.57837E+00
 -1      1145 1.88319E+01
 -1      1146 7.46623E+00
 -1      1147 1.81527E+01
 -1      1148 1.81143E+01
 -1      1149 1.84420E+01
 -1      1150 1.97432E+01
 -1      1151 1.56847E+01
 -1      1152 1.31151E+01
 -1      1153 1.57090E+01
 -1      1154 2.01966E+01
 -1      1155 1.32503E+01
 -1      1156 1.56355E+01
 -1      1157 1.30423E+01
 -1      1158 2.02169E+01
 -1      1159 1.56012E+01
 -1      1160 2.01019E+01
 -1      1161 1.29952E+01
 -1      1162 1.43821E+01
 -1      1163 1.44993E+01
 -1      1164 1.31981E+01
 -1      1165 2.13956E+01
 -1      1166 2.15191E+01
 -1      1167 1.50911E+01
 -1      1168 1.92370E+01
 -1      1169 2.12759E+01
 -1      1170 2.21084E+01
 -1      1171 2.05421E+01
 -1      1172 1.92298E+01
 -1      1173 2.19815E+01
 -1      1174 2.05156E+01
 -1      1175 2.05702E+01
 -1      1176 2.20023E+01
 -1      1177 2.05939E+01
 -1      1178 2.05010E+01
 -1      1179 2.20158E+01
 -1      1180 2.15679E+01
 -1      1181 2.06497E+01
 -1      1182 2.20570E+01
 -1      1183 1.96780E+01
 -1      1184 1.94089E+01
 -1      1185 1.99538E+01
 -1      1186 1.83133E+01
 -1      1187 1.45177E+01
 -1      1188 1.40711E+01
 -1      1189 1.96280E+01
 -1      1190 7.66898E+00
 -1      1191 7.98384E+00
 -1      1192 1.47012E+01
 -1      1193 1.35655E+01
 -1      1194 2.24844E+01
 -1      1195 2.20262E+01
 -1      1196 2.04968E+01
 -1      1197 2.18040E+01
 -1      1198 2.17830E+01
 -1      1199 2.26571E+01
 -1      1200 2.16323E+01
 -1      1201 2.15183E+01
 -1      1202 2.22842E+01
 -1      1203 2.14705E+01
 -1      1204 2.05685E+01
 -1      1205 2.20856E+01
 -1      1206 2.05450E+01
 -1      1207 2.13835E+01
 -1      1208 2.20143E+01
 -1      1209 2.13850E+01
 -1      1210 2.15770E+01
 -1      1211 2.19923E+01
 -1      1212 2.17830E+01
 -1      1213 2.06410E+01
 -1      1214 2.21998E+01
 -1      1215 2.07928E+01
 -1      1216 2.24953E+01
 -1      1217 2.25577E+01
 -1      1218 2.04311E+01
 -1      1219 7.70378E+00
 -1      1220 7.31439E+00
 -1      1221 1.30306E+01
 -1      1222 1.39351E+01
 -1      1223 1.43684E+01
 -1      1224 1.42400E+01
 -1      1225 1.94875E+01
 -1      1226 2.21893E+01
 -1      1227 2.23090E+01
 -1      1228 2.14960E+01
 -1      1229 1.43590E+01
 -1      1230 2.15769E+01
 -1      1231 2.19752E+01
 -1      1232 2.19824E+01
 -1      1233 2.19933E+01
 -1      1234 2.19652E+01
 -1      1235 2.19662E+01
 -1      1236 2.21439E+01
 -1      1237 2.20881E+01
 -1      1238 2.19993E+01
 -1      1239 2.20138E+01
 -1      1240 2.20862E+01
 -1      1241 2.01328E+01
 -1      1242 2.22918E+01
 -1      1243 1.26865E+01
 -1      1244 1.50246E+01
 -1      1245 1.30469E+01
 -1      1246 7.93870E+00
 -1      1247 2.20844E+01
 -1      1248 2.22904E+01
 -1      1249 2.24383E+01
 -1      1250 2.25902E+01
 -1      1251 2.23230E+01
 -1      1252 2.18216E+01
 -1      1253 2.15994E+01
 -1      1254 2.18699E+01
 -1      1255 1.41634E+01
 -1      1256 1.51727E+01
 -1      1257 1.41151E+01
 -1      1258 2.24124E+01
 -1      1259 2.22616E+01
 -1      1260 2.20548E+01
 -1      1261 2.20070E+01
 -1      1262 2.21830E+01
 -1      1263 2.19941E+01
 -1      1264 2.19956E+01
 -1      1265 2.19970E+01
 -1      1266 2.19735E+01
 -1      1267 2.19768E+01
 -1      1268 2.19064E+01
 -1      1269 1.51440E+01
 -1      1270 1.43409E+01
 -1      1271 7.54276E+00
 -1      1272 7.78671E+00
 -1      1273 7.71019E+00
 -1      1274 2.58387E+01
 -1      1275 2.60291E+01
 -1      1276 2.62105E+01
 -1      1277 2.61846E+01
 -1      1278 2.50239E+01
 -1      1279 2.48692E+01
 -1      1280 2.94511E+01
 -1      1281 2.77219E+01
 -1      1282 5.74434E+00
 -1      1283 5.98980E+00
 -1      1284 6.40469E+00
 -1      1285 6.35618E+00
 -1      1286 5.19543E+00
 -1      1287 5.20499E+00
 -1      1288 5.37810E+00
 -1      1289 6.08392E+00
 -1      1290 5.95364E+00
 -1      1291 6.18701E+00
 -1      1292 1.08297E+01
 -1      1293 1.14073E+01
 -1      1294 3.29098E+01
 -1      1295 2.99308E+01
 -1      1296 2.39426E+01
 -1      1297 1.45145E+01
 -1      1298 1.56243E+01
 -1      1299 1.61275E+01
 -1      1300 1.57627E+01
 -1      1301 1.18422E+01
 -1      1302 5.84320E+00
 -1      1303 2.41496E+01
 -1      1304 2.41282E+01
 -1      1305 5.18807E+00
 -1      1306 6.77141E+00
 -1      1307 5.20631E+00
 -1      1308 5.10445E+00
 -1      1309 5.46214E+00
 -1      1310 6.13304E+00
 -1      1311 5.40650E+00
 -1      1312 2.58827E+01
 -1      1313 2.48972E+01
 -1      1314 2.59468E+01
 -1      1315 2.47701E+01
 -1      1316 2.62146E+01
 -1      1317 2.63085E+01
 -1      1318 2.41370E+01
 -1      1319 1.97287E+01
 -1      1320 1.04386E+01
 -1      1321 1.04123E+01
 -1      1322 8.60368E+00
 -1      1323 8.78088E+00
 -1      1324 8.20283E+00
 -1      1325 9.49408E+00
 -1      1326 8.07301E+00
 -1      1327 8.38244E+00
 -1      1328 8.23728E+00
 -1      1329 8.38236E+00
 -1      1330 9.12788E+00
 -1      1331 2.51706E+01
 -1      1332 2.52310E+01
 -1      1333 9.46605E+00
 -1      1334 9.12788E+00
 -1      1335 8.08275E+00
 -1      1336 9.40041E+00
 -1      1337 7.98533E+00
 -1      1338 1.19282E+01
 -1      1339 9.68304E+00
 -1      1340 8.27887E+00
 -1      1341 1.32013E+01
 -1      1342 2.97566E+01
 -1      1343 2.58567E+01
 -1      1344 9.77643E+00
 -1      1345 9.92524E+00
 -1      1346 2.29035E+01
 -1      1347 2.28599E+01
 -1      1348 8.94685E+00
 -1      1349 8.87809E+00
 -1      1350 2.12432E+01
 -1      1351 2.05066E+01
 -1      1352 3.11622E+01
 -1      1353 2.76507E+01
 -1      1354 3.16702E+01
 -1      1355 3.29098E+01
 -1      1356 3.16702E+01
 -1      1357 3.29098E+01
 -1      1358 3.16702E+01
 -1      1359 1.42759E+01
 -1      1360 1.56935E+01
 -1      1361 1.59583E+01
 -1      1362 1.85279E+01
 -1      1363 1.98763E+01
 -1      1364 3.11537E+01
 -1      1365 3.11537E+01
 -1      1366 3.11622E+01
 -1      1367 2.96909E+01
 -1      1368 3.05380E+01
 -1      1369 3.05465E+01
 -1      1370 3.11622E+01
 -1      1371 1.53210E+01
 -1      1372 1.38013E+01
 -1      1373 1.86188E+01
 -1      1374 1.60129E+01
 -1      1375 1.93321E+01
 -1      1376 2.28599E+01
 -1      1377 2.40455E+01
 -1      1378 1.68448E+01
 -1      1379 9.77643E+00
 -1      1380 1.00154E+01
 -1      1381 9.57062E+00
 -1      1382 9.80676E+00
 -1      1383 9.63175E+00
 -1      1384 1.00539E+01
 -1      1385 2.29035E+01
 -1      1386 1.71554E+01
 -1      1387 2.40371E+01
 -1      1388 1.57627E+01
 -1      1389 2.43363E+01
 -1      1390 2.84262E+01
 -1      1391 2.84262E+01
 -1      1392 2.30556E+01
 -1      1393 1.85720E+01
 -1      1394 1.44820E+01
 -1      1395 1.56935E+01
 -1      1396 2.36448E+01
 -1      1397 1.61275E+01
 -1      1398 1.53210E+01
 -1      1399 2.85094E+01
 -1      1400 2.09921E+01
 -1      1401 2.85094E+01
 -1      1402 1.33691E+01
 -1      1403 1.37585E+01
 -1      1404 2.19284E+01
 -1      1405 1.60066E+01
 -1      1406 1.55733E+01
 -1      1407 2.19328E+01
 -1      1408 2.41433E+01
 -1      1409 2.87580E+01
 -1      1410 2.94511E+01
 -1      1411 2.96909E+01
 -1      1412 2.49605E+01
 -1      1413 2.64811E+01
 -1      1414 2.71741E+01
 -1      1415 2.54533E+01
 -1      1416 2.50239E+01
 -1      1417 2.49605E+01
 -1      1418 2.60466E+01
 -1      1419 2.58827E+01
 -1      1420 2.54533E+01
 -1      1421 2.62125E+01
 -1      1422 2.62105E+01
 -1      1423 2.60466E+01
 -1      1424 2.62146E+01
 -1      1425 2.62146E+01
 -1      1426 2.62125E+01
 -1      1427 2.58387E+01
 -1      1428 2.60266E+01
 -1      1429 2.60266E+01
 -1      1430 2.52310E+01
 -1      1431 2.55348E+01
 -1      1432 2.55348E+01
 -1      1433 2.40455E+01
 -1      1434 1.08297E+01
 -1      1435 1.08297E+01
 -1      1436 1.68448E+01
 -1      1437 1.03465E+01
 -1      1438 1.06341E+01
 -1      1439 1.06341E+01
 -1      1440 1.01075E+01
 -1      1441 5.62416E+00
 -1      1442 7.88475E+00
 -1      1443 8.09056E+00
 -1      1444 4.93612E+00
 -1      1445 5.02497E+00
 -1      1446 5.80550E+00
 -1      1447 5.28096E+00
 -1      1448 4.93068E+00
 -1      1449 5.20087E+00
 -1      1450 4.78767E+00
 -1      1451 5.38650E+00
 -1      1452 5.30096E+00
 -1      1453 4.68983E+00
 -1      1454 4.77348E+00
 -1      1455 5.39230E+00
 -1      1456 4.91722E+00
 -1      1457 4.73185E+00
 -1      1458 5.42012E+00
 -1      1459 5.01999E+00
 -1      1460 5.16297E+00
 -1      1461 5.70789E+00
 -1      1462 5.31849E+00
 -1      1463 4.96476E+00
 -1      1464 5.89842E+00
 -1      1465 6.86483E+00
 -1      1466 5.26906E+00
 -1      1467 5.79377E+00
 -1      1468 1.32584E+01
 -1      1469 7.98533E+00
 -1      1470 6.86483E+00
 -1      1471 2.23281E+01
 -1      1472 1.95190E+01
 -1      1473 1.12499E+01
 -1      1474 1.65230E+01
 -1      1475 1.75106E+01
 -1      1476 2.59002E+01
 -1      1477 2.41496E+01
 -1      1478 2.23281E+01
 -1      1479 2.76507E+01
 -1      1480 2.76507E+01
 -1      1481 2.58939E+01
 -1      1482 2.58939E+01
 -1      1483 2.41282E+01
 -1      1484 2.58895E+01
 -1      1485 2.36897E+01
 -1      1486 2.36897E+01
 -1      1487 1.96355E+01
 -1      1488 2.26857E+01
 -1      1489 2.26857E+01
 -1      1490 8.27887E+00
 -1      1491 1.31534E+01
 -1      1492 1.19516E+01
 -1      1493 1.68261E+01
 -1      1494 1.84337E+01
 -1      1495 5.42120E+00
 -1      1496 7.13433E+00
 -1      1497 7.13433E+00
 -1      1498 4.99615E+00
 -1      1499 5.02034E+00
 -1      1500 5.58893E+00
 -1      1501 5.01854E+00
 -1      1502 5.49562E+00
 -1      1503 5.68754E+00
 -1      1504 5.03048E+00
 -1      1505 4.99156E+00
 -1      1506 6.16002E+00
 -1      1507 5.24135E+00
 -1      1508 5.00592E+00
 -1      1509 6.10848E+00
 -1      1510 5.08210E+00
 -1      1511 4.75162E+00
 -1      1512 5.59418E+00
 -1      1513 5.07772E+00
 -1      1514 5.13237E+00
 -1      1515 5.15472E+00
 -1      1516 5.86093E+00
 -1      1517 5.86093E+00
 -1      1518 5.98820E+00
 -1      1519 7.84721E+00
 -1      1520 5.65331E+00
 -1      1521 6.56379E+00
 -1      1522 8.14071E+00
 -1      1523 1.09098E+01
 -1      1524 1.02975E+01
 -1      1525 1.01688E+01
 -1      1526 1.14073E+01
 -1      1527 1.14073E+01
 -1      1528 1.09098E+01
 -1      1529 1.71554E+01
 -1      1530 2.55999E+01
 -1      1531 2.51706E+01
 -1      1532 2.40371E+01
 -1      1533 2.61688E+01
 -1      1534 2.60291E+01
 -1      1535 2.55999E+01
 -1      1536 2.63085E+01
 -1      1537 2.63085E+01
 -1      1538 2.61688E+01
 -1      1539 2.61846E+01
 -1      1540 2.62466E+01
 -1      1541 2.62466E+01
 -1      1542 2.59468E+01
 -1      1543 2.60657E+01
 -1      1544 2.60657E+01
 -1      1545 2.48692E+01
 -1      1546 2.54080E+01
 -1      1547 2.54080E+01
 -1      1548 2.62460E+01
 -1      1549 2.48197E+01
 -1      1550 2.48197E+01
 -1      1551 2.90763E+01
 -1      1552 2.77219E+01
 -1      1553 2.62460E+01
 -1      1554 3.00936E+01
 -1      1555 2.87393E+01
 -1      1556 3.13332E+01
 -1      1557 1.76664E+01
 -1      1558 1.78543E+01
 -1      1559 9.13748E+00
 -1      1560 1.73098E+01
 -1      1561 1.70059E+01
 -1      1562 1.71907E+01
 -1      1563 1.70511E+01
 -1      1564 8.13792E+00
 -1      1565 1.71160E+01
 -1      1566 1.66867E+01
 -1      1567 1.72964E+01
 -1      1568 1.71325E+01
 -1      1569 1.72985E+01
 -1      1570 1.72965E+01
 -1      1571 8.38240E+00
 -1      1572 1.75373E+01
 -1      1573 1.76563E+01
 -1      1574 1.72110E+01
 -1      1575 1.72729E+01
 -1      1576 8.68258E+00
 -1      1577 1.76744E+01
 -1      1578 1.72450E+01
 -1      1579 1.72121E+01
 -1      1580 1.71488E+01
 -1      1581 9.43323E+00
 -1      1582 1.69985E+01
 -1      1583 1.75373E+01
 -1      1584 1.64264E+01
 -1      1585 1.64760E+01
 -1      1586 8.60532E+00
 -1      1587 2.06466E+01
 -1      1588 2.08865E+01
 -1      1589 1.95671E+01
 -1      1590 1.07626E+01
 -1      1591 1.72901E+01
 -1      1592 1.81628E+01
 -1      1593 1.66869E+01
 -1      1594 1.98251E+01
 -1      1595 1.02659E+01
 -1      1596 2.08424E+01
 -1      1597 1.39848E+01
 -1      1598 8.79325E+00
 -1      1599 1.09359E+01
 -1      1600 1.20564E+01
 -1      1601 8.84268E+00
 -1      1602 1.20208E+01
 -1      1603 1.08762E+01
 -1      1604 9.59554E+00
 -1      1605 8.55814E+00
 -1      1606 8.95900E+00
 -1      1607 1.25648E+01
 -1      1608 6.99359E+00
 -1      1609 7.59278E+00
 -1      1610 8.42163E+00
 -1      1611 7.64139E+00
 -1      1612 9.65834E+00
 -1      1613 8.82948E+00
 -1      1614 7.27950E+00
 -1      1615 7.48712E+00
 -1      1616 8.38425E+00
 -1      1617 9.67958E+00
 -1      1618 7.65151E+00
 -1      1619 8.57484E+00
 -1      1620 7.34476E+00
 -1      1621 7.35020E+00
 -1      1622 6.89447E+00
 -1      1623 6.78893E+00
 -1      1624 8.93826E+00
 -1      1625 7.42221E+00
 -1      1626 6.63900E+00
 -1      1627 6.72113E+00
 -1      1628 6.67087E+00
 -1      1629 8.15515E+00
 -1      1630 7.46409E+00
 -1      1631 7.42208E+00
 -1      1632 6.88023E+00
 -1      1633 6.89443E+00
 -1      1634 8.92421E+00
 -1      1635 7.11617E+00
 -1      1636 7.60590E+00
 -1      1637 7.60590E+00
 -1      1638 7.63046E+00
 -1      1639 9.12788E+00
 -1      1640 7.76312E+00
 -1      1641 7.81834E+00
 -1      1642 7.67702E+00
 -1      1643 7.43127E+00
 -1      1644 9.54172E+00
 -1      1645 7.39534E+00
 -1      1646 6.89587E+00
 -1      1647 7.10790E+00
 -1      1648 7.13488E+00
 -1      1649 8.34322E+00
 -1      1650 9.85388E+00
 -1      1651 1.80303E+01
 -1      1652 1.70545E+01
 -1      1653 1.01771E+01
 -1      1654 1.82890E+01
 -1      1655 1.70587E+01
 -1      1656 2.68496E+01
 -1      1657 1.88494E+01
 -1      1658 2.78937E+01
 -1      1659 1.79354E+01
 -1      1660 2.80434E+01
 -1      1661 2.98875E+01
 -1      1662 2.60672E+01
 -1      1663 2.61160E+01
 -1      1664 2.99995E+01
 -1      1665 2.93918E+01
 -1      1666 2.49014E+01
 -1      1667 2.62146E+01
 -1      1668 2.57839E+01
 -1      1669 2.61397E+01
 -1      1670 2.98310E+01
 -1      1671 2.96401E+01
 -1      1672 2.57688E+01
 -1      1673 2.93459E+01
 -1      1674 2.73999E+01
 -1      1675 2.91821E+01
 -1      1676 2.99995E+01
 -1      1677 2.99995E+01
 -1      1678 2.94893E+01
 -1      1679 2.83852E+01
 -1      1680 2.85797E+01
 -1      1681 2.49235E+01
 -1      1682 2.48832E+01
 -1      1683 2.28593E+01
 -1      1684 2.28242E+01
 -1      1685 2.21512E+01
 -1      1686 2.23642E+01
 -1      1687 2.25743E+01
 -1      1688 2.46113E+01
 -1      1689 2.23711E+01
 -1      1690 2.28467E+01
 -1      1691 2.28453E+01
 -1      1692 2.42572E+01
 -1      1693 2.27832E+01
 -1      1694 2.23711E+01
 -1      1695 2.36809E+01
 -1      1696 2.45639E+01
 -1      1697 2.43599E+01
 -1      1698 2.29640E+01
 -1      1699 2.45197E+01
 -1      1700 2.35518E+01
 -1      1701 2.58640E+01
 -1      1702 2.45523E+01
 -1      1703 2.36110E+01
 -1      1704 2.96771E+01
 -1      1705 2.78014E+01
 -1      1706 2.28715E+01
 -1      1707 2.27749E+01
 -1      1708 2.38575E+01
 -1      1709 2.27022E+01
 -1      1710 2.93918E+01
 -1      1711 2.86638E+01
 -1      1712 2.87548E+01
 -1      1713 2.98875E+01
 -1      1714 2.98310E+01
 -1      1715 2.86877E+01
 -1      1716 2.63701E+01
 -1      1717 2.51488E+01
 -1      1718 2.32907E+01
 -1      1719 2.39200E+01
 -1      1720 2.27623E+01
 -1      1721 2.37239E+01
 -1      1722 2.42302E+01
 -1      1723 2.42625E+01
 -1      1724 2.83313E+01
 -1      1725 2.84547E+01
 -1      1726 2.70891E+01
 -1      1727 2.35529E+01
 -1      1728 2.88865E+01
 -1      1729 2.26295E+01
 -1      1730 2.98875E+01
 -1      1731 2.96771E+01
 -1      1732 2.87802E+01
 -1      1733 2.31920E+01
 -1      1734 2.23711E+01
 -1      1735 2.59739E+01
 -1      1736 2.58425E+01
 -1      1737 2.58048E+01
 -1      1738 2.26844E+01
 -1      1739 2.72613E+01
 -1      1740 2.94576E+01
 -1      1741 2.52214E+01
 -1      1742 2.94511E+01
 -1      1743 2.47873E+01
 -1      1744 2.77876E+01
 -1      1745 2.40894E+01
 -1      1746 2.52540E+01
 -1      1747 2.59047E+01
 -1      1748 2.45433E+01
 -1      1749 2.34182E+01
 -1      1750 2.47823E+01
 -1      1751 2.62105E+01
 -1      1752 2.54844E+01
 -1      1753 2.82600E+01
 -1      1754 2.76486E+01
 -1      1755 2.42783E+01
 -1      1756 2.99308E+01
 -1      1757 2.76866E+01
 -1      1758 2.80749E+01
 -1      1759 2.40039E+01
 -1      1760 2.96451E+01
 -1      1761 2.89612E+01
 -1      1762 2.35944E+01
 -1      1763 2.46922E+01
 -1      1764 2.29747E+01
 -1      1765 2.94955E+01
 -1      1766 2.99782E+01
 -1      1767 2.99782E+01
 -1      1768 2.96656E+01
 -1      1769 3.05380E+01
 -1      1770 2.96909E+01
 -1      1771 2.46174E+01
 -1      1772 2.34319E+01
 -1      1773 2.27131E+01
 -1      1774 2.51638E+01
 -1      1775 2.55027E+01
 -1      1776 2.47498E+01
 -1      1777 2.57839E+01
 -1      1778 2.58789E+01
 -1      1779 2.55027E+01
 -1      1780 2.59739E+01
 -1      1781 2.60205E+01
 -1      1782 2.58789E+01
 -1      1783 2.60672E+01
 -1      1784 2.60672E+01
 -1      1785 2.60205E+01
 -1      1786 2.59548E+01
 -1      1787 2.58425E+01
 -1      1788 2.59548E+01
 -1      1789 2.53719E+01
 -1      1790 2.49102E+01
 -1      1791 2.53719E+01
 -1      1792 2.53619E+01
 -1      1793 2.69139E+01
 -1      1794 2.53531E+01
 -1      1795 2.86845E+01
 -1      1796 2.93459E+01
 -1      1797 2.75753E+01
 -1      1798 2.94955E+01
 -1      1799 2.98844E+01
 -1      1800 2.95489E+01
 -1      1801 2.95514E+01
 -1      1802 2.96401E+01
 -1      1803 3.00207E+01
 -1      1804 2.95489E+01
 -1      1805 2.94280E+01
 -1      1806 1.83153E+01
 -1      1807 2.90474E+01
 -1      1808 1.81096E+01
 -1      1809 1.81866E+01
 -1      1810 2.82490E+01
 -1      1811 1.86082E+01
 -1      1812 2.88865E+01
 -1      1813 2.84649E+01
 -1      1814 2.91391E+01
 -1      1815 2.95299E+01
 -1      1816 2.91391E+01
 -1      1817 2.95299E+01
 -1      1818 2.98603E+01
 -1      1819 2.93918E+01
 -1      1820 2.97554E+01
 -1      1821 2.92913E+01
 -1      1822 2.92870E+01
 -1      1823 2.95565E+01
 -1      1824 2.94511E+01
 -1      1825 2.87580E+01
 -1      1826 2.96909E+01
 -1      1827 2.71023E+01
 -1      1828 2.55818E+01
 -1      1829 2.77954E+01
 -1      1830 2.51389E+01
 -1      1831 2.55684E+01
 -1      1832 2.56968E+01
 -1      1833 2.59993E+01
 -1      1834 2.61632E+01
 -1      1835 2.56850E+01
 -1      1836 2.62105E+01
 -1      1837 2.62125E+01
 -1      1838 2.61632E+01
 -1      1839 2.62146E+01
 -1      1840 2.62146E+01
 -1      1841 2.62125E+01
 -1      1842 2.60596E+01
 -1      1843 2.58717E+01
 -1      1844 2.60596E+01
 -1      1845 2.58037E+01
 -1      1846 2.54999E+01
 -1      1847 2.58368E+01
 -1      1848 2.48863E+01
 -1      1849 2.43417E+01
 -1      1850 2.60648E+01
 -1      1851 2.56326E+01
 -1      1852 2.73497E+01
 -1      1853 2.88057E+01
 -1      1854 2.85462E+01
 -1      1855 2.88339E+01
 -1      1856 2.96365E+01
 -1      1857 2.98593E+01
 -1      1858 2.96365E+01
 -1      1859 2.96413E+01
 -1      1860 2.98875E+01
 -1      1861 2.95361E+01
 -1      1862 2.94016E+01
 -1      1863 2.97823E+01
 -1      1864 2.95627E+01
 -1      1865 2.95759E+01
 -1      1866 2.98383E+01
 -1      1867 2.95759E+01
 -1      1868 2.84848E+01
 -1      1869 2.99995E+01
 -1      1870 2.71850E+01
 -1      1871 2.45355E+01
 -1      1872 2.86997E+01
 -1      1873 2.58391E+01
 -1      1874 2.80516E+01
 -1      1875 2.78460E+01
 -1      1876 2.78650E+01
 -1      1877 2.82865E+01
 -1      1878 2.76676E+01
 -1      1879 2.98875E+01
 -1      1880 2.97823E+01
 -1      1881 2.97823E+01
 -1      1882 2.96771E+01
 -1      1883 2.98875E+01
 -1      1884 2.48500E+01
 -1      1885 2.49623E+01
 -1      1886 2.47427E+01
 -1      1887 2.36378E+01
 -1      1888 2.46960E+01
 -1      1889 2.49200E+01
 -1      1890 2.38220E+01
 -1      1891 2.50180E+01
 -1      1892 2.50653E+01
 -1      1893 2.51731E+01
 -1      1894 2.39771E+01
 -1      1895 2.47421E+01
 -1      1896 2.99995E+01
 -1      1897 2.99995E+01
 -1      1898 2.97444E+01
 -1      1899 2.97444E+01
 -1      1900 2.95832E+01
 -1      1901 2.90733E+01
 -1      1902 2.90733E+01
 -1      1903 2.87333E+01
 -1      1904 2.84148E+01
 -1      1905 2.84807E+01
 -1      1906 2.51786E+01
 -1      1907 2.47269E+01
 -1      1908 2.44954E+01
 -1      1909 2.43209E+01
 -1      1910 2.49659E+01
 -1      1911 2.47526E+01
 -1      1912 2.42197E+01
 -1      1913 2.56817E+01
 -1      1914 2.55268E+01
 -1      1915 2.50673E+01
 -1      1916 2.36053E+01
 -1      1917 2.65114E+01
 -1      1918 2.67927E+01
 -1      1919 2.61723E+01
 -1      1920 2.51636E+01
 -1      1921 2.52586E+01
 -1      1922 2.90575E+01
 -1      1923 2.74018E+01
 -1      1924 2.67256E+01
 -1      1925 2.54635E+01
 -1      1926 2.50207E+01
 -1      1927 2.98310E+01
 -1      1928 2.98593E+01
 -1      1929 2.92594E+01
 -1      1930 2.92594E+01
 -1      1931 2.79745E+01
 -1      1932 2.89501E+01
 -1      1933 2.83574E+01
 -1      1934 2.92094E+01
 -1      1935 2.93006E+01
 -1      1936 2.86106E+01
 -1      1937 2.54588E+01
 -1      1938 2.69183E+01
 -1      1939 2.72283E+01
 -1      1940 2.65150E+01
 -1      1941 2.67962E+01
 -1      1942 2.85668E+01
 -1      1943 2.86226E+01
 -1      1944 2.94018E+01
 -1      1945 2.89004E+01
 -1      1946 2.76006E+01
 -1      1947 2.63106E+01
 -1      1948 2.90278E+01
 -1      1949 2.89230E+01
 -1      1950 2.93166E+01
 -1      1951 2.89004E+01
 -1      1952 2.89372E+01
 -1      1953 2.91923E+01
 -1      1954 2.77371E+01
 -1      1955 2.85443E+01
 -1      1956 2.74452E+01
 -1      1957 2.90345E+01
 -1      1958 2.84824E+01
 -1      1959 2.95832E+01
 -1      1960 2.91284E+01
 -1      1961 2.67516E+01
 -1      1962 2.66543E+01
 -1      1963 2.45904E+01
 -1      1964 2.63212E+01
 -1      1965 2.56732E+01
 -1      1966 2.67315E+01
 -1      1967 2.49034E+01
 -1      1968 2.86799E+01
 -1      1969 2.68317E+01
 -1      1970 2.92287E+01
 -1      1971 2.38713E+01
 -1      1972 2.38914E+01
 -1      1973 2.27444E+01
 -1      1974 2.37765E+01
 -1      1975 2.34434E+01
 -1      1976 2.38537E+01
 -1      1977 2.28418E+01
 -1      1978 2.47473E+01
 -1      1979 2.37178E+01
 -1      1980 2.66958E+01
 -1      1981 2.24877E+01
 -1      1982 2.25053E+01
 -1      1983 2.22577E+01
 -1      1984 2.26118E+01
 -1      1985 2.24969E+01
 -1      1986 2.26993E+01
 -1      1987 2.23628E+01
 -1      1988 2.27543E+01
 -1      1989 2.26294E+01
 -1      1990 2.36479E+01
 -1      1991 2.22612E+01
 -1      1992 2.23677E+01
 -1      1993 2.24727E+01
 -1      1994 2.22612E+01
 -1      1995 2.23711E+01
 -1      1996 2.28232E+01
 -1      1997 2.25696E+01
 -1      1998 2.26179E+01
 -1      1999 2.26213E+01
 -1      2000 2.27022E+01
 -1      2001 2.27105E+01
 -1      2002 2.26089E+01
 -1      2003 2.27098E+01
 -1      2004 2.28460E+01
 -1      2005 2.27649E+01
 -1      2006 2.64713E+01
 -1      2007 2.62969E+01
 -1      2008 2.44369E+01
 -1      2009 2.34734E+01
 -1      2010 2.85557E+01
 -1      2011 2.28150E+01
 -1      2012 2.25772E+01
 -1      2013 2.25772E+01
 -1      2014 2.23711E+01
 -1      2015 2.23711E+01
 -1      2016 2.31991E+01
 -1      2017 2.31998E+01
 -1      2018 2.32638E+01
 -1      2019 2.32321E+01
 -1      2020 2.36169E+01
 -1      2021 2.32431E+01
 -1      2022 2.32846E+01
 -1      2023 2.28038E+01
 -1      2024 2.27234E+01
 -1      2025 2.36384E+01
 -1      2026 2.26659E+01
 -1      2027 2.34797E+01
 -1      2028 2.29471E+01
 -1      2029 2.37246E+01
 -1      2030 2.51405E+01
 -1      2031 2.36736E+01
 -1      2032 2.34675E+01
 -1      2033 2.42316E+01
 -1      2034 2.37828E+01
 -1      2035 2.46731E+01
 -1      2036 2.44619E+01
 -1      2037 2.33655E+01
 -1      2038 2.36619E+01
 -1      2039 2.26675E+01
 -1      2040 2.26675E+01
 -1      2041 2.41701E+01
 -1      2042 2.42341E+01
 -1      2043 2.51359E+01
 -1      2044 2.45827E+01
 -1      2045 2.51334E+01
 -1      2046 2.61252E+01
 -1      2047 2.60232E+01
 -1      2048 2.64286E+01
 -1      2049 2.63194E+01
 -1      2050 2.78807E+01
 -1      2051 2.44398E+01
 -1      2052 2.37418E+01
 -1      2053 2.60043E+01
 -1      2054 2.60841E+01
 -1      2055 2.40357E+01
 -1      2056 2.32579E+01
 -1      2057 2.32116E+01
 -1      2058 2.29177E+01
 -1      2059 2.51918E+01
 -1      2060 2.47079E+01
 -1      2061 2.63898E+01
 -1      2062 2.70620E+01
 -1      2063 2.79543E+01
 -1      2064 2.52081E+01
 -1      2065 2.40521E+01
 -1      2066 2.40817E+01
 -1      2067 2.35814E+01
 -1      2068 2.32413E+01
 -1      2069 2.68258E+01
 -1      2070 2.61700E+01
 -1      2071 2.74126E+01
 -1      2072 2.83744E+01
 -1      2073 2.38502E+01
 -1      2074 2.31930E+01
 -1      2075 2.37343E+01
 -1      2076 2.33162E+01
 -1      2077 2.39734E+01
 -1      2078 2.93339E+01
 -1      2079 2.58162E+01
 -1      2080 2.32799E+01
 -1      2081 2.27386E+01
 -1      2082 2.30602E+01
 -1      2083 2.33051E+01
 -1      2084 2.87093E+01
 -1      2085 2.71196E+01
 -1      2086 2.70741E+01
 -1      2087 2.67685E+01
 -1      2088 2.98593E+01
 -1      2089 2.75289E+01
 -1      2090 2.81006E+01
 -1      2091 2.73507E+01
 -1      2092 2.90812E+01
 -1      2093 2.91094E+01
 -1      2094 2.57594E+01
 -1      2095 2.48304E+01
 -1      2096 2.37766E+01
 -1      2097 2.53163E+01
 -1      2098 2.33411E+01
 -1      2099 2.30265E+01
 -1      2100 2.35124E+01
 -1      2101 2.38916E+01
 -1      2102 2.45088E+01
 -1      2103 2.38676E+01
 -1      2104 2.45829E+01
 -1      2105 8.47020E+00
 -1      2106 8.88719E+00
 -1      2107 8.35388E+00
 -1      2108 2.16338E+01
 -1      2109 2.78665E+01
 -1      2110 2.86319E+01
 -1      2111 2.28388E+01
 -1      2112 1.01827E+01
 -1      2113 1.01295E+01
 -1      2114 2.64640E+01
 -1      2115 8.51719E+00
 -1      2116 2.89257E+01
 -1      2117 2.60611E+01
 -1      2118 8.54789E+00
 -1      2119 9.21946E+00
 -1      2120 2.88020E+01
 -1      2121 1.14073E+01
 -1      2122 9.15054E+00
 -1      2123 1.09635E+01
 -1      2124 7.78835E+00
 -1      2125 8.14923E+00
 -1      2126 9.16432E+00
 -1      2127 8.88090E+00
 -1      2128 7.18516E+00
 -1      2129 9.16432E+00
 -1      2130 9.83479E+00
 -1      2131 8.85443E+00
 -1      2132 8.53643E+00
 -1      2133 1.86459E+01
 -1      2134 8.79925E+00
 -1      2135 9.92524E+00
 -1      2136 1.85057E+01
 -1      2137 1.03824E+01
 -1      2138 2.06998E+01
 -1      2139 1.47346E+01
 -1      2140 2.06723E+01
 -1      2141 1.03824E+01
 -1      2142 1.03824E+01
 -1      2143 9.08536E+00
 -1      2144 9.80676E+00
 -1      2145 1.00539E+01
 -1      2146 8.55520E+00
 -1      2147 1.50266E+01
 -1      2148 2.07747E+01
 -1      2149 2.01398E+01
 -1      2150 1.09635E+01
 -1      2151 1.09635E+01
 -1      2152 1.47346E+01
 -1      2153 1.05465E+01
 -1      2154 1.02559E+01
 -1      2155 1.05465E+01
 -1      2156 1.02559E+01
 -1      2157 1.01827E+01
 -1      2158 1.07950E+01
 -1      2159 1.00539E+01
 -1      2160 1.14073E+01
 -1      2161 1.14073E+01
 -1      2162 1.07950E+01
 -1      2163 1.50266E+01
 -1      2164 7.78835E+00
 -1      2165 8.12928E+00
 -1      2166 9.08536E+00
 -1      2167 8.47020E+00
 -1      2168 8.50904E+00
 -1      2169 8.12928E+00
 -1      2170 8.54789E+00
 -1      2171 8.54789E+00
 -1      2172 8.50904E+00
 -1      2173 8.71754E+00
 -1      2174 9.05332E+00
 -1      2175 8.71754E+00
 -1      2176 9.21946E+00
 -1      2177 9.21946E+00
 -1      2178 9.05332E+00
 -1      2179 8.78667E+00
 -1      2180 8.35388E+00
 -1      2181 8.78667E+00
 -1      2182 8.25155E+00
 -1      2183 8.14923E+00
 -1      2184 8.25155E+00
 -1      2185 7.66720E+00
 -1      2186 7.18516E+00
 -1      2187 7.66720E+00
 -1      2188 8.55520E+00
 -1      2189 2.16338E+01
 -1      2190 2.40489E+01
 -1      2191 2.01398E+01
 -1      2192 2.64640E+01
 -1      2193 2.75569E+01
 -1      2194 2.40489E+01
 -1      2195 2.87878E+01
 -1      2196 2.89257E+01
 -1      2197 2.76949E+01
 -1      2198 2.83961E+01
 -1      2199 2.82090E+01
 -1      2200 2.83961E+01
 -1      2201 2.86768E+01
 -1      2202 2.88020E+01
 -1      2203 2.83342E+01
 -1      2204 2.87169E+01
 -1      2205 2.86319E+01
 -1      2206 2.87169E+01
 -1      2207 2.73465E+01
 -1      2208 2.60611E+01
 -1      2209 2.73465E+01
 -1      2210 2.44499E+01
 -1      2211 2.28388E+01
 -1      2212 2.44499E+01
 -1      2213 2.06723E+01
 -1      2214 8.81726E+00
 -1      2215 8.85610E+00
 -1      2216 8.47633E+00
 -1      2217 8.81726E+00
 -1      2218 9.16432E+00
 -1      2219 8.70116E+00
 -1      2220 8.87080E+00
 -1      2221 9.36099E+00
 -1      2222 9.52713E+00
 -1      2223 9.34461E+00
 -1      2224 9.05018E+00
 -1      2225 8.61739E+00
 -1      2226 8.64988E+00
 -1      2227 8.75220E+00
 -1      2228 9.01572E+00
 -1      2229 1.50755E+01
 -1      2230 1.74906E+01
 -1      2231 1.50851E+01
 -1      2232 8.52681E+00
 -1      2233 9.97187E+00
 -1      2234 1.65206E+01
 -1      2235 1.89033E+01
 -1      2236 1.83737E+01
 -1      2237 1.88506E+01
 -1      2238 1.93184E+01
 -1      2239 9.35785E+00
 -1      2240 1.88981E+01
 -1      2241 1.76127E+01
 -1      2242 1.88282E+01
 -1      2243 1.87431E+01
 -1      2244 9.00937E+00
 -1      2245 1.76127E+01
 -1      2246 1.60016E+01
 -1      2247 1.58190E+01
 -1      2248 9.88136E+00
 -1      2249 1.69011E+01
 -1      2250 8.98178E+00
 -1      2251 9.35954E+00
 -1      2252 7.86080E+00
 -1      2253 8.68391E+00
 -1      2254 9.46437E+00
 -1      2255 8.29380E+00
 -1      2256 8.95892E+00
 -1      2257 8.83386E+00
 -1      2258 1.78073E+01
 -1      2259 1.90381E+01
 -1      2260 8.33321E+00
 -1      2261 7.85118E+00
 -1      2262 3.02470E+01
 -1      2263 2.76272E+01
 -1      2264 2.58972E+01
 -1      2265 2.61846E+01
 -1      2266 2.90361E+01
 -1      2267 3.01417E+01
 -1      2268 2.60653E+01
 -1      2269 2.48692E+01
 -1      2270 2.63444E+01
 -1      2271 2.60291E+01
 -1      2272 2.96374E+01
 -1      2273 3.02389E+01
 -1      2274 2.97566E+01
 -1      2275 2.50874E+01
 -1      2276 2.94287E+01
 -1      2277 2.81346E+01
 -1      2278 2.82737E+01
 -1      2279 2.74328E+01
 -1      2280 2.67431E+01
 -1      2281 2.39402E+01
 -1      2282 2.33224E+01
 -1      2283 2.26479E+01
 -1      2284 2.21449E+01
 -1      2285 2.21887E+01
 -1      2286 2.21449E+01
 -1      2287 2.23066E+01
 -1      2288 2.25320E+01
 -1      2289 2.23792E+01
 -1      2290 2.25068E+01
 -1      2291 2.37457E+01
 -1      2292 2.33893E+01
 -1      2293 2.26134E+01
 -1      2294 2.33084E+01
 -1      2295 2.64125E+01
 -1      2296 2.67578E+01
 -1      2297 2.54338E+01
 -1      2298 2.88935E+01
 -1      2299 2.96068E+01
 -1      2300 2.63214E+01
 -1      2301 2.84408E+01
 -1      2302 2.57887E+01
 -1      2303 2.76854E+01
 -1      2304 2.46305E+01
 -1      2305 2.30287E+01
 -1      2306 2.67331E+01
 -1      2307 2.77322E+01
 -1      2308 2.35198E+01
 -1      2309 2.25556E+01
 -1      2310 2.31249E+01
 -1      2311 2.31509E+01
 -1      2312 2.97950E+01
 -1      2313 2.86734E+01
 -1      2314 2.97950E+01
 -1      2315 2.45947E+01
 -1      2316 2.85436E+01
 -1      2317 2.76027E+01
 -1      2318 2.76832E+01
 -1      2319 2.52808E+01
 -1      2320 2.52808E+01
 -1      2321 2.40249E+01
 -1      2322 2.42210E+01
 -1      2323 2.32446E+01
 -1      2324 2.34507E+01
 -1      2325 2.34471E+01
 -1      2326 2.33709E+01
 -1      2327 2.39570E+01
 -1      2328 3.02389E+01
 -1      2329 2.31307E+01
 -1      2330 3.02470E+01
 -1      2331 2.26982E+01
 -1      2332 2.63137E+01
 -1      2333 2.75810E+01
 -1      2334 2.32493E+01
 -1      2335 2.38813E+01
 -1      2336 2.35497E+01
 -1      2337 2.51237E+01
 -1      2338 2.60268E+01
 -1      2339 2.59166E+01
 -1      2340 2.26168E+01
 -1      2341 2.91186E+01
 -1      2342 2.85749E+01
 -1      2343 2.97623E+01
 -1      2344 2.52111E+01
 -1      2345 2.41659E+01
 -1      2346 2.67283E+01
 -1      2347 2.34014E+01
 -1      2348 2.63085E+01
 -1      2349 2.58646E+01
 -1      2350 2.45491E+01
 -1      2351 2.39654E+01
 -1      2352 2.90296E+01
 -1      2353 2.59468E+01
 -1      2354 2.76861E+01
 -1      2355 3.02389E+01
 -1      2356 3.00545E+01
 -1      2357 3.02470E+01
 -1      2358 3.17891E+01
 -1      2359 2.41006E+01
 -1      2360 3.01417E+01
 -1      2361 3.04306E+01
 -1      2362 2.47387E+01
 -1      2363 2.90287E+01
 -1      2364 2.39495E+01
 -1      2365 3.04306E+01
 -1      2366 2.97746E+01
 -1      2367 3.04306E+01
 -1      2368 3.06125E+01
 -1      2369 3.17891E+01
 -1      2370 3.17891E+01
 -1      2371 2.49130E+01
 -1      2372 2.38163E+01
 -1      2373 2.37887E+01
 -1      2374 2.35020E+01
 -1      2375 2.46356E+01
 -1      2376 2.28672E+01
 -1      2377 2.91186E+01
 -1      2378 2.93780E+01
 -1      2379 2.97746E+01
 -1      2380 2.96374E+01
 -1      2381 2.96374E+01
 -1      2382 2.93780E+01
 -1      2383 2.90905E+01
 -1      2384 1.69275E+01
 -1      2385 2.90905E+01
 -1      2386 1.64693E+01
 -1      2387 1.67903E+01
 -1      2388 2.80854E+01
 -1      2389 1.67672E+01
 -1      2390 1.72856E+01
 -1      2391 2.76041E+01
 -1      2392 1.80132E+01
 -1      2393 2.90361E+01
 -1      2394 2.83085E+01
 -1      2395 2.86549E+01
 -1      2396 2.83553E+01
 -1      2397 2.86549E+01
 -1      2398 2.89328E+01
 -1      2399 2.94323E+01
 -1      2400 2.88512E+01
 -1      2401 3.06089E+01
 -1      2402 3.07757E+01
 -1      2403 2.85171E+01
 -1      2404 3.07757E+01
 -1      2405 2.68082E+01
 -1      2406 2.56238E+01
 -1      2407 2.80533E+01
 -1      2408 2.50134E+01
 -1      2409 2.54292E+01
 -1      2410 2.57341E+01
 -1      2411 2.58160E+01
 -1      2412 2.59620E+01
 -1      2413 2.55105E+01
 -1      2414 2.60268E+01
 -1      2415 2.60461E+01
 -1      2416 2.59620E+01
 -1      2417 2.60653E+01
 -1      2418 2.60653E+01
 -1      2419 2.60461E+01
 -1      2420 2.59910E+01
 -1      2421 2.59166E+01
 -1      2422 2.59910E+01
 -1      2423 2.55020E+01
 -1      2424 2.50874E+01
 -1      2425 2.55020E+01
 -1      2426 2.49130E+01
 -1      2427 2.51909E+01
 -1      2428 2.56201E+01
 -1      2429 2.46558E+01
 -1      2430 2.60291E+01
 -1      2431 2.61688E+01
 -1      2432 2.56201E+01
 -1      2433 2.63085E+01
 -1      2434 2.63085E+01
 -1      2435 2.61688E+01
 -1      2436 2.62466E+01
 -1      2437 2.61846E+01
 -1      2438 2.62466E+01
 -1      2439 2.60657E+01
 -1      2440 2.59468E+01
 -1      2441 2.60657E+01
 -1      2442 2.54080E+01
 -1      2443 2.48692E+01
 -1      2444 2.54080E+01
 -1      2445 2.53669E+01
 -1      2446 2.67933E+01
 -1      2447 2.53669E+01
 -1      2448 2.87393E+01
 -1      2449 3.00936E+01
 -1      2450 2.78106E+01
 -1      2451 3.00936E+01
 -1      2452 2.72993E+01
 -1      2453 2.48842E+01
 -1      2454 2.61176E+01
 -1      2455 2.92224E+01
 -1      2456 2.81295E+01
 -1      2457 2.89648E+01
 -1      2458 2.95337E+01
 -1      2459 2.93958E+01
 -1      2460 2.99684E+01
 -1      2461 2.93992E+01
 -1      2462 2.95863E+01
 -1      2463 3.01944E+01
 -1      2464 2.95245E+01
 -1      2465 2.93992E+01
 -1      2466 3.02470E+01
 -1      2467 2.94354E+01
 -1      2468 2.95205E+01
 -1      2469 3.02429E+01
 -1      2470 2.81500E+01
 -1      2471 2.94354E+01
 -1      2472 3.02389E+01
 -1      2473 2.57069E+01
 -1      2474 2.73180E+01
 -1      2475 2.94069E+01
 -1      2476 2.66568E+01
 -1      2477 3.01467E+01
 -1      2478 3.01507E+01
 -1      2479 3.02470E+01
 -1      2480 3.02470E+01
 -1      2481 3.01507E+01
 -1      2482 2.69704E+01
 -1      2483 2.65234E+01
 -1      2484 2.71801E+01
 -1      2485 2.71570E+01
 -1      2486 2.74286E+01
 -1      2487 2.45445E+01
 -1      2488 2.49313E+01
 -1      2489 2.49233E+01
 -1      2490 2.49881E+01
 -1      2491 2.39574E+01
 -1      2492 2.48177E+01
 -1      2493 2.38359E+01
 -1      2494 2.52028E+01
 -1      2495 2.50839E+01
 -1      2496 2.48159E+01
 -1      2497 2.34489E+01
 -1      2498 2.48778E+01
 -1      2499 2.82345E+01
 -1      2500 2.78533E+01
 -1      2501 2.78896E+01
 -1      2502 2.70880E+01
 -1      2503 2.71620E+01
 -1      2504 2.99684E+01
 -1      2505 2.97950E+01
 -1      2506 3.01417E+01
 -1      2507 2.99684E+01
 -1      2508 3.01944E+01
 -1      2509 2.52736E+01
 -1      2510 2.53479E+01
 -1      2511 2.47334E+01
 -1      2512 2.40160E+01
 -1      2513 2.47141E+01
 -1      2514 2.44470E+01
 -1      2515 2.46528E+01
 -1      2516 2.50750E+01
 -1      2517 2.55727E+01
 -1      2518 2.45451E+01
 -1      2519 2.41229E+01
 -1      2520 2.87472E+01
 -1      2521 2.70383E+01
 -1      2522 2.61407E+01
 -1      2523 2.54468E+01
 -1      2524 2.48364E+01
 -1      2525 2.69423E+01
 -1      2526 2.73513E+01
 -1      2527 2.64197E+01
 -1      2528 2.50975E+01
 -1      2529 2.52372E+01
 -1      2530 2.86200E+01
 -1      2531 2.80731E+01
 -1      2532 2.86603E+01
 -1      2533 2.76429E+01
 -1      2534 2.84009E+01
 -1      2535 3.02389E+01
 -1      2536 3.02389E+01
 -1      2537 2.88018E+01
 -1      2538 2.96338E+01
 -1      2539 2.96338E+01
 -1      2540 2.75187E+01
 -1      2541 2.64820E+01
 -1      2542 2.87199E+01
 -1      2543 2.94376E+01
 -1      2544 2.63224E+01
 -1      2545 2.59078E+01
 -1      2546 2.76516E+01
 -1      2547 2.68311E+01
 -1      2548 2.80030E+01
 -1      2549 2.85805E+01
 -1      2550 2.95955E+01
 -1      2551 2.92342E+01
 -1      2552 2.84040E+01
 -1      2553 2.66729E+01
 -1      2554 2.75825E+01
 -1      2555 2.53416E+01
 -1      2556 2.56865E+01
 -1      2557 2.42674E+01
 -1      2558 2.60138E+01
 -1      2559 2.61635E+01
 -1      2560 2.50327E+01
 -1      2561 2.36313E+01
 -1      2562 2.67381E+01
 -1      2563 2.50277E+01
 -1      2564 2.29852E+01
 -1      2565 2.32941E+01
 -1      2566 2.29781E+01
 -1      2567 2.36243E+01
 -1      2568 2.39515E+01
 -1      2569 2.27337E+01
 -1      2570 2.23964E+01
 -1      2571 2.32859E+01
 -1      2572 2.26971E+01
 -1      2573 2.49912E+01
 -1      2574 2.21668E+01
 -1      2575 2.24183E+01
 -1      2576 2.24434E+01
 -1      2577 2.26731E+01
 -1      2578 2.30033E+01
 -1      2579 2.21449E+01
 -1      2580 2.21668E+01
 -1      2581 2.23259E+01
 -1      2582 2.23259E+01
 -1      2583 2.28780E+01
 -1      2584 2.22258E+01
 -1      2585 2.22476E+01
 -1      2586 2.24193E+01
 -1      2587 2.23604E+01
 -1      2588 2.26151E+01
 -1      2589 2.22621E+01
 -1      2590 2.23429E+01
 -1      2591 2.23809E+01
 -1      2592 2.24980E+01
 -1      2593 2.25618E+01
 -1      2594 2.29282E+01
 -1      2595 2.30409E+01
 -1      2596 2.30625E+01
 -1      2597 2.30262E+01
 -1      2598 2.36477E+01
 -1      2599 2.30377E+01
 -1      2600 2.25438E+01
 -1      2601 2.30259E+01
 -1      2602 2.35348E+01
 -1      2603 2.26269E+01
 -1      2604 2.28843E+01
 -1      2605 2.35675E+01
 -1      2606 2.24963E+01
 -1      2607 2.30014E+01
 -1      2608 2.26151E+01
 -1      2609 2.32319E+01
 -1      2610 2.36640E+01
 -1      2611 2.29388E+01
 -1      2612 2.29938E+01
 -1      2613 2.36032E+01
 -1      2614 2.49009E+01
 -1      2615 2.50791E+01
 -1      2616 2.65852E+01
 -1      2617 2.52518E+01
 -1      2618 2.51538E+01
 -1      2619 2.28720E+01
 -1      2620 2.32600E+01
 -1      2621 2.44116E+01
 -1      2622 2.59231E+01
 -1      2623 2.42822E+01
 -1      2624 2.33476E+01
 -1      2625 2.30321E+01
 -1      2626 2.29290E+01
 -1      2627 2.29307E+01
 -1      2628 2.32907E+01
 -1      2629 2.29245E+01
 -1      2630 2.32296E+01
 -1      2631 2.35161E+01
 -1      2632 2.35948E+01
 -1      2633 2.42380E+01
 -1      2634 2.76530E+01
 -1      2635 2.78256E+01
 -1      2636 2.72317E+01
 -1      2637 2.77211E+01
 -1      2638 2.89615E+01
 -1      2639 2.92501E+01
 -1      2640 2.81823E+01
 -1      2641 2.79641E+01
 -1      2642 2.65396E+01
 -1      2643 2.49356E+01
 -1      2644 2.36483E+01
 -1      2645 2.47998E+01
 -1      2646 2.59260E+01
 -1      2647 2.65599E+01
 -1      2648 2.83579E+01
 -1      2649 2.95702E+01
 -1      2650 2.99269E+01
 -1      2651 2.95857E+01
 -1      2652 2.95176E+01
 -1      2653 3.01944E+01
 -1      2654 2.90238E+01
 -1      2655 2.73811E+01
 -1      2656 2.98306E+01
 -1      2657 2.92477E+01
 -1      2658 2.71147E+01
 -1      2659 2.60550E+01
 -1      2660 2.46543E+01
 -1      2661 2.49206E+01
 -1      2662 2.80631E+01
 -1      2663 2.67370E+01
 -1      2664 2.93399E+01
 -1      2665 2.89621E+01
 -1      2666 3.01467E+01
 -1      2667 2.61580E+01
 -1      2668 2.52096E+01
 -1      2669 2.38296E+01
 -1      2670 2.44087E+01
 -1      2671 2.32743E+01
 -1      2672 2.72069E+01
 -1      2673 2.56794E+01
 -1      2674 2.83571E+01
 -1      2675 2.78785E+01
 -1      2676 2.32151E+01
 -1      2677 2.27922E+01
 -1      2678 2.30768E+01
 -1      2679 2.28403E+01
 -1      2680 2.32632E+01
 -1      2681 2.47815E+01
 -1      2682 2.45719E+01
 -1      2683 2.31379E+01
 -1      2684 2.28533E+01
 -1      2685 2.35451E+01
 -1      2686 2.35581E+01
 -1      2687 2.36754E+01
 -1      2688 2.35372E+01
 -1      2689 2.39233E+01
 -1      2690 2.92342E+01
 -1      2691 2.87406E+01
 -1      2692 2.81798E+01
 -1      2693 2.94123E+01
 -1      2694 2.42152E+01
 -1      2695 2.69582E+01
 -1      2696 2.64820E+01
 -1      2697 2.64417E+01
 -1      2698 2.46189E+01
 -1      2699 2.57799E+01
 -1      2700 2.51354E+01
 -1      2701 2.52808E+01
 -1      2702 2.46528E+01
 -1      2703 2.36979E+01
 -1      2704 2.43258E+01
 -1      2705 2.37328E+01
 -1      2706 2.36347E+01
 -1      2707 2.33077E+01
 -1      2708 2.32889E+01
 -1      2709 2.38065E+01
 -1      2710 2.45025E+01
 -1      2711 2.48683E+01
 -1      2712 2.93854E+01
 -1      2713 2.91523E+01
 -1      2714 2.16710E+01
 -1      2715 8.07227E+00
 -1      2716 7.35719E+00
 -1      2717 8.53872E+00
 -1      2718 7.89405E+00
 -1      2719 1.03104E+01
 -1      2720 1.08297E+01
 -1      2721 2.69701E+01
 -1      2722 9.30922E+00
 -1      2723 8.10864E+00
 -1      2724 2.76549E+01
 -1      2725 2.93950E+01
 -1      2726 8.33878E+00
 -1      2727 7.49932E+00
 -1      2728 8.22176E+00
 -1      2729 1.14468E+01
 -1      2730 1.02967E+01
 -1      2731 2.14222E+01
 -1      2732 8.82126E+00
 -1      2733 8.57259E+00
 -1      2734 1.17564E+01
 -1      2735 8.87434E+00
 -1      2736 8.77814E+00
 -1      2737 1.17564E+01
 -1      2738 8.62058E+00
 -1      2739 1.86848E+01
 -1      2740 8.82126E+00
 -1      2741 1.04174E+01
 -1      2742 9.77643E+00
 -1      2743 1.85656E+01
 -1      2744 1.04174E+01
 -1      2745 1.04174E+01
 -1      2746 8.95835E+00
 -1      2747 1.50658E+01
 -1      2748 2.07977E+01
 -1      2749 2.01779E+01
 -1      2750 2.07127E+01
 -1      2751 1.46976E+01
 -1      2752 1.99939E+01
 -1      2753 1.00154E+01
 -1      2754 9.77643E+00
 -1      2755 8.56681E+00
 -1      2756 1.03639E+01
 -1      2757 1.08786E+01
 -1      2758 1.03639E+01
 -1      2759 1.14468E+01
 -1      2760 1.14468E+01
 -1      2761 1.08786E+01
 -1      2762 1.50658E+01
 -1      2763 1.08297E+01
 -1      2764 1.08297E+01
 -1      2765 1.46976E+01
 -1      2766 1.05632E+01
 -1      2767 1.02756E+01
 -1      2768 1.05632E+01
 -1      2769 1.00366E+01
 -1      2770 2.31453E+01
 -1      2771 2.14222E+01
 -1      2772 1.99939E+01
 -1      2773 2.63243E+01
 -1      2774 2.48683E+01
 -1      2775 2.31453E+01
 -1      2776 2.85202E+01
 -1      2777 2.77176E+01
 -1      2778 2.62616E+01
 -1      2779 2.93902E+01
 -1      2780 2.93854E+01
 -1      2781 2.85202E+01
 -1      2782 2.92605E+01
 -1      2783 2.93950E+01
 -1      2784 2.93902E+01
 -1      2785 2.91523E+01
 -1      2786 2.91391E+01
 -1      2787 2.92736E+01
 -1      2788 2.69701E+01
 -1      2789 2.80612E+01
 -1      2790 2.80612E+01
 -1      2791 2.16710E+01
 -1      2792 2.43206E+01
 -1      2793 2.43206E+01
 -1      2794 2.01779E+01
 -1      2795 7.35719E+00
 -1      2796 7.69070E+00
 -1      2797 8.56681E+00
 -1      2798 8.06642E+00
 -1      2799 8.32368E+00
 -1      2800 7.73291E+00
 -1      2801 8.53872E+00
 -1      2802 8.53872E+00
 -1      2803 8.32368E+00
 -1      2804 8.43875E+00
 -1      2805 8.25145E+00
 -1      2806 8.43875E+00
 -1      2807 8.02908E+00
 -1      2808 7.89405E+00
 -1      2809 8.11641E+00
 -1      2810 8.60163E+00
 -1      2811 8.69074E+00
 -1      2812 8.60163E+00
 -1      2813 8.07227E+00
 -1      2814 8.04822E+00
 -1      2815 8.69074E+00
 -1      2816 7.76175E+00
 -1      2817 7.49932E+00
 -1      2818 7.78579E+00
 -1      2819 8.95835E+00
 -1      2820 1.82646E+01
 -1      2821 1.68713E+01
 -1      2822 1.68448E+01
 -1      2823 1.51217E+01
 -1      2824 8.84780E+00
 -1      2825 1.90818E+01
 -1      2826 1.82165E+01
 -1      2827 2.05757E+01
 -1      2828 2.05709E+01
 -1      2829 1.02673E+01
 -1      2830 1.77714E+01
 -1      2831 1.88624E+01
 -1      2832 2.04543E+01
 -1      2833 2.05757E+01
 -1      2834 1.01645E+01
 -1      2835 1.49464E+01
 -1      2836 1.75959E+01
 -1      2837 1.51458E+01
 -1      2838 8.42117E+00
 -1      2839 1.00337E+01
 -1      2840 1.65589E+01
 -1      2841 8.94091E+00
 -1      2842 8.32243E+00
 -1      2843 8.14701E+00
 -1      2844 7.86054E+00
 -1      2845 8.39718E+00
 -1      2846 8.08922E+00
 -1      2847 8.46495E+00
 -1      2848 9.55900E+00
 -1      2849 8.08922E+00
 -1      2850 8.82697E+00
 -1      2851 8.82126E+00
 -1      2852 8.49149E+00
 -1      2853 8.70653E+00
 -1      2854 8.65843E+00
 -1      2855 8.55846E+00
 -1      2856 8.82624E+00
 -1      2857 9.82524E+00
 -1      2858 1.05328E+01
 -1      2859 1.00476E+01
 -1      2860 9.82524E+00
 -1      2861 1.17564E+01
 -1      2862 8.05995E+00
 -1      2863 9.46548E+00
 -1      2864 8.90485E+00
 -1      2865 9.82547E+00
 -1      2866 1.51217E+01
 -1      2867 1.61260E+01
 -1      2868 2.83501E+01
 -1      2869 5.89558E+00
 -1      2870 5.82799E+00
 -1      2871 5.37810E+00
 -1      2872 4.63311E+00
 -1      2873 2.20895E+01
 -1      2874 1.31250E+01
 -1      2875 6.22715E+00
 -1      2876 6.18701E+00
 -1      2877 7.39544E+00
 -1      2878 9.21946E+00
 -1      2879 7.89405E+00
 -1      2880 5.10445E+00
 -1      2881 4.63924E+00
 -1      2882 8.54789E+00
 -1      2883 8.53872E+00
 -1      2884 2.76507E+01
 -1      2885 1.28890E+01
 -1      2886 5.10368E+00
 -1      2887 2.22811E+01
 -1      2888 5.25530E+00
 -1      2889 8.14923E+00
 -1      2890 8.07227E+00
 -1      2891 4.95045E+00
 -1      2892 7.78835E+00
 -1      2893 7.35719E+00
 -1      2894 7.13732E+00
 -1      2895 8.47020E+00
 -1      2896 6.07415E+00
 -1      2897 7.89730E+00
 -1      2898 7.92714E+00
 -1      2899 7.91547E+00
 -1      2900 5.96994E+00
 -1      2901 5.24032E+00
 -1      2902 5.66226E+00
 -1      2903 5.24502E+00
 -1      2904 7.93268E+00
 -1      2905 4.61245E+00
 -1      2906 5.15077E+00
 -1      2907 5.16388E+00
 -1      2908 6.20074E+00
 -1      2909 7.94543E+00
 -1      2910 7.77839E+00
 -1      2911 5.99950E+00
 -1      2912 7.33862E+00
 -1      2913 7.48022E+00
 -1      2914 5.05405E+00
 -1      2915 4.07274E+00
 -1      2916 1.31397E+01
 -1      2917 1.27927E+01
 -1      2918 2.25862E+01
 -1      2919 2.16655E+01
 -1      2920 2.25862E+01
 -1      2921 2.25862E+01
 -1      2922 2.20304E+01
 -1      2923 2.20304E+01
 -1      2924 2.19908E+01
 -1      2925 2.21334E+01
 -1      2926 2.20378E+01
 -1      2927 2.19908E+01
 -1      2928 2.15004E+01
 -1      2929 2.09032E+01
 -1      2930 1.48714E+01
 -1      2931 1.43761E+01
 -1      2932 4.97624E+00
 -1      2933 4.92752E+00
 -1      2934 5.26223E+00
 -1      2935 4.75606E+00
 -1      2936 4.98867E+00
 -1      2937 5.00982E+00
 -1      2938 7.91957E+00
 -1      2939 4.98888E+00
 -1      2940 5.05638E+00
 -1      2941 7.87726E+00
 -1      2942 7.89533E+00
 -1      2943 5.52126E+00
 -1      2944 7.96773E+00
 -1      2945 5.58459E+00
 -1      2946 5.63475E+00
 -1      2947 5.31805E+00
 -1      2948 6.17211E+00
 -1      2949 7.79724E+00
 -1      2950 7.92154E+00
 -1      2951 8.08586E+00
 -1      2952 5.13029E+00
 -1      2953 8.03596E+00
 -1      2954 8.24217E+00
 -1      2955 4.83425E+00
 -1      2956 4.65284E+00
 -1      2957 7.80780E+00
 -1      2958 4.37096E+00
 -1      2959 6.17025E+00
 -1      2960 6.13875E+00
 -1      2961 6.39536E+00
 -1      2962 7.89692E+00
 -1      2963 7.21685E+00
 -1      2964 5.02289E+00
 -1      2965 7.84783E+00
 -1      2966 4.71205E+00
 -1      2967 5.08523E+00
 -1      2968 7.84109E+00
 -1      2969 4.49115E+00
 -1      2970 7.56483E+00
 -1      2971 4.43375E+00
 -1      2972 5.93776E+00
 -1      2973 8.12837E+00
 -1      2974 5.16196E+00
 -1      2975 7.88125E+00
 -1      2976 4.84079E+00
 -1      2977 7.80414E+00
 -1      2978 6.21260E+00
 -1      2979 7.88065E+00
 -1      2980 5.88691E+00
 -1      2981 5.88695E+00
 -1      2982 7.94810E+00
 -1      2983 7.99536E+00
 -1      2984 4.80239E+00
 -1      2985 8.16605E+00
 -1      2986 8.51530E+00
 -1      2987 5.20385E+00
 -1      2988 6.59469E+00
 -1      2989 1.36429E+01
 -1      2990 2.13086E+01
 -1      2991 2.10230E+01
 -1      2992 2.23065E+01
 -1      2993 2.21128E+01
 -1      2994 2.26212E+01
 -1      2995 1.30699E+01
 -1      2996 2.46255E+01
 -1      2997 2.21751E+01
 -1      2998 2.24708E+01
 -1      2999 2.40010E+01
 -1      3000 2.24058E+01
 -1      3001 2.17393E+01
 -1      3002 2.20189E+01
 -1      3003 2.11602E+01
 -1      3004 2.20508E+01
 -1      3005 1.38440E+01
 -1      3006 1.43388E+01
 -1      3007 1.52739E+01
 -1      3008 5.85809E+00
 -1      3009 8.02421E+00
 -1      3010 7.52456E+00
 -1      3011 7.23404E+00
 -1      3012 5.12725E+00
 -1      3013 4.89653E+00
 -1      3014 7.78513E+00
 -1      3015 4.59860E+00
 -1      3016 7.68628E+00
 -1      3017 8.00742E+00
 -1      3018 5.06090E+00
 -1      3019 4.04800E+00
 -1      3020 5.02440E+00
 -1      3021 8.35388E+00
 -1      3022 5.70965E+00
 -1      3023 7.44764E+00
 -1      3024 7.30287E+00
 -1      3025 7.64856E+00
 -1      3026 7.18516E+00
 -1      3027 7.74900E+00
 -1      3028 9.30922E+00
 -1      3029 4.48761E+00
 -1      3030 7.39690E+00
 -1      3031 5.09740E+00
 -1      3032 7.88243E+00
 -1      3033 8.07063E+00
 -1      3034 7.50290E+00
 -1      3035 8.06962E+00
 -1      3036 6.01883E+00
 -1      3037 8.43350E+00
 -1      3038 7.61265E+00
 -1      3039 7.59316E+00
 -1      3040 5.16694E+00
 -1      3041 8.14360E+00
 -1      3042 4.79388E+00
 -1      3043 6.26142E+00
 -1      3044 6.24719E+00
 -1      3045 5.33351E+00
 -1      3046 1.36264E+01
 -1      3047 2.21549E+01
 -1      3048 2.08101E+01
 -1      3049 2.23199E+01
 -1      3050 4.85261E+00
 -1      3051 2.22281E+01
 -1      3052 2.23899E+01
 -1      3053 2.43851E+01
 -1      3054 1.41142E+01
 -1      3055 7.88175E+00
 -1      3056 7.94874E+00
 -1      3057 4.50443E+00
 -1      3058 7.37761E+00
 -1      3059 4.78204E+00
 -1      3060 4.33009E+00
 -1      3061 7.96485E+00
 -1      3062 4.91347E+00
 -1      3063 4.73518E+00
 -1      3064 5.98791E+00
 -1      3065 1.53045E+01
 -1      3066 1.53492E+01
 -1      3067 2.11731E+01
 -1      3068 2.28793E+01
 -1      3069 2.24349E+01
 -1      3070 4.18788E+00
 -1      3071 2.11311E+01
 -1      3072 7.61073E+00
 -1      3073 6.24719E+00
 -1      3074 1.54467E+01
 -1      3075 1.21168E+01
 -1      3076 5.12106E+00
 -1      3077 8.50859E+00
 -1      3078 2.51944E+01
 -1      3079 5.52514E+00
 -1      3080 5.95224E+00
 -1      3081 7.94036E+00
 -1      3082 8.01953E+00
 -1      3083 4.72481E+00
 -1      3084 4.64616E+00
 -1      3085 7.63400E+00
 -1      3086 4.73482E+00
 -1      3087 5.10897E+00
 -1      3088 7.33671E+00
 -1      3089 7.90409E+00
 -1      3090 4.42378E+00
 -1      3091 2.22328E+01
 -1      3092 5.77878E+00
 -1      3093 8.03396E+00
 -1      3094 2.20012E+01
 -1      3095 7.98147E+00
 -1      3096 2.20562E+01
 -1      3097 7.33671E+00
 -1      3098 2.08760E+01
 -1      3099 4.72997E+00
 -1      3100 2.21334E+01
 -1      3101 4.96317E+00
 -1      3102 4.45545E+00
 -1      3103 8.12625E+00
 -1      3104 6.08392E+00
 -1      3105 2.22477E+01
 -1      3106 5.78125E+00
 -1      3107 8.16412E+00
 -1      3108 7.39025E+00
 -1      3109 5.46214E+00
 -1      3110 7.49932E+00
 -1      3111 4.91361E+00
 -1      3112 5.95364E+00
 -1      3113 2.23899E+01
 -1      3114 2.32536E+01
 -1      3115 7.76207E+00
 -1      3116 6.13304E+00
 -1      3117 7.47654E+00
 -1      3118 8.01755E+00
 -1      3119 7.64088E+00
 -1      3120 2.41455E+01
 -1      3121 7.96006E+00
 -1      3122 5.91285E+00
 -1      3123 2.37462E+01
 -1      3124 2.73052E+01
 -1      3125 1.53492E+01
 -1      3126 5.54424E+00
 -1      3127 4.50443E+00
 -1      3128 2.27095E+01
 -1      3129 5.31204E+00
 -1      3130 8.50859E+00
 -1      3131 4.11278E+00
 -1      3132 4.59757E+00
 -1      3133 6.34939E+00
 -1      3134 4.69174E+00
 -1      3135 4.85461E+00
 -1      3136 1.43388E+01
 -1      3137 5.07267E+00
 -1      3138 4.66593E+00
 -1      3139 2.16700E+01
 -1      3140 2.14550E+01
 -1      3141 7.64153E+00
 -1      3142 5.24467E+00
 -1      3143 9.33825E+00
 -1      3144 9.35915E+00
 -1      3145 9.36481E+00
 -1      3146 9.40023E+00
 -1      3147 8.08932E+00
 -1      3148 5.82965E+00
 -1      3149 8.04242E+00
 -1      3150 7.98731E+00
 -1      3151 5.99783E+00
 -1      3152 5.56308E+00
 -1      3153 4.93405E+00
 -1      3154 5.87348E+00
 -1      3155 2.41370E+01
 -1      3156 9.87076E+00
 -1      3157 9.35915E+00
 -1      3158 8.57375E+00
 -1      3159 9.40023E+00
 -1      3160 9.90880E+00
 -1      3161 8.44977E+00
 -1      3162 9.57062E+00
 -1      3163 9.36481E+00
 -1      3164 8.36100E+00
 -1      3165 9.33825E+00
 -1      3166 9.51327E+00
 -1      3167 8.26171E+00
 -1      3168 7.19178E+00
 -1      3169 4.92686E+00
 -1      3170 7.19178E+00
 -1      3171 4.95099E+00
 -1      3172 4.87734E+00
 -1      3173 5.04853E+00
 -1      3174 4.89285E+00
 -1      3175 4.80773E+00
 -1      3176 5.08817E+00
 -1      3177 4.55468E+00
 -1      3178 4.36235E+00
 -1      3179 4.85062E+00
 -1      3180 4.38012E+00
 -1      3181 4.33350E+00
 -1      3182 4.61534E+00
 -1      3183 6.02672E+00
 -1      3184 5.97415E+00
 -1      3185 6.32632E+00
 -1      3186 4.94051E+00
 -1      3187 4.94051E+00
 -1      3188 6.98589E+00
 -1      3189 4.91218E+00
 -1      3190 5.76209E+00
 -1      3191 5.92391E+00
 -1      3192 5.98900E+00
 -1      3193 7.00378E+00
 -1      3194 6.12248E+00
 -1      3195 1.02736E+01
 -1      3196 1.54437E+01
 -1      3197 9.61922E+00
 -1      3198 1.97267E+01
 -1      3199 2.28290E+01
 -1      3200 1.71720E+01
 -1      3201 2.44143E+01
 -1      3202 2.64878E+01
 -1      3203 2.30402E+01
 -1      3204 2.83501E+01
 -1      3205 2.83501E+01
 -1      3206 2.64878E+01
 -1      3207 2.67722E+01
 -1      3208 2.48138E+01
 -1      3209 2.67722E+01
 -1      3210 2.33571E+01
 -1      3211 2.04065E+01
 -1      3212 2.37377E+01
 -1      3213 1.64354E+01
 -1      3214 1.11381E+01
 -1      3215 1.83099E+01
 -1      3216 7.08224E+00
 -1      3217 5.30389E+00
 -1      3218 1.02830E+01
 -1      3219 6.44461E+00
 -1      3220 7.01686E+00
 -1      3221 7.36787E+00
 -1      3222 5.52514E+00
 -1      3223 4.73271E+00
 -1      3224 7.01686E+00
 -1      3225 5.66786E+00
 -1      3226 5.67808E+00
 -1      3227 6.46029E+00
 -1      3228 4.40767E+00
 -1      3229 4.47790E+00
 -1      3230 6.12503E+00
 -1      3231 4.26248E+00
 -1      3232 4.41411E+00
 -1      3233 4.63920E+00
 -1      3234 4.52184E+00
 -1      3235 4.66549E+00
 -1      3236 4.53151E+00
 -1      3237 4.69174E+00
 -1      3238 4.76822E+00
 -1      3239 4.66549E+00
 -1      3240 5.99101E+00
 -1      3241 8.26877E+00
 -1      3242 5.91453E+00
 -1      3243 8.26877E+00
 -1      3244 8.29942E+00
 -1      3245 6.03884E+00
 -1      3246 8.29942E+00
 -1      3247 4.75478E+00
 -1      3248 4.66593E+00
 -1      3249 5.94999E+00
 -1      3250 4.96062E+00
 -1      3251 5.31090E+00
 -1      3252 4.96062E+00
 -1      3253 6.65343E+00
 -1      3254 6.05460E+00
 -1      3255 6.59783E+00
 -1      3256 4.77348E+00
 -1      3257 4.68983E+00
 -1      3258 6.65923E+00
 -1      3259 4.73185E+00
 -1      3260 4.91722E+00
 -1      3261 5.42012E+00
 -1      3262 5.16297E+00
 -1      3263 5.01999E+00
 -1      3264 5.70789E+00
 -1      3265 4.95716E+00
 -1      3266 5.31089E+00
 -1      3267 5.89082E+00
 -1      3268 4.49083E+00
 -1      3269 6.08661E+00
 -1      3270 5.00794E+00
 -1      3271 1.16673E+01
 -1      3272 1.69403E+01
 -1      3273 9.76853E+00
 -1      3274 2.03105E+01
 -1      3275 2.31196E+01
 -1      3276 1.87194E+01
 -1      3277 2.57274E+01
 -1      3278 2.74779E+01
 -1      3279 2.46974E+01
 -1      3280 2.76507E+01
 -1      3281 2.76507E+01
 -1      3282 2.74779E+01
 -1      3283 2.60179E+01
 -1      3284 2.42567E+01
 -1      3285 2.60179E+01
 -1      3286 2.28991E+01
 -1      3287 1.98489E+01
 -1      3288 2.30276E+01
 -1      3289 1.55765E+01
 -1      3290 1.07020E+01
 -1      3291 1.73975E+01
 -1      3292 6.39165E+00
 -1      3293 4.67852E+00
 -1      3294 8.81474E+00
 -1      3295 4.85261E+00
 -1      3296 4.82842E+00
 -1      3297 4.67852E+00
 -1      3298 5.49562E+00
 -1      3299 5.01854E+00
 -1      3300 5.51981E+00
 -1      3301 4.99156E+00
 -1      3302 5.03048E+00
 -1      3303 6.16002E+00
 -1      3304 5.00592E+00
 -1      3305 5.24135E+00
 -1      3306 6.10848E+00
 -1      3307 4.75162E+00
 -1      3308 5.08210E+00
 -1      3309 5.59418E+00
 -1      3310 6.19823E+00
 -1      3311 6.14358E+00
 -1      3312 6.22058E+00
 -1      3313 4.95045E+00
 -1      3314 4.95045E+00
 -1      3315 6.14358E+00
 -1      3316 4.93203E+00
 -1      3317 7.12593E+00
 -1      3318 4.93203E+00
 -1      3319 7.12593E+00
 -1      3320 8.12928E+00
 -1      3321 7.78835E+00
 -1      3322 8.57375E+00
 -1      3323 8.50904E+00
 -1      3324 8.47020E+00
 -1      3325 8.12928E+00
 -1      3326 8.54789E+00
 -1      3327 8.54789E+00
 -1      3328 8.50904E+00
 -1      3329 8.82648E+00
 -1      3330 8.49069E+00
 -1      3331 8.49069E+00
 -1      3332 9.21946E+00
 -1      3333 9.21946E+00
 -1      3334 8.82648E+00
 -1      3335 8.35388E+00
 -1      3336 8.78667E+00
 -1      3337 8.78667E+00
 -1      3338 8.14923E+00
 -1      3339 8.25155E+00
 -1      3340 8.25155E+00
 -1      3341 7.18516E+00
 -1      3342 7.66720E+00
 -1      3343 7.66720E+00
 -1      3344 8.26171E+00
 -1      3345 7.69070E+00
 -1      3346 7.35719E+00
 -1      3347 8.36100E+00
 -1      3348 8.28147E+00
 -1      3349 8.02421E+00
 -1      3350 7.69070E+00
 -1      3351 8.53872E+00
 -1      3352 8.53872E+00
 -1      3353 8.28147E+00
 -1      3354 8.16412E+00
 -1      3355 8.35142E+00
 -1      3356 8.35142E+00
 -1      3357 7.89405E+00
 -1      3358 8.02908E+00
 -1      3359 8.02908E+00
 -1      3360 8.69074E+00
 -1      3361 8.60163E+00
 -1      3362 8.60163E+00
 -1      3363 8.04822E+00
 -1      3364 8.07227E+00
 -1      3365 8.69074E+00
 -1      3366 7.49932E+00
 -1      3367 7.76175E+00
 -1      3368 7.78579E+00
 -1      3369 8.44977E+00
 -1      3370 2.43855E+01
 -1      3371 2.62478E+01
 -1      3372 2.45977E+01
 -1      3373 2.61756E+01
 -1      3374 2.40733E+01
 -1      3375 7.55499E+00
 -1      3376 6.24513E+00
 -1      3377 7.20544E+00
 -1      3378 5.90421E+00
 -1      3379 7.21407E+00
 -1      3380 6.47204E+00
 -1      3381 5.93255E+00
 -1      3382 6.73444E+00
 -1      3383 5.91438E+00
 -1      3384 5.91356E+00
 -1      3385 5.85074E+00
 -1      3386 6.75718E+00
 -1      3387 7.95021E+00
 -1      3388 6.66908E+00
 -1      3389 5.47059E+00
 -1      3390 5.51261E+00
 -1      3391 6.76157E+00
 -1      3392 8.03852E+00
 -1      3393 6.35137E+00
 -1      3394 6.32026E+00
 -1      3395 6.30250E+00
 -1      3396 8.04358E+00
 -1      3397 6.32533E+00
 -1      3398 8.01854E+00
 -1      3399 1.82611E+01
 -1      3400 2.16313E+01
 -1      3401 1.87194E+01
 -1      3402 1.53492E+01
 -1      3403 2.20262E+01
 -1      3404 2.24844E+01
 -1      3405 2.50922E+01
 -1      3406 1.33757E+01
 -1      3407 9.47995E+00
 -1      3408 9.22928E+00
 -1      3409 4.91897E+00
 -1      3410 1.76400E+01
 -1      3411 1.78906E+01
 -1      3412 2.19125E+01
 -1      3413 9.65098E+00
 -1      3414 5.59516E+00
 -1      3415 1.02830E+01
 -1      3416 1.43388E+01
 -1      3417 7.36787E+00
 -1      3418 8.50859E+00
 -1      3419 6.73588E+00
 -1      3420 6.30734E+00
 -1      3421 6.97454E+00
 -1      3422 6.87995E+00
 -1      3423 6.09242E+00
 -1      3424 6.06544E+00
 -1      3425 6.37524E+00
 -1      3426 6.09891E+00
 -1      3427 7.67177E+00
 -1      3428 7.43599E+00
 -1      3429 7.71232E+00
 -1      3430 4.82850E+00
 -1      3431 6.50084E+00
 -1      3432 8.48423E+00
 -1      3433 6.80355E+00
 -1      3434 7.53878E+00
 -1      3435 7.14579E+00
 -1      3436 8.05144E+00
 -1      3437 7.02553E+00
 -1      3438 6.89050E+00
 -1      3439 7.96823E+00
 -1      3440 6.96468E+00
 -1      3441 7.66402E+00
 -1      3442 6.95644E+00
 -1      3443 7.03062E+00
 -1      3444 5.20825E+00
 -1      3445 6.32437E+00
 -1      3446 5.50898E+00
 -1      3447 5.01925E+00
 -1      3448 5.12305E+00
 -1      3449 6.38275E+00
 -1      3450 7.81457E+00
 -1      3451 6.07107E+00
 -1      3452 6.09732E+00
 -1      3453 6.20554E+00
 -1      3454 6.31328E+00
 -1      3455 8.05678E+00
 -1      3456 7.31102E+00
 -1      3457 7.27218E+00
 -1      3458 8.22260E+00
 -1      3459 6.98573E+00
 -1      3460 8.16540E+00
 -1      3461 8.09013E+00
 -1      3462 7.83287E+00
 -1      3463 7.77718E+00
 -1      3464 7.96449E+00
 -1      3465 7.51589E+00
 -1      3466 2.56984E+01
 -1      3467 2.40656E+01
 -1      3468 2.58939E+01
 -1      3469 2.39416E+01
 -1      3470 2.57211E+01
 -1      3471 1.01188E+01
 -1      3472 1.32660E+01
 -1      3473 9.74187E+00
 -1      3474 1.74757E+01
 -1      3475 1.70988E+01
 -1      3476 2.13818E+01
 -1      3477 7.84685E+00
 -1      3478 6.55555E+00
 -1      3479 6.39498E+00
 -1      3480 5.08229E+00
 -1      3481 6.37359E+00
 -1      3482 5.06678E+00
 -1      3483 1.81948E+01
 -1      3484 1.83099E+01
 -1      3485 2.21659E+01
 -1      3486 2.24953E+01
 -1      3487 2.23802E+01
 -1      3488 2.39520E+01
 -1      3489 5.33574E+00
 -1      3490 5.39977E+00
 -1      3491 5.19128E+00
 -1      3492 4.89659E+00
 -1      3493 6.74230E+00
 -1      3494 6.92944E+00
 -1      3495 7.03176E+00
 -1      3496 7.79843E+00
 -1      3497 6.57864E+00
 -1      3498 7.31640E+00
 -1      3499 6.27994E+00
 -1      3500 6.89842E+00
 -1      3501 7.73458E+00
 -1      3502 5.94225E+00
 -1      3503 7.44811E+00
 -1      3504 6.18063E+00
 -1      3505 6.19904E+00
 -1      3506 4.53161E+00
 -1      3507 5.78021E+00
 -1      3508 5.72474E+00
 -1      3509 6.25910E+00
 -1      3510 5.91817E+00
 -1      3511 4.53620E+00
 -1      3512 6.40638E+00
 -1      3513 7.77439E+00
 -1      3514 7.44087E+00
 -1      3515 7.37930E+00
 -1      3516 7.29561E+00
 -1      3517 7.32011E+00
 -1      3518 7.44990E+00
 -1      3519 7.26711E+00
 -1      3520 7.31832E+00
 -1      3521 5.06107E+00
 -1      3522 7.91222E+00
 -1      3523 7.00064E+00
 -1      3524 7.74598E+00
 -1      3525 6.81949E+00
 -1      3526 5.80641E+00
 -1      3527 7.90639E+00
 -1      3528 7.92130E+00
 -1      3529 6.87770E+00
 -1      3530 6.88678E+00
 -1      3531 6.94270E+00
 -1      3532 6.94854E+00
 -1      3533 6.87753E+00
 -1      3534 7.85613E+00
 -1      3535 7.67498E+00
 -1      3536 6.57790E+00
 -1      3537 5.60513E+00
 -1      3538 7.77474E+00
 -1      3539 6.43716E+00
 -1      3540 6.74605E+00
 -1      3541 5.45129E+00
 -1      3542 5.81610E+00
 -1      3543 6.87406E+00
 -1      3544 7.02790E+00
 -1      3545 7.93549E+00
 -1      3546 5.24267E+00
 -1      3547 5.45364E+00
 -1      3548 5.27919E+00
 -1      3549 5.28153E+00
 -1      3550 6.47602E+00
 -1      3551 6.58885E+00
 -1      3552 6.79747E+00
 -1      3553 6.54981E+00
 -1      3554 5.41460E+00
 -1      3555 6.62640E+00
 -1      3556 4.92873E+00
 -1      3557 6.27256E+00
 -1      3558 6.57455E+00
 -1      3559 6.25827E+00
 -1      3560 6.61107E+00
 -1      3561 4.88161E+00
 -1      3562 6.54172E+00
 -1      3563 5.15733E+00
 -1      3564 6.54828E+00
 -1      3565 5.16541E+00
 -1      3566 6.26699E+00
 -1      3567 6.53615E+00
 -1      3568 5.39135E+00
 -1      3569 7.04589E+00
 -1      3570 7.03717E+00
 -1      3571 5.67575E+00
 -1      3572 5.68231E+00
 -1      3573 6.55781E+00
 -1      3574 7.08280E+00
 -1      3575 7.94320E+00
 -1      3576 7.07308E+00
 -1      3577 6.55465E+00
 -1      3578 6.29579E+00
 -1      3579 4.90502E+00
 -1      3580 4.90655E+00
 -1      3581 6.98956E+00
 -1      3582 7.86191E+00
 -1      3583 6.10012E+00
 -1      3584 6.88895E+00
 -1      3585 6.98218E+00
 -1      3586 8.01028E+00
 -1      3587 8.09380E+00
 -1      3588 6.53821E+00
 -1      3589 6.38984E+00
 -1      3590 4.74021E+00
 -1      3591 6.66906E+00
 -1      3592 7.55850E+00
 -1      3593 5.83435E+00
 -1      3594 6.05424E+00
 -1      3595 6.28613E+00
 -1      3596 6.73986E+00
 -1      3597 7.40942E+00
 -1      3598 6.80608E+00
 -1      3599 7.54643E+00
 -1      3600 7.78875E+00
 -1      3601 6.26713E+00
 -1      3602 6.19633E+00
 -1      3603 4.56339E+00
 -1      3604 5.70568E+00
 -1      3605 4.20142E+00
 -1      3606 6.86371E+00
 -1      3607 5.65062E+00
 -1      3608 7.60291E+00
 -1      3609 7.53669E+00
 -1      3610 6.92018E+00
 -1      3611 9.09685E+00
 -1      3612 8.60620E+00
 -1      3613 8.92337E+00
 -1      3614 1.29662E+01
 -1      3615 9.51995E+00
 -1      3616 1.26282E+01
 -1      3617 8.09475E+00
 -1      3618 4.39878E+00
 -1      3619 4.52745E+00
 -1      3620 8.42079E+00
 -1      3621 1.76895E+01
 -1      3622 1.78629E+01
 -1      3623 2.21259E+01
 -1      3624 1.74026E+01
 -1      3625 1.68911E+01
 -1      3626 1.75202E+01
 -1      3627 2.24170E+01
 -1      3628 1.01807E+01
 -1      3629 1.34535E+01
 -1      3630 1.81810E+01
 -1      3631 2.25862E+01
 -1      3632 2.21259E+01
 -1      3633 2.25862E+01
 -1      3634 2.25862E+01
 -1      3635 2.24170E+01
 -1      3636 2.22937E+01
 -1      3637 2.18334E+01
 -1      3638 1.69280E+01
 -1      3639 2.17024E+01
 -1      3640 2.18703E+01
 -1      3641 2.23083E+01
 -1      3642 2.23083E+01
 -1      3643 2.20304E+01
 -1      3644 2.23083E+01
 -1      3645 2.20158E+01
 -1      3646 2.24095E+01
 -1      3647 2.21316E+01
 -1      3648 2.22304E+01
 -1      3649 2.24072E+01
 -1      3650 2.22379E+01
 -1      3651 2.20106E+01
 -1      3652 2.20106E+01
 -1      3653 2.20819E+01
 -1      3654 2.20621E+01
 -1      3655 2.21831E+01
 -1      3656 2.20235E+01
 -1      3657 2.20433E+01
 -1      3658 2.20881E+01
 -1      3659 2.21027E+01
 -1      3660 2.21157E+01
 -1      3661 2.20856E+01
 -1      3662 2.20143E+01
 -1      3663 2.20143E+01
 -1      3664 2.19908E+01
 -1      3665 2.20235E+01
 -1      3666 2.21334E+01
 -1      3667 2.20856E+01
 -1      3668 2.23113E+01
 -1      3669 2.22616E+01
 -1      3670 2.22616E+01
 -1      3671 2.17691E+01
 -1      3672 2.17456E+01
 -1      3673 2.14705E+01
 -1      3674 2.12018E+01
 -1      3675 2.15183E+01
 -1      3676 2.11882E+01
 -1      3677 2.14334E+01
 -1      3678 2.20376E+01
 -1      3679 2.20048E+01
 -1      3680 2.14474E+01
 -1      3681 1.78873E+01
 -1      3682 1.81859E+01
 -1      3683 1.46238E+01
 -1      3684 1.79382E+01
 -1      3685 1.76260E+01
 -1      3686 1.81749E+01
 -1      3687 1.51591E+01
 -1      3688 1.82889E+01
 -1      3689 2.10171E+01
 -1      3690 2.16323E+01
 -1      3691 9.92384E+00
 -1      3692 9.67616E+00
 -1      3693 9.89948E+00
 -1      3694 4.95188E+00
 -1      3695 1.01871E+01
 -1      3696 4.85311E+00
 -1      3697 9.55302E+00
 -1      3698 1.80749E+01
 -1      3699 1.48250E+01
 -1      3700 1.00019E+01
 -1      3701 5.09487E+00
 -1      3702 5.11924E+00
 -1      3703 5.00915E+00
 -1      3704 4.86615E+00
 -1      3705 4.74301E+00
 -1      3706 4.92049E+00
 -1      3707 5.08785E+00
 -1      3708 4.83135E+00
 -1      3709 4.82432E+00
 -1      3710 1.00909E+01
 -1      3711 5.12545E+00
 -1      3712 4.87236E+00
 -1      3713 5.13603E+00
 -1      3714 4.99924E+00
 -1      3715 4.96165E+00
 -1      3716 6.29970E+00
 -1      3717 6.18339E+00
 -1      3718 6.25363E+00
 -1      3719 4.82629E+00
 -1      3720 4.81325E+00
 -1      3721 6.46469E+00
 -1      3722 6.45412E+00
 -1      3723 6.45422E+00
 -1      3724 4.98878E+00
 -1      3725 6.29981E+00
 -1      3726 5.59097E+00
 -1      3727 7.04584E+00
 -1      3728 4.69039E+00
 -1      3729 5.27153E+00
 -1      3730 4.64222E+00
 -1      3731 6.48797E+00
 -1      3732 5.02263E+00
 -1      3733 6.32719E+00
 -1      3734 4.89560E+00
 -1      3735 5.45347E+00
 -1      3736 6.46682E+00
 -1      3737 6.43307E+00
 -1      3738 7.83725E+00
 -1      3739 6.39306E+00
 -1      3740 7.70399E+00
 -1      3741 6.47586E+00
 -1      3742 7.88630E+00
 -1      3743 5.28882E+00
 -1      3744 6.70830E+00
 -1      3745 5.12804E+00
 -1      3746 6.50215E+00
 -1      3747 6.49312E+00
 -1      3748 7.84253E+00
 -1      3749 7.80252E+00
 -1      3750 6.45838E+00
 -1      3751 6.74450E+00
 -1      3752 7.93153E+00
 -1      3753 6.80124E+00
 -1      3754 6.76504E+00
 -1      3755 5.37186E+00
 -1      3756 5.55293E+00
 -1      3757 6.77616E+00
 -1      3758 6.77761E+00
 -1      3759 6.80928E+00
 -1      3760 6.38439E+00
 -1      3761 5.35744E+00
 -1      3762 6.54901E+00
 -1      3763 6.87325E+00
 -1      3764 5.70677E+00
 -1      3765 5.45453E+00
 -1      3766 6.81028E+00
 -1      3767 6.58313E+00
 -1      3768 5.11871E+00
 -1      3769 6.34440E+00
 -1      3770 6.34340E+00
 -1      3771 5.70800E+00
 -1      3772 5.44511E+00
 -1      3773 6.93405E+00
 -1      3774 6.86204E+00
 -1      3775 6.93529E+00
 -1      3776 7.64128E+00
 -1      3777 6.48330E+00
 -1      3778 7.81501E+00
 -1      3779 6.64976E+00
 -1      3780 7.94278E+00
 -1      3781 5.25485E+00
 -1      3782 6.15543E+00
 -1      3783 7.01000E+00
 -1      3784 7.02668E+00
 -1      3785 6.30803E+00
 -1      3786 7.51232E+00
 -1      3787 7.50704E+00
 -1      3788 6.11987E+00
 -1      3789 6.41007E+00
 -1      3790 6.31681E+00
 -1      3791 6.28280E+00
 -1      3792 7.15845E+00
 -1      3793 7.14614E+00
 -1      3794 7.90923E+00
 -1      3795 7.93089E+00
 -1      3796 6.34223E+00
 -1      3797 6.19186E+00
 -1      3798 6.60346E+00
 -1      3799 4.85983E+00
 -1      3800 5.14400E+00
 -1      3801 6.56060E+00
 -1      3802 5.10776E+00
 -1      3803 4.78819E+00
 -1      3804 4.81072E+00
 -1      3805 5.13496E+00
 -1      3806 6.26729E+00
 -1      3807 7.95886E+00
 -1      3808 7.93853E+00
 -1      3809 6.46316E+00
 -1      3810 7.86142E+00
 -1      3811 6.33796E+00
 -1      3812 4.63400E+00
 -1      3813 7.08996E+00
 -1      3814 5.18576E+00
 -1      3815 5.13393E+00
 -1      3816 6.28106E+00
 -1      3817 6.48131E+00
 -1      3818 6.64516E+00
 -1      3819 4.99811E+00
 -1      3820 4.90406E+00
 -1      3821 6.30079E+00
 -1      3822 7.91524E+00
 -1      3823 4.71744E+00
 -1      3824 6.36539E+00
 -1      3825 6.40800E+00
 -1      3826 7.87794E+00
 -1      3827 7.58247E+00
 -1      3828 7.90158E+00
 -1      3829 7.97173E+00
 -1      3830 6.55217E+00
 -1      3831 4.43769E+00
 -1      3832 5.32159E+00
 -1      3833 5.87428E+00
 -1      3834 5.94102E+00
 -1      3835 6.14554E+00
 -1      3836 5.50552E+00
 -1      3837 5.61808E+00
 -1      3838 6.98720E+00
 -1      3839 6.32247E+00
 -1      3840 7.85411E+00
 -1      3841 7.00970E+00
 -1      3842 7.88095E+00
 -1      3843 6.01283E+00
 -1      3844 6.88378E+00
 -1      3845 5.19567E+00
 -1      3846 7.26948E+00
 -1      3847 8.02026E+00
 -1      3848 5.52670E+00
 -1      3849 6.30398E+00
 -1      3850 7.17810E+00
 -1      3851 6.34540E+00
 -1      3852 6.20327E+00
 -1      3853 7.75479E+00
 -1      3854 6.46874E+00
 -1      3855 7.53234E+00
 -1      3856 6.43536E+00
 -1      3857 7.34669E+00
 -1      3858 7.66218E+00
 -1      3859 6.27994E+00
 -1      3860 4.86747E+00
 -1      3861 4.80429E+00
 -1      3862 4.95971E+00
 -1      3863 8.17821E+00
 -1      3864 6.61032E+00
 -1      3865 6.68648E+00
 -1      3866 8.17821E+00
 -1      3867 4.58375E+00
 -1      3868 4.67599E+00
 -1      3869 4.70931E+00
 -1      3870 4.83761E+00
 -1      3871 7.61567E+00
 -1      3872 6.23774E+00
 -1      3873 5.48609E+00
 -1      3874 5.18905E+00
 -1      3875 6.63860E+00
 -1      3876 6.56321E+00
 -1      3877 6.54288E+00
 -1      3878 7.74131E+00
 -1      3879 6.44310E+00
 -1      3880 6.26678E+00
 -1      3881 5.16040E+00
 -1      3882 5.80421E+00
 -1      3883 6.93603E+00
 -1      3884 7.73570E+00
 -1      3885 7.62556E+00
 -1      3886 6.31287E+00
 -1      3887 4.55445E+00
 -1      3888 7.22653E+00
 -1      3889 6.47453E+00
 -1      3890 5.17330E+00
 -1      3891 7.02061E+00
 -1      3892 5.57081E+00
 -1      3893 6.85958E+00
 -1      3894 5.33129E+00
 -1      3895 4.96433E+00
 -1      3896 8.07296E+00
 -1      3897 6.58975E+00
 -1      3898 8.07395E+00
 -1      3899 7.04031E+00
 -1      3900 6.59534E+00
 -1      3901 5.14151E+00
 -1      3902 6.61579E+00
 -1      3903 4.88361E+00
 -1      3904 6.33135E+00
 -1      3905 6.33165E+00
 -1      3906 7.95760E+00
 -1      3907 6.55809E+00
 -1      3908 5.07642E+00
 -1      3909 4.88742E+00
 -1      3910 5.57333E+00
 -1      3911 7.89281E+00
 -1      3912 7.65909E+00
 -1      3913 7.57043E+00
 -1      3914 6.32437E+00
 -1      3915 6.10522E+00
 -1      3916 7.07072E+00
 -1      3917 6.17282E+00
 -1      3918 6.14826E+00
 -1      3919 5.72499E+00
 -1      3920 6.72187E+00
 -1      3921 7.92036E+00
 -1      3922 6.37105E+00
 -1      3923 5.18896E+00
 -1      3924 5.88019E+00
 -1      3925 5.92027E+00
 -1      3926 5.67452E+00
 -1      3927 6.39887E+00
 -1      3928 8.08070E+00
 -1      3929 6.48422E+00
 -1      3930 6.88830E+00
 -1      3931 6.97365E+00
 -1      3932 6.29491E+00
 -1      3933 4.61308E+00
 -1      3934 8.09844E+00
 -1      3935 8.14615E+00
 -1      3936 8.11834E+00
 -1      3937 6.92594E+00
 -1      3938 8.07668E+00
 -1      3939 5.89927E+00
 -1      3940 9.42336E+00
 -1      3941 9.13690E+00
 -1      3942 1.33564E+01
 -1      3943 8.89738E+00
 -1      3944 1.73329E+01
 -1      3945 2.11658E+01
 -1      3946 1.70465E+01
 -1      3947 2.16648E+01
 -1      3948 2.18076E+01
 -1      3949 2.34660E+01
 -1      3950 2.29670E+01
 -1      3951 2.15679E+01
 -1      3952 2.22096E+01
 -1      3953 2.13812E+01
 -1      3954 2.19261E+01
 -1      3955 1.74046E+01
 -1      3956 2.23670E+01
 -1      3957 2.24638E+01
 -1      3958 2.33833E+01
 -1      3959 2.32260E+01
 -1      3960 2.21439E+01
 -1      3961 2.23981E+01
 -1      3962 2.20570E+01
 -1      3963 2.23230E+01
 -1      3964 2.25460E+01
 -1      3965 2.32359E+01
 -1      3966 2.33111E+01
 -1      3967 1.25933E+01
 -1      3968 2.22635E+01
 -1      3969 2.24383E+01
 -1      3970 2.32034E+01
 -1      3971 2.22449E+01
 -1      3972 2.22123E+01
 -1      3973 2.25577E+01
 -1      3974 2.33553E+01
 -1      3975 2.15895E+01
 -1      3976 2.17830E+01
 -1      3977 2.16055E+01
 -1      3978 2.22283E+01
 -1      3979 2.10181E+01
 -1      3980 1.75021E+01
 -1      3981 1.79474E+01
 -1      3982 1.82170E+01
 -1      3983 1.45590E+01
 -1      3984 1.40914E+01
 -1      3985 9.40360E+00
 -1      3986 9.86466E+00
 -1      3987 9.14974E+00
 -1      3988 4.59271E+00
 -1      3989 7.69150E+00
 -1      3990 7.58305E+00
 -1      3991 6.32591E+00
 -1      3992 6.18065E+00
 -1      3993 6.38461E+00
 -1      3994 5.18596E+00
 -1      3995 5.39445E+00
 -1      3996 6.14244E+00
 -1      3997 6.30301E+00
 -1      3998 6.33411E+00
 -1      3999 5.04265E+00
 -1      4000 6.72932E+00
 -1      4001 7.37526E+00
 -1      4002 6.50626E+00
 -1      4003 7.47572E+00
 -1      4004 6.67910E+00
 -1      4005 7.69878E+00
 -1      4006 5.70783E+00
 -1      4007 6.04939E+00
 -1      4008 7.64217E+00
 -1      4009 7.31979E+00
 -1      4010 5.72474E+00
 -1      4011 5.25322E+00
 -1      4012 6.24715E+00
 -1      4013 4.79251E+00
 -1      4014 6.48992E+00
 -1      4015 6.18502E+00
 -1      4016 6.95063E+00
 -1      4017 6.30015E+00
 -1      4018 6.58401E+00
 -1      4019 7.97653E+00
 -1      4020 6.61183E+00
 -1      4021 8.07998E+00
 -1      4022 7.98588E+00
 -1      4023 6.85604E+00
 -1      4024 5.92424E+00
 -1      4025 6.95949E+00
 -1      4026 6.19352E+00
 -1      4027 5.52765E+00
 -1      4028 6.92729E+00
 -1      4029 6.25431E+00
 -1      4030 6.92018E+00
 -1      4031 6.24719E+00
 -1      4032 7.95284E+00
 -1      4033 6.27797E+00
 -1      4034 7.01174E+00
 -1      4035 5.79747E+00
 -1      4036 5.79035E+00
 -1      4037 5.55702E+00
 -1      4038 5.09306E+00
 -1      4039 9.93679E+00
 -1      4040 1.38703E+01
 -1      4041 1.01807E+01
 -1      4042 2.14825E+01
 -1      4043 1.72183E+01
 -1      4044 1.74622E+01
 -1      4045 2.22374E+01
 -1      4046 2.15650E+01
 -1      4047 2.32700E+01
 -1      4048 2.33525E+01
 -1      4049 2.22740E+01
 -1      4050 2.15191E+01
 -1      4051 2.15289E+01
 -1      4052 2.23549E+01
 -1      4053 2.23090E+01
 -1      4054 2.30331E+01
 -1      4055 2.30680E+01
 -1      4056 2.23113E+01
 -1      4057 2.23899E+01
 -1      4058 2.28217E+01
 -1      4059 2.28217E+01
 -1      4060 2.34999E+01
 -1      4061 6.74649E+00
 -1      4062 6.71300E+00
 -1      4063 7.95440E+00
 -1      4064 7.94455E+00
 -1      4065 7.50925E+00
 -1      4066 6.07266E+00
 -1      4067 6.05639E+00
 -1      4068 5.36154E+00
 -1      4069 6.68276E+00
 -1      4070 6.81440E+00
 -1      4071 1.00198E+01
 -1      4072 1.06462E+01
 -1      4073 1.53756E+01
 -1      4074 1.53268E+01
 -1      4075 1.06685E+01
 -1      4076 9.76853E+00
 -1      4077 5.08790E+00
 -1      4078 1.82388E+01
 -1      4079 1.82178E+01
 -1      4080 2.11521E+01
 -1      4081 2.18040E+01
 -1      4082 2.26571E+01
 -1      4083 2.17830E+01
 -1      4084 2.28443E+01
 -1      4085 2.30664E+01
 -1      4086 2.36953E+01
 -1      4087 2.35081E+01
 -1      4088 2.22842E+01
 -1      4089 2.24124E+01
 -1      4090 7.33671E+00
 -1      4091 1.01477E+01
 -1      4092 1.82818E+01
 -1      4093 1.83662E+01
 -1      4094 1.79244E+01
 -1      4095 9.39426E+00
 -1      4096 1.98440E+01
 -1      4097 2.00117E+01
 -1      4098 2.25320E+01
 -1      4099 2.47449E+01
 -1      4100 2.51737E+01
 -1      4101 9.52145E+00
 -1      4102 2.00617E+01
 -1      4103 2.23711E+01
 -1      4104 2.49073E+01
 -1      4105 1.97223E+01
 -1      4106 2.39004E+01
 -1      4107 1.98566E+01
 -1      4108 1.97428E+01
 -1      4109 2.28234E+01
 -1      4110 2.03142E+01
 -1      4111 2.21853E+01
 -1      4112 2.00886E+01
 -1      4113 1.84166E+01
 -1      4114 9.58362E+00
 -1      4115 2.25743E+01
 -1      4116 1.80522E+01
 -1      4117 2.04044E+01
 -1      4118 2.01996E+01
 -1      4119 2.23374E+01
 -1      4120 2.11861E+01
 -1      4121 2.06225E+01
 -1      4122 2.02737E+01
 -1      4123 2.04473E+01
 -1      4124 2.30287E+01
 -1      4125 2.61172E+01
 -1      4126 1.83749E+01
 -1      4127 2.47578E+01
 -1      4128 2.84204E+01
 -1      4129 1.82762E+01
 -1      4130 2.67089E+01
 -1      4131 2.35497E+01
 -1      4132 2.31717E+01
 -1      4133 2.25896E+01
 -1      4134 1.63691E+01
 -1      4135 2.40237E+01
 -1      4136 1.31268E+01
 -1      4137 8.84900E+00
 -1      4138 1.37067E+01
 -1      4139 1.28543E+01
 -1      4140 8.97739E+00
 -1      4141 9.83479E+00
 -1      4142 9.38680E+00
 -1      4143 2.33084E+01
 -1      4144 9.37160E+00
 -1      4145 2.41659E+01
 -1      4146 1.68021E+01
 -1      4147 9.39536E+00
 -1      4148 8.40215E+00
 -1      4149 2.42262E+01
 -1      4150 2.98875E+01
 -1      4151 8.80259E+00
 -1      4152 9.79317E+00
 -1      4153 2.30461E+01
 -1      4154 9.12620E+00
 -1      4155 1.64686E+01
 -1      4156 8.89544E+00
 -1      4157 2.38865E+01
 -1      4158 1.92888E+01
 -1      4159 2.74398E+01
 -1      4160 8.83158E+00
 -1      4161 9.10434E+00
 -1      4162 1.40656E+01
 -1      4163 2.21449E+01
 -1      4164 1.58264E+01
 -1      4165 1.63691E+01
 -1      4166 3.00545E+01
 -1      4167 8.72042E+00
 -1      4168 2.45613E+01
 -1      4169 9.25120E+00
 -1      4170 2.38575E+01
 -1      4171 2.43437E+01
 -1      4172 2.46462E+01
 -1      4173 3.01417E+01
 -1      4174 8.75080E+00
 -1      4175 2.22441E+01
 -1      4176 1.17564E+01
 -1      4177 1.55328E+01
 -1      4178 9.30863E+00
 -1      4179 8.47727E+00
 -1      4180 2.98310E+01
 -1      4181 8.57934E+00
 -1      4182 1.71354E+01
 -1      4183 2.24012E+01
 -1      4184 9.71534E+00
 -1      4185 2.23286E+01
 -1      4186 9.81967E+00
 -1      4187 2.63490E+01
 -1      4188 2.80932E+01
 -1      4189 2.26744E+01
 -1      4190 9.35473E+00
 -1      4191 2.34507E+01
 -1      4192 1.49288E+01
 -1      4193 8.87434E+00
 -1      4194 8.44117E+00
 -1      4195 9.47914E+00
 -1      4196 9.12173E+00
 -1      4197 1.55051E+01
 -1      4198 2.22879E+01
 -1      4199 2.48648E+01
 -1      4200 2.25615E+01
 -1      4201 2.57688E+01
 -1      4202 2.55786E+01
 -1      4203 8.49416E+00
 -1      4204 9.39072E+00
 -1      4205 2.39570E+01
 -1      4206 2.76201E+01
 -1      4207 1.01651E+01
 -1      4208 8.22726E+00
 -1      4209 2.67431E+01
 -1      4210 2.24111E+01
 -1      4211 2.45947E+01
 -1      4212 2.52214E+01
 -1      4213 2.88563E+01
 -1      4214 8.88166E+00
 -1      4215 9.64548E+00
 -1      4216 2.24536E+01
 -1      4217 2.66207E+01
 -1      4218 2.52111E+01
 -1      4219 8.86913E+00
 -1      4220 2.48832E+01
 -1      4221 2.28453E+01
 -1      4222 8.08586E+00
 -1      4223 7.94036E+00
 -1      4224 8.89128E+00
 -1      4225 3.02389E+01
 -1      4226 3.05152E+01
 -1      4227 3.07763E+01
 -1      4228 9.84793E+00
 -1      4229 3.06129E+01
 -1      4230 2.39654E+01
 -1      4231 2.63701E+01
 -1      4232 8.94685E+00
 -1      4233 7.77839E+00
 -1      4234 8.37548E+00
 -1      4235 2.97950E+01
 -1      4236 2.50585E+01
 -1      4237 9.87419E+00
 -1      4238 1.88299E+01
 -1      4239 1.01477E+01
 -1      4240 7.75697E+00
 -1      4241 2.32665E+01
 -1      4242 8.44994E+00
 -1      4243 9.20459E+00
 -1      4244 8.26736E+00
 -1      4245 2.36110E+01
 -1      4246 2.46113E+01
 -1      4247 2.31920E+01
 -1      4248 1.14400E+01
 -1      4249 2.48149E+01
 -1      4250 8.99461E+00
 -1      4251 2.57887E+01
 -1      4252 8.69851E+00
 -1      4253 9.58362E+00
 -1      4254 8.81332E+00
 -1      4255 3.12749E+01
 -1      4256 8.88467E+00
 -1      4257 9.19888E+00
 -1      4258 8.77814E+00
 -1      4259 9.64454E+00
 -1      4260 8.34697E+00
 -1      4261 7.99412E+00
 -1      4262 2.94576E+01
 -1      4263 2.86246E+01
 -1      4264 9.35590E+00
 -1      4265 2.36809E+01
 -1      4266 2.41881E+01
 -1      4267 2.77322E+01
 -1      4268 9.49408E+00
 -1      4269 9.58645E+00
 -1      4270 8.14360E+00
 -1      4271 2.58048E+01
 -1      4272 2.39402E+01
 -1      4273 2.50306E+01
 -1      4274 2.96771E+01
 -1      4275 2.26844E+01
 -1      4276 2.99995E+01
 -1      4277 2.84775E+01
 -1      4278 2.44186E+01
 -1      4279 9.12788E+00
 -1      4280 2.94929E+01
 -1      4281 1.56506E+01
 -1      4282 2.50952E+01
 -1      4283 2.31509E+01
 -1      4284 2.31307E+01
 -1      4285 8.65061E+00
 -1      4286 2.40567E+01
 -1      4287 2.28593E+01
 -1      4288 1.00067E+01
 -1      4289 2.37136E+01
 -1      4290 1.63440E+01
 -1      4291 9.25044E+00
 -1      4292 8.72308E+00
 -1      4293 2.29800E+01
 -1      4294 2.39859E+01
 -1      4295 3.14622E+01
 -1      4296 2.69947E+01
 -1      4297 1.55726E+01
 -1      4298 1.01724E+01
 -1      4299 3.03287E+01
 -1      4300 2.07936E+01
 -1      4301 2.27749E+01
 -1      4302 8.98313E+00
 -1      4303 9.33463E+00
 -1      4304 2.45639E+01
 -1      4305 1.63787E+01
 -1      4306 7.48634E+00
 -1      4307 2.06399E+01
 -1      4308 1.00067E+01
 -1      4309 2.27271E+01
 -1      4310 2.32493E+01
 -1      4311 2.76832E+01
 -1      4312 2.32419E+01
 -1      4313 9.16432E+00
 -1      4314 7.96773E+00
 -1      4315 3.04453E+01
 -1      4316 1.77056E+01
 -1      4317 8.19100E+00
 -1      4318 1.63976E+01
 -1      4319 1.10771E+01
 -1      4320 7.99663E+00
 -1      4321 2.15004E+01
 -1      4322 1.46569E+01
 -1      4323 9.69108E+00
 -1      4324 8.00745E+00
 -1      4325 7.57131E+00
 -1      4326 2.87152E+01
 -1      4327 7.44764E+00
 -1      4328 7.33671E+00
 -1      4329 2.46255E+01
 -1      4330 2.21549E+01
 -1      4331 2.52414E+01
 -1      4332 2.87802E+01
 -1      4333 2.47823E+01
 -1      4334 2.23783E+01
 -1      4335 8.95525E+00
 -1      4336 2.26168E+01
 -1      4337 9.48851E+00
 -1      4338 9.95721E+00
 -1      4339 2.82600E+01
 -1      4340 8.42967E+00
 -1      4341 9.53343E+00
 -1      4342 2.72613E+01
 -1      4343 3.02470E+01
 -1      4344 9.46605E+00
 -1      4345 2.17393E+01
 -1      4346 9.60738E+00
 -1      4347 9.65794E+00
 -1      4348 2.43851E+01
 -1      4349 8.82544E+00
 -1      4350 8.55278E+00
 -1      4351 2.20508E+01
 -1      4352 2.51739E+01
 -1      4353 8.39615E+00
 -1      4354 2.95814E+01
 -1      4355 9.26897E+00
 -1      4356 2.83852E+01
 -1      4357 1.00702E+01
 -1      4358 3.13098E+01
 -1      4359 2.25862E+01
 -1      4360 1.83502E+01
 -1      4361 2.16982E+01
 -1      4362 2.24170E+01
 -1      4363 1.49640E+01
 -1      4364 1.68020E+01
 -1      4365 1.46306E+01
 -1      4366 1.76895E+01
 -1      4367 1.95274E+01
 -1      4368 1.98608E+01
 -1      4369 1.38987E+01
 -1      4370 1.96752E+01
 -1      4371 1.42852E+01
 -1      4372 1.20207E+01
 -1      4373 1.77973E+01
 -1      4374 1.74108E+01
 -1      4375 2.14054E+01
 -1      4376 2.06866E+01
 -1      4377 2.15747E+01
 -1      4378 9.17826E+00
 -1      4379 1.49548E+01
 -1      4380 1.26904E+01
 -1      4381 1.41669E+01
 -1      4382 1.41669E+01
 -1      4383 8.01953E+00
 -1      4384 8.21084E+00
 -1      4385 8.21084E+00
 -1      4386 1.43582E+01
 -1      4387 2.56689E+01
 -1      4388 2.53559E+01
 -1      4389 2.64301E+01
 -1      4390 2.85942E+01
 -1      4391 2.82813E+01
 -1      4392 2.75200E+01
 -1      4393 2.35737E+01
 -1      4394 2.32608E+01
 -1      4395 2.24995E+01
 -1      4396 2.15650E+01
 -1      4397 2.16822E+01
 -1      4398 2.25976E+01
 -1      4399 2.27148E+01
 -1      4400 2.33525E+01
 -1      4401 1.42075E+01
 -1      4402 8.25149E+00
 -1      4403 2.08261E+01
 -1      4404 2.13976E+01
 -1      4405 2.15895E+01
 -1      4406 2.10181E+01
 -1      4407 9.13698E+00
 -1      4408 9.06751E+00
 -1      4409 9.14566E+00
 -1      4410 9.07619E+00
 -1      4411 1.01564E+01
 -1      4412 2.11602E+01
 -1      4413 1.82243E+01
 -1      4414 1.83664E+01
 -1      4415 1.83664E+01
 -1      4416 1.59099E+01
 -1      4417 1.74205E+01
 -1      4418 1.56248E+01
 -1      4419 2.01459E+01
 -1      4420 2.54462E+01
 -1      4421 2.53464E+01
 -1      4422 2.44435E+01
 -1      4423 2.38676E+01
 -1      4424 2.37679E+01
 -1      4425 2.47705E+01
 -1      4426 1.81744E+01
 -1      4427 2.20063E+01
 -1      4428 2.19923E+01
 -1      4429 2.13835E+01
 -1      4430 2.19339E+01
 -1      4431 2.00506E+01
 -1      4432 2.30934E+01
 -1      4433 2.12101E+01
 -1      4434 2.34660E+01
 -1      4435 2.20250E+01
 -1      4436 2.19908E+01
 -1      4437 2.20235E+01
 -1      4438 2.05450E+01
 -1      4439 2.02998E+01
 -1      4440 2.17456E+01
 -1      4441 2.11383E+01
 -1      4442 2.15183E+01
 -1      4443 2.14705E+01
 -1      4444 2.20378E+01
 -1      4445 2.20856E+01
 -1      4446 1.60434E+01
 -1      4447 2.21500E+01
 -1      4448 1.61940E+01
 -1      4449 2.05685E+01
 -1      4450 2.20143E+01
 -1      4451 2.21334E+01
 -1      4452 2.21751E+01
 -1      4453 2.21157E+01
 -1      4454 2.20268E+01
 -1      4455 2.20862E+01
 -1      4456 1.61696E+01
 -1      4457 9.40882E+00
 -1      4458 1.80989E+01
 -1      4459 1.60677E+01
 -1      4460 1.18608E+01
 -1      4461 2.05509E+01
 -1      4462 1.38920E+01
 -1      4463 2.22802E+01
 -1      4464 1.95358E+01
 -1      4465 2.08482E+01
 -1      4466 2.20548E+01
 -1      4467 2.22616E+01
 -1      4468 2.21334E+01
 -1      4469 1.65267E+01
 -1      4470 2.08097E+01
 -1      4471 2.07365E+01
 -1      4472 7.76507E+00
 -1      4473 1.33011E+01
 -1      4474 1.28389E+01
 -1      4475 7.37526E+00
 -1      4476 1.29113E+01
 -1      4477 7.83745E+00
 -1      4478 2.23899E+01
 -1      4479 2.28217E+01
 -1      4480 2.20087E+01
 -1      4481 2.15769E+01
 -1      4482 2.20570E+01
 -1      4483 2.06497E+01
 -1      4484 2.05939E+01
 -1      4485 2.20012E+01
 -1      4486 9.30922E+00
 -1      4487 1.88648E+01
 -1      4488 1.88648E+01
 -1      4489 1.05328E+01
 -1      4490 2.00884E+01
 -1      4491 1.05328E+01
 -1      4492 2.20023E+01
 -1      4493 2.20033E+01
 -1      4494 2.20095E+01
 -1      4495 2.25862E+01
 -1      4496 1.95358E+01
 -1      4497 2.08482E+01
 -1      4498 1.37952E+01
 -1      4499 8.41660E+00
 -1      4500 1.29032E+01
 -1      4501 1.35781E+01
 -1      4502 8.19945E+00
 -1      4503 9.09149E+00
 -1      4504 2.05010E+01
 -1      4505 2.19908E+01
 -1      4506 2.20143E+01
 -1      4507 2.20449E+01
 -1      4508 2.20856E+01
 -1      4509 2.21045E+01
 -1      4510 2.23113E+01
 -1      4511 1.61019E+01
 -1      4512 2.28644E+01
 -1      4513 2.36675E+01
 -1      4514 2.22875E+01
 -1      4515 2.15747E+01
 -1      4516 2.15679E+01
 -1      4517 2.13763E+01
 -1      4518 1.99132E+01
 -1      4519 2.08314E+01
 -1      4520 1.07613E+01
 -1      4521 1.10947E+01
 -1      4522 1.91473E+01
 -1      4523 9.59171E+00
 -1      4524 1.08153E+01
 -1      4525 2.10230E+01
 -1      4526 2.08314E+01
 -1      4527 2.18564E+01
 -1      4528 2.18564E+01
 -1      4529 2.33084E+01
 -1      4530 2.36243E+01
 -1      4531 2.36243E+01
 -1      4532 2.21723E+01
 -1      4533 2.03701E+01
 -1      4534 2.04630E+01
 -1      4535 2.18703E+01
 -1      4536 2.10171E+01
 -1      4537 2.11311E+01
 -1      4538 1.87643E+01
 -1      4539 1.87643E+01
 -1      4540 1.86504E+01
 -1      4541 2.22842E+01
 -1      4542 2.17830E+01
 -1      4543 2.16323E+01
 -1      4544 2.19261E+01
 -1      4545 2.23899E+01
 -1      4546 2.22616E+01
 -1      4547 2.15082E+01
 -1      4548 2.14350E+01
 -1      4549 2.19941E+01
 -1      4550 2.20304E+01
 -1      4551 2.19933E+01
 -1      4552 8.67563E+00
 -1      4553 8.92503E+00
 -1      4554 8.24476E+00
 -1      4555 8.97628E+00
 -1      4556 9.22569E+00
 -1      4557 9.65656E+00
 -1      4558 2.19735E+01
 -1      4559 2.20158E+01
 -1      4560 2.20158E+01
 -1      4561 2.20304E+01
 -1      4562 2.15996E+01
 -1      4563 2.14825E+01
 -1      4564 2.22374E+01
 -1      4565 1.65446E+01
 -1      4566 1.65504E+01
 -1      4567 8.36487E+00
 -1      4568 1.69881E+01
 -1      4569 8.35903E+00
 -1      4570 2.09032E+01
 -1      4571 1.86504E+01
 -1      4572 2.39520E+01
 -1      4573 2.31489E+01
 -1      4574 2.49099E+01
 -1      4575 2.21108E+01
 -1      4576 2.21128E+01
 -1      4577 2.21439E+01
 -1      4578 2.20881E+01
 -1      4579 2.20138E+01
 -1      4580 2.19933E+01
 -1      4581 2.22802E+01
 -1      4582 2.08482E+01
 -1      4583 1.59257E+01
 -1      4584 2.36322E+01
 -1      4585 2.26229E+01
 -1      4586 2.21084E+01
 -1      4587 2.13956E+01
 -1      4588 2.07936E+01
 -1      4589 2.23083E+01
 -1      4590 1.72457E+01
 -1      4591 1.65321E+01
 -1      4592 9.43406E+00
 -1      4593 1.66698E+01
 -1      4594 1.59562E+01
 -1      4595 2.25745E+01
 -1      4596 2.24995E+01
 -1      4597 2.39515E+01
 -1      4598 2.61253E+01
 -1      4599 2.53244E+01
 -1      4600 2.38296E+01
 -1      4601 2.41721E+01
 -1      4602 2.33711E+01
 -1      4603 2.56668E+01
 -1      4604 2.42674E+01
 -1      4605 1.62502E+01
 -1      4606 1.61938E+01
 -1      4607 1.23643E+01
 -1      4608 1.23078E+01
 -1      4609 2.10214E+01
 -1      4610 1.53575E+01
 -1      4611 1.53928E+01
 -1      4612 7.72162E+00
 -1      4613 8.63495E+00
 -1      4614 8.67030E+00
 -1      4615 1.63062E+01
 -1      4616 1.28558E+01
 -1      4617 7.78198E+00
 -1      4618 1.42852E+01
 -1      4619 1.38987E+01
 -1      4620 2.11658E+01
 -1      4621 2.09742E+01
 -1      4622 1.27465E+01
 -1      4623 8.53239E+00
 -1      4624 1.40620E+01
 -1      4625 1.32718E+01
 -1      4626 9.05765E+00
 -1      4627 7.74211E+00
 -1      4628 9.21548E+00
 -1      4629 9.21548E+00
 -1      4630 1.87711E+01
 -1      4631 2.25862E+01
 -1      4632 2.22123E+01
 -1      4633 8.67161E+00
 -1      4634 8.74108E+00
 -1      4635 9.75180E+00
 -1      4636 2.60138E+01
 -1      4637 2.70880E+01
 -1      4638 2.89391E+01
 -1      4639 2.24349E+01
 -1      4640 2.29605E+01
 -1      4641 2.24666E+01
 -1      4642 2.25468E+01
 -1      4643 2.24814E+01
 -1      4644 2.30407E+01
 -1      4645 8.00069E+00
 -1      4646 8.46289E+00
 -1      4647 8.07308E+00
 -1      4648 2.17691E+01
 -1      4649 2.12018E+01
 -1      4650 1.21235E+01
 -1      4651 6.41622E+00
 -1      4652 1.24569E+01
 -1      4653 2.24072E+01
 -1      4654 2.28443E+01
 -1      4655 2.15191E+01
 -1      4656 2.08101E+01
 -1      4657 1.43924E+01
 -1      4658 8.61583E+00
 -1      4659 1.40059E+01
 -1      4660 1.49672E+01
 -1      4661 1.49170E+01
 -1      4662 8.72086E+00
 -1      4663 1.59893E+01
 -1      4664 8.77108E+00
 -1      4665 1.35367E+01
 -1      4666 2.16313E+01
 -1      4667 2.20895E+01
 -1      4668 1.92341E+01
 -1      4669 1.92341E+01
 -1      4670 1.87759E+01
 -1      4671 9.49796E+00
 -1      4672 2.16648E+01
 -1      4673 8.17832E+00
 -1      4674 8.62188E+00
 -1      4675 1.68074E+01
 -1      4676 2.24666E+01
 -1      4677 2.25320E+01
 -1      4678 2.25468E+01
 -1      4679 2.24505E+01
 -1      4680 2.38194E+01
 -1      4681 2.42611E+01
 -1      4682 2.12018E+01
 -1      4683 2.04247E+01
 -1      4684 2.21628E+01
 -1      4685 2.29931E+01
 -1      4686 2.71742E+01
 -1      4687 2.25472E+01
 -1      4688 2.10399E+01
 -1      4689 2.52209E+01
 -1      4690 2.21449E+01
 -1      4691 2.21668E+01
 -1      4692 2.22949E+01
 -1      4693 2.22731E+01
 -1      4694 2.22731E+01
 -1      4695 1.53729E+01
 -1      4696 1.11660E+01
 -1      4697 2.19402E+01
 -1      4698 2.34240E+01
 -1      4699 2.13404E+01
 -1      4700 2.13579E+01
 -1      4701 2.28418E+01
 -1      4702 2.34415E+01
 -1      4703 2.40949E+01
 -1      4704 2.46543E+01
 -1      4705 2.41751E+01
 -1      4706 2.10783E+01
 -1      4707 2.10783E+01
 -1      4708 2.12064E+01
 -1      4709 7.39217E+00
 -1      4710 2.75889E+01
 -1      4711 2.62030E+01
 -1      4712 2.49356E+01
 -1      4713 2.60550E+01
 -1      4714 2.46692E+01
 -1      4715 2.73225E+01
 -1      4716 1.59567E+01
 -1      4717 8.28547E+00
 -1      4718 9.23415E+00
 -1      4719 2.23711E+01
 -1      4720 2.23076E+01
 -1      4721 2.23076E+01
 -1      4722 2.23295E+01
 -1      4723 2.22660E+01
 -1      4724 2.23295E+01
 -1      4725 2.23711E+01
 -1      4726 2.23076E+01
 -1      4727 2.24124E+01
 -1      4728 2.27097E+01
 -1      4729 2.50922E+01
 -1      4730 2.40829E+01
 -1      4731 1.25734E+01
 -1      4732 1.05421E+01
 -1      4733 1.50253E+01
 -1      4734 2.23090E+01
 -1      4735 2.22304E+01
 -1      4736 2.37679E+01
 -1      4737 2.31920E+01
 -1      4738 2.27543E+01
 -1      4739 2.12705E+01
 -1      4740 2.33541E+01
 -1      4741 7.62931E+00
 -1      4742 1.63429E+01
 -1      4743 1.97428E+01
 -1      4744 1.63948E+01
 -1      4745 2.06308E+01
 -1      4746 2.51538E+01
 -1      4747 2.78071E+01
 -1      4748 8.86605E+00
 -1      4749 1.75042E+01
 -1      4750 1.65355E+01
 -1      4751 8.16924E+00
 -1      4752 9.13798E+00
 -1      4753 2.22999E+01
 -1      4754 2.22780E+01
 -1      4755 2.24062E+01
 -1      4756 2.67289E+01
 -1      4757 2.76853E+01
 -1      4758 2.95144E+01
 -1      4759 3.04708E+01
 -1      4760 2.75433E+01
 -1      4761 2.23417E+01
 -1      4762 2.07528E+01
 -1      4763 2.47196E+01
 -1      4764 2.51826E+01
 -1      4765 2.35937E+01
 -1      4766 2.12158E+01
 -1      4767 2.46974E+01
 -1      4768 2.24058E+01
 -1      4769 2.17830E+01
 -1      4770 2.25577E+01
 -1      4771 2.07928E+01
 -1      4772 2.27095E+01
 -1      4773 2.11591E+01
 -1      4774 2.23539E+01
 -1      4775 2.23711E+01
 -1      4776 8.46570E+00
 -1      4777 1.34738E+01
 -1      4778 1.30441E+01
 -1      4779 8.81121E+00
 -1      4780 1.38193E+01
 -1      4781 9.24094E+00
 -1      4782 2.39402E+01
 -1      4783 2.22281E+01
 -1      4784 7.13771E+00
 -1      4785 7.56858E+00
 -1      4786 2.69247E+01
 -1      4787 2.61635E+01
 -1      4788 2.90888E+01
 -1      4789 1.74091E+01
 -1      4790 9.22357E+00
 -1      4791 8.78584E+00
 -1      4792 7.94571E+00
 -1      4793 8.91446E+00
 -1      4794 1.65839E+01
 -1      4795 2.06410E+01
 -1      4796 2.22096E+01
 -1      4797 1.64037E+01
 -1      4798 1.27660E+01
 -1      4799 1.42347E+01
 -1      4800 1.43577E+01
 -1      4801 1.79954E+01
 -1      4802 7.20556E+00
 -1      4803 7.38627E+00
 -1      4804 7.02790E+00
 -1      4805 8.44423E+00
 -1      4806 8.26352E+00
 -1      4807 2.24092E+01
 -1      4808 2.24092E+01
 -1      4809 2.25743E+01
 -1      4810 2.26294E+01
 -1      4811 2.26294E+01
 -1      4812 2.24643E+01
 -1      4813 8.54084E+00
 -1      4814 1.33120E+01
 -1      4815 1.71979E+01
 -1      4816 2.26571E+01
 -1      4817 1.92322E+01
 -1      4818 2.06975E+01
 -1      4819 7.24001E+00
 -1      4820 7.58552E+00
 -1      4821 1.61993E+01
 -1      4822 9.54045E+00
 -1      4823 2.23498E+01
 -1      4824 2.23498E+01
 -1      4825 2.23498E+01
 -1      4826 2.24844E+01
 -1      4827 2.20262E+01
 -1      4828 2.11521E+01
 -1      4829 1.12408E+01
 -1      4830 8.79845E+00
 -1      4831 1.06845E+01
 -1      4832 1.15667E+01
 -1      4833 9.12442E+00
 -1      4834 9.68070E+00
 -1      4835 9.99414E+00
 -1      4836 1.61675E+01
 -1      4837 1.06288E+01
 -1      4838 1.00140E+01
 -1      4839 1.61874E+01
 -1      4840 1.55527E+01
 -1      4841 1.36848E+01
 -1      4842 8.16566E+00
 -1      4843 8.61093E+00
 -1      4844 2.11731E+01
 -1      4845 2.18040E+01
 -1      4846 2.00420E+01
 -1      4847 1.64043E+01
 -1      4848 2.06873E+01
 -1      4849 2.10039E+01
 -1      4850 2.21977E+01
 -1      4851 2.10503E+01
 -1      4852 2.25342E+01
 -1      4853 2.30934E+01
 -1      4854 2.46255E+01
 -1      4855 2.23230E+01
 -1      4856 2.45947E+01
 -1      4857 2.39515E+01
 -1      4858 2.22740E+01
 -1      4859 2.33875E+01
 -1      4860 2.33066E+01
 -1      4861 8.09509E+00
 -1      4862 1.53133E+01
 -1      4863 1.53075E+01
 -1      4864 8.43542E+00
 -1      4865 8.08934E+00
 -1      4866 2.11882E+01
 -1      4867 1.77664E+01
 -1      4868 1.77166E+01
 -1      4869 1.80786E+01
 -1      4870 6.84075E+00
 -1      4871 6.66309E+00
 -1      4872 2.22323E+01
 -1      4873 1.01224E+01
 -1      4874 7.27999E+00
 -1      4875 8.88763E+00
 -1      4876 7.94651E+00
 -1      4877 2.35081E+01
 -1      4878 2.23670E+01
 -1      4879 1.81905E+01
 -1      4880 1.87853E+01
 -1      4881 2.11257E+01
 -1      4882 2.57211E+01
 -1      4883 2.24988E+01
 -1      4884 1.33968E+01
 -1      4885 8.56396E+00
 -1      4886 1.30916E+01
 -1      4887 1.40361E+01
 -1      4888 9.20324E+00
 -1      4889 9.50842E+00
 -1      4890 1.16913E+01
 -1      4891 1.51147E+01
 -1      4892 2.28793E+01
 -1      4893 2.30664E+01
 -1      4894 9.55616E+00
 -1      4895 1.57295E+01
 -1      4896 2.23082E+01
 -1      4897 2.09128E+01
 -1      4898 2.48796E+01
 -1      4899 2.32907E+01
 -1      4900 1.71414E+01
 -1      4901 9.25799E+00
 -1      4902 8.92108E+00
 -1      4903 9.05734E+00
 -1      4904 9.63422E+00
 -1      4905 9.29731E+00
 -1      4906 1.75347E+01
 -1      4907 2.67191E+01
 -1      4908 2.51405E+01
 -1      4909 2.22283E+01
 -1      4910 2.16055E+01
 -1      4911 2.16055E+01
 -1      4912 2.32334E+01
 -1      4913 2.25363E+01
 -1      4914 2.45836E+01
 -1      4915 2.51696E+01
 -1      4916 2.44725E+01
 -1      4917 2.31223E+01
 -1      4918 2.27148E+01
 -1      4919 2.43851E+01
 -1      4920 1.87853E+01
 -1      4921 1.54015E+01
 -1      4922 2.30374E+01
 -1      4923 1.63149E+01
 -1      4924 2.27105E+01
 -1      4925 2.25454E+01
 -1      4926 8.08586E+00
 -1      4927 1.53090E+01
 -1      4928 1.53090E+01
 -1      4929 8.84662E+00
 -1      4930 1.60697E+01
 -1      4931 8.84662E+00
 -1      4932 2.25438E+01
 -1      4933 2.25586E+01
 -1      4934 7.76033E+00
 -1      4935 6.32631E+00
 -1      4936 6.27085E+00
 -1      4937 7.39217E+00
 -1      4938 7.70486E+00
 -1      4939 1.78716E+01
 -1      4940 1.77354E+01
 -1      4941 1.81116E+01
 -1      4942 1.28358E+01
 -1      4943 1.28358E+01
 -1      4944 7.39544E+00
 -1      4945 8.05926E+00
 -1      4946 8.05926E+00
 -1      4947 1.34996E+01
 -1      4948 2.23981E+01
 -1      4949 9.53229E+00
 -1      4950 7.97221E+00
 -1      4951 1.44453E+01
 -1      4952 8.60921E+00
 -1      4953 1.47565E+01
 -1      4954 8.88764E+00
 -1      4955 1.88117E+01
 -1      4956 2.41603E+01
 -1      4957 1.58595E+01
 -1      4958 1.73282E+01
 -1      4959 1.67523E+01
 -1      4960 1.19812E+01
 -1      4961 1.29288E+01
 -1      4962 8.83608E+00
 -1      4963 1.35866E+01
 -1      4964 1.35314E+01
 -1      4965 9.13748E+00
 -1      4966 1.38880E+01
 -1      4967 9.19268E+00
 -1      4968 8.00185E+00
 -1      4969 6.77616E+00
 -1      4970 8.43158E+00
 -1      4971 2.27098E+01
 -1      4972 2.27649E+01
 -1      4973 1.28764E+01
 -1      4974 7.87195E+00
 -1      4975 7.31393E+00
 -1      4976 1.28526E+01
 -1      4977 1.34873E+01
 -1      4978 6.98589E+00
 -1      4979 7.17720E+00
 -1      4980 1.87759E+01
 -1      4981 2.37537E+01
 -1      4982 8.60921E+00
 -1      4983 1.32240E+01
 -1      4984 1.28558E+01
 -1      4985 8.44423E+00
 -1      4986 1.56673E+01
 -1      4987 9.37504E+00
 -1      4988 8.56656E+00
 -1      4989 8.58688E+00
 -1      4990 8.58688E+00
 -1      4991 7.77839E+00
 -1      4992 8.56656E+00
 -1      4993 1.62617E+01
 -1      4994 1.70498E+01
 -1      4995 1.62617E+01
 -1      4996 8.79190E+00
 -1      4997 9.13223E+00
 -1      4998 9.58362E+00
 -1      4999 1.63062E+01
 -1      5000 9.23415E+00
 -1      5001 2.24988E+01
 -1      5002 6.97730E+00
 -1      5003 1.23674E+01
 -1      5004 7.08455E+00
 -1      5005 1.21260E+01
 -1      5006 1.02480E+01
 -1      5007 2.24953E+01
 -1      5008 2.23802E+01
 -1      5009 2.21659E+01
 -1      5010 2.04635E+01
 -1      5011 1.30620E+01
 -1      5012 8.84788E+00
 -1      5013 8.53250E+00
 -1      5014 1.79174E+01
 -1      5015 1.37105E+01
 -1      5016 7.57082E+00
 -1      5017 8.21010E+00
 -1      5018 2.84836E+01
 -1      5019 2.43025E+01
 -1      5020 2.89295E+01
 -1      5021 2.73847E+01
 -1      5022 2.64197E+01
 -1      5023 2.12912E+01
 -1      5024 2.35450E+01
 -1      5025 2.63651E+01
 -1      5026 2.12367E+01
 -1      5027 2.41113E+01
 -1      5028 1.92578E+01
 -1      5029 2.14825E+01
 -1      5030 2.04152E+01
 -1      5031 1.99302E+01
 -1      5032 1.60101E+01
 -1      5033 1.70701E+01
 -1      5034 2.32334E+01
 -1      5035 2.45836E+01
 -1      5036 1.56660E+01
 -1      5037 1.78906E+01
 -1      5038 2.32034E+01
 -1      5039 2.33553E+01
 -1      5040 2.31489E+01
 -1      5041 2.51944E+01
 -1      5042 2.16735E+01
 -1      5043 2.16735E+01
 -1      5044 2.41370E+01
 -1      5045 2.56105E+01
 -1      5046 2.65003E+01
 -1      5047 2.72034E+01
 -1      5048 2.47815E+01
 -1      5049 2.56713E+01
 -1      5050 2.40783E+01
 -1      5051 2.28474E+01
 -1      5052 2.28937E+01
 -1      5053 2.26000E+01
 -1      5054 2.26463E+01
 -1      5055 2.25760E+01
 -1      5056 1.08892E+01
 -1      5057 1.48282E+01
 -1      5058 8.91525E+00
 -1      5059 1.32383E+01
 -1      5060 1.71773E+01
 -1      5061 1.91513E+01
 -1      5062 2.00693E+01
 -1      5063 1.97349E+01
 -1      5064 2.24383E+01
 -1      5065 2.73902E+01
 -1      5066 2.68073E+01
 -1      5067 2.92477E+01
 -1      5068 2.76141E+01
 -1      5069 2.98306E+01
 -1      5070 7.10952E+00
 -1      5071 2.11896E+01
 -1      5072 1.79954E+01
 -1      5073 1.58264E+01
 -1      5074 1.82041E+01
 -1      5075 1.82041E+01
 -1      5076 1.59513E+01
 -1      5077 7.15169E+00
 -1      5078 1.00102E+01
 -1      5079 1.65358E+01
 -1      5080 2.32631E+01
 -1      5081 1.61180E+01
 -1      5082 1.67894E+01
 -1      5083 2.35167E+01
 -1      5084 2.39345E+01
 -1      5085 1.13082E+01
 -1      5086 1.16913E+01
 -1      5087 7.64798E+00
 -1      5088 7.94939E+00
 -1      5089 1.07660E+01
 -1      5090 9.69342E+00
 -1      5091 2.75818E+01
 -1      5092 2.76668E+01
 -1      5093 2.85397E+01
 -1      5094 2.77247E+01
 -1      5095 2.78097E+01
 -1      5096 2.68518E+01
 -1      5097 1.35231E+01
 -1      5098 8.67175E+00
 -1      5099 1.30731E+01
 -1      5100 8.54545E+00
 -1      5101 8.99543E+00
 -1      5102 1.62364E+01
 -1      5103 1.88299E+01
 -1      5104 1.62364E+01
 -1      5105 1.97349E+01
 -1      5106 1.54232E+01
 -1      5107 1.49654E+01
 -1      5108 2.18113E+01
 -1      5109 2.35948E+01
 -1      5110 2.20977E+01
 -1      5111 2.24544E+01
 -1      5112 2.42380E+01
 -1      5113 2.33691E+01
 -1      5114 8.30143E+00
 -1      5115 8.63834E+00
 -1      5116 8.87831E+00
 -1      5117 9.35898E+00
 -1      5118 2.26151E+01
 -1      5119 7.01279E+00
 -1      5120 8.61583E+00
 -1      5121 1.62600E+01
 -1      5122 1.38759E+01
 -1      5123 1.39121E+01
 -1      5124 7.94598E+00
 -1      5125 7.98218E+00
 -1      5126 1.39266E+01
 -1      5127 2.35161E+01
 -1      5128 2.17325E+01
 -1      5129 2.32296E+01
 -1      5130 7.57028E+00
 -1      5131 1.52048E+01
 -1      5132 1.94117E+01
 -1      5133 1.25713E+01
 -1      5134 2.25460E+01
 -1      5135 2.35481E+01
 -1      5136 2.36233E+01
 -1      5137 6.62640E+00
 -1      5138 7.38716E+00
 -1      5139 1.47778E+01
 -1      5140 1.43469E+01
 -1      5141 1.50784E+01
 -1      5142 8.54590E+00
 -1      5143 9.43725E+00
 -1      5144 8.50400E+00
 -1      5145 7.69552E+00
 -1      5146 8.62877E+00
 -1      5147 2.38383E+01
 -1      5148 2.33798E+01
 -1      5149 2.76853E+01
 -1      5150 3.06129E+01
 -1      5151 3.06129E+01
 -1      5152 2.76853E+01
 -1      5153 2.24708E+01
 -1      5154 7.11964E+00
 -1      5155 2.40656E+01
 -1      5156 2.57935E+01
 -1      5157 2.57745E+01
 -1      5158 2.41301E+01
 -1      5159 8.59547E+00
 -1      5160 9.19071E+00
 -1      5161 8.39937E+00
 -1      5162 8.37969E+00
 -1      5163 8.97493E+00
 -1      5164 9.17103E+00
 -1      5165 8.72149E+00
 -1      5166 8.70918E+00
 -1      5167 8.74315E+00
 -1      5168 2.57390E+01
 -1      5169 2.57440E+01
 -1      5170 2.61630E+01
 -1      5171 8.28545E+00
 -1      5172 9.28550E+00
 -1      5173 7.84644E+00
 -1      5174 7.14963E+00
 -1      5175 2.60842E+01
 -1      5176 2.60842E+01
 -1      5177 2.98310E+01
 -1      5178 2.93056E+01
 -1      5179 2.93056E+01
 -1      5180 2.55588E+01
 -1      5181 7.12518E+00
 -1      5182 9.39125E+00
 -1      5183 7.12223E+00
 -1      5184 2.40376E+01
 -1      5185 2.37246E+01
 -1      5186 2.45702E+01
 -1      5187 2.38713E+01
 -1      5188 2.35583E+01
 -1      5189 2.30256E+01
 -1      5190 1.85027E+01
 -1      5191 2.81556E+01
 -1      5192 2.81366E+01
 -1      5193 2.62625E+01
 -1      5194 1.86311E+01
 -1      5195 1.67931E+01
 -1      5196 2.16899E+01
 -1      5197 8.46045E+00
 -1      5198 9.11292E+00
 -1      5199 8.74179E+00
 -1      5200 8.98176E+00
 -1      5201 9.35289E+00
 -1      5202 1.53103E+01
 -1      5203 1.53503E+01
 -1      5204 8.56385E+00
 -1      5205 1.60369E+01
 -1      5206 8.52384E+00
 -1      5207 2.43893E+01
 -1      5208 2.12512E+01
 -1      5209 2.14143E+01
 -1      5210 2.51786E+01
 -1      5211 2.20405E+01
 -1      5212 2.50155E+01
 -1      5213 2.28533E+01
 -1      5214 2.29245E+01
 -1      5215 2.28415E+01
 -1      5216 1.89073E+01
 -1      5217 7.31460E+00
 -1      5218 9.58362E+00
 -1      5219 9.39125E+00
 -1      5220 2.16899E+01
 -1      5221 1.99518E+01
 -1      5222 2.57476E+01
 -1      5223 2.21398E+01
 -1      5224 2.39233E+01
 -1      5225 2.35581E+01
 -1      5226 2.26143E+01
 -1      5227 2.94348E+01
 -1      5228 2.39559E+01
 -1      5229 2.39559E+01
 -1      5230 3.07763E+01
 -1      5231 2.94348E+01
 -1      5232 2.27098E+01
 -1      5233 2.28453E+01
 -1      5234 2.27649E+01
 -1      5235 2.12665E+01
 -1      5236 7.86785E+00
 -1      5237 8.56050E+00
 -1      5238 1.50817E+01
 -1      5239 1.46648E+01
 -1      5240 8.14360E+00
 -1      5241 1.46648E+01
 -1      5242 8.56050E+00
 -1      5243 7.63001E+00
 -1      5244 2.22811E+01
 -1      5245 2.21659E+01
 -1      5246 2.09436E+01
 -1      5247 2.40817E+01
 -1      5248 2.39186E+01
 -1      5249 8.03759E+00
 -1      5250 1.49097E+01
 -1      5251 1.52063E+01
 -1      5252 7.93063E+00
 -1      5253 8.33422E+00
 -1      5254 2.34489E+01
 -1      5255 2.32889E+01
 -1      5256 1.71932E+01
 -1      5257 7.27665E+00
 -1      5258 7.05950E+00
 -1      5259 8.31053E+00
 -1      5260 8.18423E+00
 -1      5261 1.42213E+01
 -1      5262 8.26526E+00
 -1      5263 2.25547E+01
 -1      5264 2.24716E+01
 -1      5265 2.24716E+01
 -1      5266 1.39121E+01
 -1      5267 7.96773E+00
 -1      5268 7.98218E+00
 -1      5269 2.32237E+01
 -1      5270 2.30374E+01
 -1      5271 2.29815E+01
 -1      5272 2.27951E+01
 -1      5273 2.28038E+01
 -1      5274 1.70370E+01
 -1      5275 1.62468E+01
 -1      5276 1.45275E+01
 -1      5277 8.44639E+00
 -1      5278 1.43233E+01
 -1      5279 1.52055E+01
 -1      5280 9.32864E+00
 -1      5281 2.45417E+01
 -1      5282 2.39557E+01
 -1      5283 2.44199E+01
 -1      5284 2.43507E+01
 -1      5285 2.49367E+01
 -1      5286 2.45153E+01
 -1      5287 2.24767E+01
 -1      5288 2.21272E+01
 -1      5289 2.36483E+01
 -1      5290 2.16096E+01
 -1      5291 2.39977E+01
 -1      5292 2.12114E+01
 -1      5293 2.73216E+01
 -1      5294 8.53615E+00
 -1      5295 2.23317E+01
 -1      5296 2.03577E+01
 -1      5297 2.46808E+01
 -1      5298 8.77092E+00
 -1      5299 1.56019E+01
 -1      5300 1.72956E+01
 -1      5301 1.73162E+01
 -1      5302 2.24736E+01
 -1      5303 1.36726E+01
 -1      5304 9.26098E+00
 -1      5305 1.44183E+01
 -1      5306 1.80619E+01
 -1      5307 2.76527E+01
 -1      5308 2.47267E+01
 -1      5309 2.64878E+01
 -1      5310 2.98593E+01
 -1      5311 2.93339E+01
 -1      5312 2.31876E+01
 -1      5313 2.29402E+01
 -1      5314 1.48796E+01
 -1      5315 9.00267E+00
 -1      5316 2.35497E+01
 -1      5317 2.46692E+01
 -1      5318 9.45840E+00
 -1      5319 8.68011E+00
 -1      5320 8.72200E+00
 -1      5321 9.50029E+00
 -1      5322 2.49034E+01
 -1      5323 2.38914E+01
 -1      5324 2.25556E+01
 -1      5325 2.25797E+01
 -1      5326 3.00545E+01
 -1      5327 1.39963E+01
 -1      5328 1.40350E+01
 -1      5329 1.39464E+01
 -1      5330 2.67255E+01
 -1      5331 2.62550E+01
 -1      5332 2.56773E+01
 -1      5333 2.54475E+01
 -1      5334 2.78371E+01
 -1      5335 2.74132E+01
 -1      5336 2.64191E+01
 -1      5337 1.74205E+01
 -1      5338 1.71354E+01
 -1      5339 1.98608E+01
 -1      5340 1.63149E+01
 -1      5341 2.00884E+01
 -1      5342 1.17564E+01
 -1      5343 7.21794E+00
 -1      5344 2.12460E+01
 -1      5345 2.09945E+01
 -1      5346 2.32941E+01
 -1      5347 2.30426E+01
 -1      5348 2.18921E+01
 -1      5349 1.45416E+01
 -1      5350 1.45219E+01
 -1      5351 1.85675E+01
 -1      5352 2.22809E+01
 -1      5353 1.79358E+01
 -1      5354 9.13698E+00
 -1      5355 1.01564E+01
 -1      5356 1.01477E+01
 -1      5357 8.00323E+00
 -1      5358 1.25309E+01
 -1      5359 8.64251E+00
 -1      5360 1.38926E+01
 -1      5361 1.57496E+01
 -1      5362 9.89942E+00
 -1      5363 8.86675E+00
 -1      5364 1.07238E+01
 -1      5365 1.47169E+01
 -1      5366 8.11953E+00
 -1      5367 1.57908E+01
 -1      5368 8.15487E+00
 -1      5369 1.60418E+01
 -1      5370 7.55850E+00
 -1      5371 2.37377E+01
 -1      5372 2.18138E+01
 -1      5373 1.68641E+01
 -1      5374 1.34669E+01
 -1      5375 2.41058E+01
 -1      5376 1.91561E+01
 -1      5377 2.75031E+01
 -1      5378 2.15553E+01
 -1      5379 2.27057E+01
 -1      5380 2.36034E+01
 -1      5381 2.83184E+01
 -1      5382 8.81933E+00
 -1      5383 2.96600E+01
 -1      5384 2.94348E+01
 -1      5385 2.96600E+01
 -1      5386 3.07763E+01
 -1      5387 1.53156E+01
 -1      5388 1.27579E+01
 -1      5389 8.50932E+00
 -1      5390 8.36406E+00
 -1      5391 2.70150E+01
 -1      5392 2.43617E+01
 -1      5393 2.54812E+01
 -1      5394 1.83749E+01
 -1      5395 9.58362E+00
 -1      5396 9.39125E+00
 -1      5397 2.49998E+01
 -1      5398 2.50048E+01
 -1      5399 2.40057E+01
 -1      5400 8.85627E+00
 -1      5401 8.88281E+00
 -1      5402 8.84780E+00
 -1      5403 1.80413E+01
 -1      5404 1.80678E+01
 -1      5405 1.80763E+01
 -1      5406 2.27951E+01
 -1      5407 2.30287E+01
 -1      5408 2.44087E+01
 -1      5409 2.44087E+01
 -1      5410 8.36743E+00
 -1      5411 8.35512E+00
 -1      5412 9.16738E+00
 -1      5413 2.39977E+01
 -1      5414 2.16096E+01
 -1      5415 2.31307E+01
 -1      5416 7.49932E+00
 -1      5417 8.31053E+00
 -1      5418 8.18423E+00
 -1      5419 2.22616E+01
 -1      5420 2.23425E+01
 -1      5421 2.11950E+01
 -1      5422 7.45496E+00
 -1      5423 7.67485E+00
 -1      5424 1.61581E+01
 -1      5425 2.71147E+01
 -1      5426 1.49997E+01
 -1      5427 8.47846E+00
 -1      5428 8.89535E+00
 -1      5429 2.34225E+01
 -1      5430 2.57144E+01
 -1      5431 1.60649E+01
 -1      5432 1.57522E+01
 -1      5433 2.32945E+01
 -1      5434 2.36313E+01
 -1      5435 8.43158E+00
 -1      5436 8.44604E+00
 -1      5437 2.53344E+01
 -1      5438 2.85557E+01
 -1      5439 7.92269E+00
 -1      5440 7.92269E+00
 -1      5441 1.33631E+01
 -1      5442 2.31708E+01
 -1      5443 2.09718E+01
 -1      5444 2.83162E+01
 -1      5445 2.46726E+01
 -1      5446 1.73282E+01
 -1      5447 1.87443E+01
 -1      5448 1.71513E+01
 -1      5449 1.63223E+01
 -1      5450 2.27715E+01
 -1      5451 6.13304E+00
 -1      5452 6.16002E+00
 -1      5453 7.58220E+00
 -1      5454 7.55521E+00
 -1      5455 7.55521E+00
 -1      5456 8.80971E+00
 -1      5457 8.84840E+00
 -1      5458 1.49020E+01
 -1      5459 1.63559E+01
 -1      5460 1.27123E+01
 -1      5461 2.24229E+01
 -1      5462 2.43678E+01
 -1      5463 2.21445E+01
 -1      5464 2.19053E+01
 -1      5465 2.38502E+01
 -1      5466 2.41286E+01
 -1      5467 2.56799E+01
 -1      5468 2.47901E+01
 -1      5469 2.32579E+01
 -1      5470 2.51493E+01
 -1      5471 2.47998E+01
 -1      5472 2.42822E+01
 -1      5473 1.43760E+01
 -1      5474 9.37508E+00
 -1      5475 8.72261E+00
 -1      5476 9.09374E+00
 -1      5477 1.12106E+01
 -1      5478 2.22474E+01
 -1      5479 2.18622E+01
 -1      5480 2.38359E+01
 -1      5481 2.45180E+01
 -1      5482 2.41328E+01
 -1      5483 2.25443E+01
 -1      5484 2.51638E+01
 -1      5485 2.47250E+01
 -1      5486 2.47826E+01
 -1      5487 2.52214E+01
 -1      5488 2.47826E+01
 -1      5489 2.51638E+01
 -1      5490 8.42967E+00
 -1      5491 2.89621E+01
 -1      5492 7.48761E+00
 -1      5493 7.07072E+00
 -1      5494 2.67431E+01
 -1      5495 2.71620E+01
 -1      5496 2.57440E+01
 -1      5497 2.25295E+01
 -1      5498 2.11276E+01
 -1      5499 2.22780E+01
 -1      5500 2.92316E+01
 -1      5501 1.68020E+01
 -1      5502 1.64686E+01
 -1      5503 1.95274E+01
 -1      5504 2.66729E+01
 -1      5505 2.48842E+01
 -1      5506 2.89648E+01
 -1      5507 1.63309E+01
 -1      5508 2.17390E+01
 -1      5509 2.41271E+01
 -1      5510 8.10436E+00
 -1      5511 1.41579E+01
 -1      5512 8.97130E+00
 -1      5513 8.68803E+00
 -1      5514 2.60069E+01
 -1      5515 2.67962E+01
 -1      5516 2.80238E+01
 -1      5517 2.70324E+01
 -1      5518 2.62431E+01
 -1      5519 1.00267E+01
 -1      5520 8.11576E+00
 -1      5521 8.12423E+00
 -1      5522 2.02260E+01
 -1      5523 2.27810E+01
 -1      5524 8.78351E+00
 -1      5525 9.58346E+00
 -1      5526 8.80517E+00
 -1      5527 1.84965E+01
 -1      5528 8.84716E+00
 -1      5529 1.29670E+01
 -1      5530 8.59519E+00
 -1      5531 8.67230E+00
 -1      5532 1.36804E+01
 -1      5533 2.81006E+01
 -1      5534 2.73507E+01
 -1      5535 2.43537E+01
 -1      5536 7.14388E+00
 -1      5537 7.35719E+00
 -1      5538 8.11576E+00
 -1      5539 8.12423E+00
 -1      5540 2.35251E+01
 -1      5541 2.56386E+01
 -1      5542 2.42989E+01
 -1      5543 2.55208E+01
 -1      5544 2.76344E+01
 -1      5545 2.68605E+01
 -1      5546 2.94554E+01
 -1      5547 8.63598E+00
 -1      5548 9.38116E+00
 -1      5549 8.62642E+00
 -1      5550 8.11411E+00
 -1      5551 8.85928E+00
 -1      5552 8.86885E+00
 -1      5553 2.33442E+01
 -1      5554 2.31145E+01
 -1      5555 2.49693E+01
 -1      5556 2.47395E+01
 -1      5557 2.39536E+01
 -1      5558 2.32359E+01
 -1      5559 2.22195E+01
 -1      5560 2.10722E+01
 -1      5561 2.25053E+01
 -1      5562 2.25736E+01
 -1      5563 2.43133E+01
 -1      5564 6.08392E+00
 -1      5565 6.10848E+00
 -1      5566 7.53065E+00
 -1      5567 7.53065E+00
 -1      5568 2.91895E+01
 -1      5569 2.78418E+01
 -1      5570 1.61966E+01
 -1      5571 2.12704E+01
 -1      5572 1.64322E+01
 -1      5573 1.54178E+01
 -1      5574 1.58043E+01
 -1      5575 2.47597E+01
 -1      5576 2.05022E+01
 -1      5577 2.43732E+01
 -1      5578 2.06382E+01
 -1      5579 2.55394E+01
 -1      5580 2.88749E+01
 -1      5581 2.51354E+01
 -1      5582 2.44322E+01
 -1      5583 2.57799E+01
 -1      5584 1.56821E+01
 -1      5585 2.20286E+01
 -1      5586 2.37343E+01
 -1      5587 7.28173E+00
 -1      5588 8.52638E+00
 -1      5589 7.15750E+00
 -1      5590 7.95976E+00
 -1      5591 9.20441E+00
 -1      5592 1.39359E+01
 -1      5593 9.56415E+00
 -1      5594 8.92782E+00
 -1      5595 2.79969E+01
 -1      5596 2.92374E+01
 -1      5597 2.58834E+01
 -1      5598 7.98615E+00
 -1      5599 8.76445E+00
 -1      5600 8.70140E+00
 -1      5601 5.95224E+00
 -1      5602 7.17720E+00
 -1      5603 7.93791E+00
 -1      5604 1.41659E+01
 -1      5605 8.60822E+00
 -1      5606 6.46029E+00
 -1      5607 7.12411E+00
 -1      5608 1.59503E+01
 -1      5609 9.07826E+00
 -1      5610 2.63969E+01
 -1      5611 2.88373E+01
 -1      5612 2.80304E+01
 -1      5613 8.47508E+00
 -1      5614 1.58230E+01
 -1      5615 1.49895E+01
 -1      5616 8.25794E+00
 -1      5617 1.56059E+01
 -1      5618 2.36483E+01
 -1      5619 2.41113E+01
 -1      5620 2.16463E+01
 -1      5621 1.49190E+01
 -1      5622 2.23177E+01
 -1      5623 2.44619E+01
 -1      5624 2.50713E+01
 -1      5625 2.34462E+01
 -1      5626 2.46189E+01
 -1      5627 2.25715E+01
 -1      5628 2.39218E+01
 -1      5629 1.27137E+01
 -1      5630 8.82530E+00
 -1      5631 8.57484E+00
 -1      5632 7.65151E+00
 -1      5633 7.82524E+00
 -1      5634 6.90191E+00
 -1      5635 8.19724E+00
 -1      5636 1.92317E+01
 -1      5637 1.47377E+01
 -1      5638 1.56503E+01
 -1      5639 8.17727E+00
 -1      5640 8.86385E+00
 -1      5641 7.75141E+00
 -1      5642 7.20408E+00
 -1      5643 8.17353E+00
 -1      5644 9.24584E+00
 -1      5645 1.47347E+01
 -1      5646 2.48177E+01
 -1      5647 2.46988E+01
 -1      5648 2.60657E+01
 -1      5649 2.54998E+01
 -1      5650 2.53809E+01
 -1      5651 8.46470E+00
 -1      5652 1.57349E+01
 -1      5653 1.53041E+01
 -1      5654 8.01530E+00
 -1      5655 1.52855E+01
 -1      5656 7.60590E+00
 -1      5657 9.05263E+00
 -1      5658 7.60590E+00
 -1      5659 2.60725E+01
 -1      5660 2.11341E+01
 -1      5661 2.28629E+01
 -1      5662 2.65114E+01
 -1      5663 2.15729E+01
 -1      5664 1.54607E+01
 -1      5665 8.19047E+00
 -1      5666 8.17180E+00
 -1      5667 1.52278E+01
 -1      5668 8.73385E+00
 -1      5669 8.81021E+00
 -1      5670 1.60804E+01
 -1      5671 2.58113E+01
 -1      5672 2.42073E+01
 -1      5673 8.66879E+00
 -1      5674 9.46012E+00
 -1      5675 9.26402E+00
 -1      5676 8.06266E+00
 -1      5677 1.20169E+01
 -1      5678 7.60526E+00
 -1      5679 6.70491E+00
 -1      5680 7.44223E+00
 -1      5681 2.31930E+01
 -1      5682 2.14873E+01
 -1      5683 2.31691E+01
 -1      5684 2.14634E+01
 -1      5685 2.27510E+01
 -1      5686 1.62812E+01
 -1      5687 2.66326E+01
 -1      5688 2.71016E+01
 -1      5689 1.61298E+01
 -1      5690 1.65018E+01
 -1      5691 2.12034E+01
 -1      5692 2.25220E+01
 -1      5693 1.57619E+01
 -1      5694 2.48796E+01
 -1      5695 2.51826E+01
 -1      5696 7.35020E+00
 -1      5697 2.07405E+01
 -1      5698 2.15082E+01
 -1      5699 2.14550E+01
 -1      5700 2.30402E+01
 -1      5701 1.62931E+01
 -1      5702 1.71387E+01
 -1      5703 1.61268E+01
 -1      5704 2.87863E+01
 -1      5705 2.92100E+01
 -1      5706 2.95759E+01
 -1      5707 2.94147E+01
 -1      5708 2.98383E+01
 -1      5709 2.90488E+01
 -1      5710 2.39186E+01
 -1      5711 2.23392E+01
 -1      5712 2.34784E+01
 -1      5713 8.48804E+00
 -1      5714 2.21549E+01
 -1      5715 2.15004E+01
 -1      5716 1.32725E+01
 -1      5717 8.74486E+00
 -1      5718 2.39654E+01
 -1      5719 2.35581E+01
 -1      5720 7.45119E+00
 -1      5721 8.27402E+00
 -1      5722 1.57871E+01
 -1      5723 9.00062E+00
 -1      5724 2.68317E+01
 -1      5725 2.44535E+01
 -1      5726 2.64020E+01
 -1      5727 2.87802E+01
 -1      5728 2.64020E+01
 -1      5729 2.68317E+01
 -1      5730 7.77853E+00
 -1      5731 7.85184E+00
 -1      5732 8.82662E+00
 -1      5733 9.08148E+00
 -1      5734 8.32448E+00
 -1      5735 8.47715E+00
 -1      5736 8.73200E+00
 -1      5737 2.09945E+01
 -1      5738 2.21449E+01
 -1      5739 2.27057E+01
 -1      5740 2.34675E+01
 -1      5741 2.34675E+01
 -1      5742 2.34675E+01
 -1      5743 9.31710E+00
 -1      5744 1.46059E+01
 -1      5745 1.02163E+01
 -1      5746 7.29273E+00
 -1      5747 1.25815E+01
 -1      5748 1.16823E+01
 -1      5749 2.29755E+01
 -1      5750 2.29755E+01
 -1      5751 8.15098E+00
 -1      5752 1.56588E+01
 -1      5753 8.18571E+00
 -1      5754 2.92189E+01
 -1      5755 1.56246E+01
 -1      5756 1.45580E+01
 -1      5757 1.57577E+01
 -1      5758 8.47543E+00
 -1      5759 8.43923E+00
 -1      5760 1.44198E+01
 -1      5761 2.67722E+01
 -1      5762 2.49099E+01
 -1      5763 2.44535E+01
 -1      5764 2.48832E+01
 -1      5765 7.56275E+00
 -1      5766 1.35827E+01
 -1      5767 1.37652E+01
 -1      5768 1.77100E+01
 -1      5769 1.78925E+01
 -1      5770 2.24934E+01
 -1      5771 1.67216E+01
 -1      5772 1.69210E+01
 -1      5773 1.41797E+01
 -1      5774 1.02407E+01
 -1      5775 2.38890E+01
 -1      5776 2.35248E+01
 -1      5777 2.35814E+01
 -1      5778 2.32172E+01
 -1      5779 1.00476E+01
 -1      5780 2.08220E+01
 -1      5781 1.91132E+01
 -1      5782 8.55846E+00
 -1      5783 1.93328E+01
 -1      5784 1.02673E+01
 -1      5785 1.01350E+01
 -1      5786 1.90904E+01
 -1      5787 8.45873E+00
 -1      5788 9.26100E+00
 -1      5789 9.20443E+00
 -1      5790 1.00067E+01
 -1      5791 1.59825E+01
 -1      5792 1.59730E+01
 -1      5793 2.58939E+01
 -1      5794 2.42556E+01
 -1      5795 2.42611E+01
 -1      5796 2.60179E+01
 -1      5797 7.67485E+00
 -1      5798 9.15687E+00
 -1      5799 8.76097E+00
 -1      5800 1.62893E+01
 -1      5801 1.69714E+01
 -1      5802 3.12749E+01
 -1      5803 2.24908E+01
 -1      5804 2.24908E+01
 -1      5805 3.08018E+01
 -1      5806 2.20177E+01
 -1      5807 3.08018E+01
 -1      5808 2.14612E+01
 -1      5809 2.45993E+01
 -1      5810 2.52255E+01
 -1      5811 8.48526E+00
 -1      5812 8.84363E+00
 -1      5813 1.57084E+01
 -1      5814 2.33162E+01
 -1      5815 2.22993E+01
 -1      5816 2.12326E+01
 -1      5817 2.24160E+01
 -1      5818 2.32846E+01
 -1      5819 2.37024E+01
 -1      5820 2.39560E+01
 -1      5821 2.11896E+01
 -1      5822 2.17393E+01
 -1      5823 1.40975E+01
 -1      5824 1.40739E+01
 -1      5825 8.95265E+00
 -1      5826 2.99995E+01
 -1      5827 2.95759E+01
 -1      5828 2.92100E+01
 -1      5829 9.11142E+00
 -1      5830 8.03758E+00
 -1      5831 8.03230E+00
 -1      5832 1.55454E+01
 -1      5833 2.72993E+01
 -1      5834 2.81295E+01
 -1      5835 2.08220E+01
 -1      5836 1.17564E+01
 -1      5837 8.95830E+00
 -1      5838 1.48085E+01
 -1      5839 6.22715E+00
 -1      5840 7.36787E+00
 -1      5841 1.27580E+01
 -1      5842 1.27580E+01
 -1      5843 2.64713E+01
 -1      5844 2.34744E+01
 -1      5845 2.54907E+01
 -1      5846 1.55419E+01
 -1      5847 2.13946E+01
 -1      5848 1.59727E+01
 -1      5849 1.33224E+01
 -1      5850 8.11166E+00
 -1      5851 9.43406E+00
 -1      5852 7.39217E+00
 -1      5853 6.27085E+00
 -1      5854 7.33671E+00
 -1      5855 2.72231E+01
 -1      5856 8.53623E+00
 -1      5857 8.90736E+00
 -1      5858 9.16952E+00
 -1      5859 8.42334E+00
 -1      5860 2.36032E+01
 -1      5861 2.22993E+01
 -1      5862 2.07168E+01
 -1      5863 1.67656E+01
 -1      5864 1.99349E+01
 -1      5865 1.80489E+01
 -1      5866 7.47783E+00
 -1      5867 8.90060E+00
 -1      5868 2.41659E+01
 -1      5869 1.33968E+01
 -1      5870 1.70453E+01
 -1      5871 1.67401E+01
 -1      5872 7.95978E+00
 -1      5873 2.23260E+01
 -1      5874 2.26118E+01
 -1      5875 1.34069E+01
 -1      5876 1.36239E+01
 -1      5877 1.77512E+01
 -1      5878 1.75342E+01
 -1      5879 2.28593E+01
 -1      5880 9.48859E+00
 -1      5881 1.35800E+01
 -1      5882 1.72748E+01
 -1      5883 1.73234E+01
 -1      5884 2.20253E+01
 -1      5885 2.42321E+01
 -1      5886 1.52968E+01
 -1      5887 1.54069E+01
 -1      5888 8.60468E+00
 -1      5889 8.71483E+00
 -1      5890 1.63366E+01
 -1      5891 8.30069E+00
 -1      5892 1.80619E+01
 -1      5893 1.29166E+01
 -1      5894 2.67301E+01
 -1      5895 2.81481E+01
 -1      5896 2.84042E+01
 -1      5897 8.88468E+00
 -1      5898 1.70790E+01
 -1      5899 1.36817E+01
 -1      5900 1.65018E+01
 -1      5901 2.46339E+01
 -1      5902 2.18622E+01
 -1      5903 2.34507E+01
 -1      5904 8.86913E+00
 -1      5905 8.88166E+00
 -1      5906 8.66467E+00
 -1      5907 1.36239E+01
 -1      5908 9.16432E+00
 -1      5909 8.98178E+00
 -1      5910 1.37652E+01
 -1      5911 1.63013E+01
 -1      5912 1.67745E+01
 -1      5913 1.67745E+01
 -1      5914 1.65821E+01
 -1      5915 1.47008E+01
 -1      5916 2.26143E+01
 -1      5917 2.22809E+01
 -1      5918 2.80932E+01
 -1      5919 1.00263E+01
 -1      5920 1.00350E+01
 -1      5921 1.75394E+01
 -1      5922 1.76695E+01
 -1      5923 1.76608E+01
 -1      5924 1.63614E+01
 -1      5925 2.23898E+01
 -1      5926 8.13136E+00
 -1      5927 1.42335E+01
 -1      5928 8.10773E+00
 -1      5929 2.26244E+01
 -1      5930 2.27605E+01
 -1      5931 2.24592E+01
 -1      5932 2.96365E+01
 -1      5933 2.95313E+01
 -1      5934 2.07168E+01
 -1      5935 2.97823E+01
 -1      5936 9.06163E+00
 -1      5937 8.54789E+00
 -1      5938 8.50904E+00
 -1      5939 8.65960E+00
 -1      5940 8.69844E+00
 -1      5941 8.69844E+00
 -1      5942 8.13327E+00
 -1      5943 1.53591E+01
 -1      5944 1.51453E+01
 -1      5945 7.95810E+00
 -1      5946 1.51839E+01
 -1      5947 6.87406E+00
 -1      5948 5.52514E+00
 -1      5949 7.12411E+00
 -1      5950 2.14772E+01
 -1      5951 2.14772E+01
 -1      5952 1.89658E+01
 -1      5953 1.81620E+01
 -1      5954 1.89658E+01
 -1      5955 1.36817E+01
 -1      5956 1.29321E+01
 -1      5957 1.32805E+01
 -1      5958 1.12561E+01
 -1      5959 7.78579E+00
 -1      5960 8.59700E+00
 -1      5961 2.39336E+01
 -1      5962 2.42903E+01
 -1      5963 8.09981E+00
 -1      5964 2.63085E+01
 -1      5965 8.47113E+00
 -1      5966 9.96027E+00
 -1      5967 8.92760E+00
 -1      5968 9.23461E+00
 -1      5969 1.72457E+01
 -1      5970 2.32413E+01
 -1      5971 7.18424E+00
 -1      5972 8.57501E+00
 -1      5973 6.58567E+00
 -1      5974 7.97644E+00
 -1      5975 8.60602E+00
 -1      5976 1.91689E+01
 -1      5977 1.33028E+01
 -1      5978 8.52625E+00
 -1      5979 1.62402E+01
 -1      5980 2.07268E+01
 -1      5981 1.63329E+01
 -1      5982 9.40136E+00
 -1      5983 7.96324E+00
 -1      5984 8.35865E+00
 -1      5985 1.59955E+01
 -1      5986 1.61762E+01
 -1      5987 1.58178E+01
 -1      5988 8.35409E+00
 -1      5989 1.89930E+01
 -1      5990 1.33038E+01
 -1      5991 6.12482E+00
 -1      5992 1.30616E+01
 -1      5993 1.57353E+01
 -1      5994 8.46302E+00
 -1      5995 1.45243E+01
 -1      5996 1.38947E+01
 -1      5997 1.39257E+01
 -1      5998 8.89089E+00
 -1      5999 2.77291E+01
 -1      6000 1.60654E+01
 -1      6001 1.63661E+01
 -1      6002 2.59468E+01
 -1      6003 2.53809E+01
 -1      6004 1.50893E+01
 -1      6005 8.57486E+00
 -1      6006 7.05406E+00
 -1      6007 2.11983E+01
 -1      6008 1.59628E+01
 -1      6009 1.44867E+01
 -1      6010 1.42739E+01
 -1      6011 9.03832E+00
 -1      6012 1.57499E+01
 -1      6013 7.95284E+00
 -1      6014 1.44741E+01
 -1      6015 8.62529E+00
 -1      6016 1.53373E+01
 -1      6017 8.81606E+00
 -1      6018 1.48286E+01
 -1      6019 8.78908E+00
 -1      6020 1.39722E+01
 -1      6021 1.44834E+01
 -1      6022 8.44396E+00
 -1      6023 9.30036E+00
 -1      6024 2.29781E+01
 -1      6025 6.81937E+00
 -1      6026 2.62491E+01
 -1      6027 2.63603E+01
 -1      6028 2.64820E+01
 -1      6029 2.75615E+01
 -1      6030 2.63708E+01
 -1      6031 1.91106E+01
 -1      6032 2.39620E+01
 -1      6033 1.95606E+01
 -1      6034 1.89359E+01
 -1      6035 2.98593E+01
 -1      6036 2.98875E+01
 -1      6037 2.93339E+01
 -1      6038 2.95361E+01
 -1      6039 1.57528E+01
 -1      6040 2.32638E+01
 -1      6041 2.31276E+01
 -1      6042 2.32631E+01
 -1      6043 7.73291E+00
 -1      6044 8.49149E+00
 -1      6045 1.76997E+01
 -1      6046 1.43845E+01
 -1      6047 2.61846E+01
 -1      6048 2.48177E+01
 -1      6049 7.79805E+00
 -1      6050 7.77773E+00
 -1      6051 9.22093E+00
 -1      6052 1.05396E+01
 -1      6053 9.29937E+00
 -1      6054 1.64885E+01
 -1      6055 8.50908E+00
 -1      6056 8.51851E+00
 -1      6057 9.37491E+00
 -1      6058 2.24769E+01
 -1      6059 2.24387E+01
 -1      6060 2.27244E+01
 -1      6061 8.79552E+00
 -1      6062 8.44604E+00
 -1      6063 8.60163E+00
 -1      6064 9.82524E+00
 -1      6065 1.36934E+01
 -1      6066 8.60819E+00
 -1      6067 9.32163E+00
 -1      6068 2.27752E+01
 -1      6069 2.27993E+01
 -1      6070 2.47738E+01
 -1      6071 1.64878E+01
 -1      6072 2.53531E+01
 -1      6073 1.70671E+01
 -1      6074 1.43248E+01
 -1      6075 8.19902E+00
 -1      6076 9.20357E+00
 -1      6077 1.76608E+01
 -1      6078 1.45994E+01
 -1      6079 8.65008E+00
 -1      6080 8.68109E+00
 -1      6081 1.39548E+01
 -1      6082 1.54141E+01
 -1      6083 1.69380E+01
 -1      6084 2.16885E+01
 -1      6085 1.72946E+01
 -1      6086 2.76668E+01
 -1      6087 2.85397E+01
 -1      6088 2.86246E+01
 -1      6089 2.26259E+01
 -1      6090 2.82429E+01
 -1      6091 2.07394E+01
 -1      6092 2.27134E+01
 -1      6093 7.53447E+00
 -1      6094 2.44346E+01
 -1      6095 3.12749E+01
 -1      6096 3.08018E+01
 -1      6097 2.16899E+01
 -1      6098 2.25862E+01
 -1      6099 9.31007E+00
 -1      6100 7.28571E+00
 -1      6101 2.43214E+01
 -1      6102 2.39015E+01
 -1      6103 2.41438E+01
 -1      6104 8.18630E+00
 -1      6105 1.41669E+01
 -1      6106 8.23695E+00
 -1      6107 2.13318E+01
 -1      6108 2.44369E+01
 -1      6109 2.11573E+01
 -1      6110 2.03683E+01
 -1      6111 2.34734E+01
 -1      6112 2.36479E+01
 -1      6113 2.28598E+01
 -1      6114 2.31757E+01
 -1      6115 8.07227E+00
 -1      6116 8.59700E+00
 -1      6117 7.69743E+00
 -1      6118 6.88895E+00
 -1      6119 2.42518E+01
 -1      6120 1.48041E+01
 -1      6121 1.69666E+01
 -1      6122 6.54218E+00
 -1      6123 7.22021E+00
 -1      6124 8.81606E+00
 -1      6125 6.80467E+00
 -1      6126 7.18090E+00
 -1      6127 2.31930E+01
 -1      6128 2.36110E+01
 -1      6129 2.31691E+01
 -1      6130 1.69076E+01
 -1      6131 2.21431E+01
 -1      6132 2.36191E+01
 -1      6133 7.98382E+00
 -1      6134 8.59510E+00
 -1      6135 7.13564E+00
 -1      6136 9.35586E+00
 -1      6137 1.53326E+01
 -1      6138 8.81137E+00
 -1      6139 9.48383E+00
 -1      6140 2.25457E+01
 -1      6141 2.26583E+01
 -1      6142 2.25075E+01
 -1      6143 1.34595E+01
 -1      6144 1.55891E+01
 -1      6145 1.79382E+01
 -1      6146 2.33827E+01
 -1      6147 2.21837E+01
 -1      6148 2.34500E+01
 -1      6149 2.17137E+01
 -1      6150 2.29127E+01
 -1      6151 8.82647E+00
 -1      6152 2.04488E+01
 -1      6153 2.05161E+01
 -1      6154 2.28322E+01
 -1      6155 1.59377E+01
 -1      6156 1.89353E+01
 -1      6157 9.33529E+00
 -1      6158 2.43129E+01
 -1      6159 8.16136E+00
 -1      6160 1.41938E+01
 -1      6161 1.44148E+01
 -1      6162 8.37892E+00
 -1      6163 1.44114E+01
 -1      6164 8.15792E+00
 -1      6165 9.14623E+00
 -1      6166 2.26095E+01
 -1      6167 2.26783E+01
 -1      6168 2.54451E+01
 -1      6169 2.50638E+01
 -1      6170 8.20792E+00
 -1      6171 1.78393E+01
 -1      6172 2.23260E+01
 -1      6173 1.76222E+01
 -1      6174 1.59157E+01
 -1      6175 8.29386E+00
 -1      6176 2.12981E+01
 -1      6177 2.12981E+01
 -1      6178 1.84427E+01
 -1      6179 8.33490E+00
 -1      6180 2.98875E+01
 -1      6181 2.96365E+01
 -1      6182 2.97823E+01
 -1      6183 2.50451E+01
 -1      6184 2.70620E+01
 -1      6185 6.18701E+00
 -1      6186 7.58220E+00
 -1      6187 1.64613E+01
 -1      6188 1.00525E+01
 -1      6189 2.73667E+01
 -1      6190 2.38986E+01
 -1      6191 2.50255E+01
 -1      6192 2.92018E+01
 -1      6193 2.64286E+01
 -1      6194 2.75555E+01
 -1      6195 2.22523E+01
 -1      6196 1.68962E+01
 -1      6197 1.69714E+01
 -1      6198 9.05263E+00
 -1      6199 9.12788E+00
 -1      6200 1.69714E+01
 -1      6201 2.96413E+01
 -1      6202 8.00927E+00
 -1      6203 1.40488E+01
 -1      6204 7.10409E+00
 -1      6205 8.17675E+00
 -1      6206 2.44087E+01
 -1      6207 2.57887E+01
 -1      6208 1.34765E+01
 -1      6209 1.68738E+01
 -1      6210 2.25228E+01
 -1      6211 2.25228E+01
 -1      6212 2.96338E+01
 -1      6213 2.67044E+01
 -1      6214 8.62613E+00
 -1      6215 8.63569E+00
 -1      6216 2.49793E+01
 -1      6217 2.52733E+01
 -1      6218 2.46616E+01
 -1      6219 2.95361E+01
 -1      6220 2.96771E+01
 -1      6221 8.48571E+00
 -1      6222 2.57839E+01
 -1      6223 2.50638E+01
 -1      6224 9.27966E+00
 -1      6225 2.91284E+01
 -1      6226 2.47100E+01
 -1      6227 2.41612E+01
 -1      6228 2.86799E+01
 -1      6229 2.42615E+01
 -1      6230 2.92287E+01
 -1      6231 2.47738E+01
 -1      6232 2.49014E+01
 -1      6233 2.53531E+01
 -1      6234 2.54986E+01
 -1      6235 2.96749E+01
 -1      6236 8.88387E+00
 -1      6237 8.13840E+00
 -1      6238 8.89344E+00
 -1      6239 2.21439E+01
 -1      6240 2.24053E+01
 -1      6241 1.68271E+01
 -1      6242 1.50443E+01
 -1      6243 2.25206E+01
 -1      6244 1.69423E+01
 -1      6245 2.43034E+01
 -1      6246 8.47020E+00
 -1      6247 8.65960E+00
 -1      6248 1.93328E+01
 -1      6249 1.62709E+01
 -1      6250 2.66745E+01
 -1      6251 2.78247E+01
 -1      6252 2.84298E+01
 -1      6253 8.77814E+00
 -1      6254 1.45059E+01
 -1      6255 8.65569E+00
 -1      6256 9.48003E+00
 -1      6257 2.27189E+01
 -1      6258 2.45445E+01
 -1      6259 7.16531E+00
 -1      6260 7.16531E+00
 -1      6261 4.84229E+00
 -1      6262 4.83934E+00
 -1      6263 6.91600E+00
 -1      6264 1.62852E+01
 -1      6265 1.67065E+01
 -1      6266 2.27389E+01
 -1      6267 2.46093E+01
 -1      6268 1.01651E+01
 -1      6269 1.76695E+01
 -1      6270 1.88507E+01
 -1      6271 2.94147E+01
 -1      6272 2.29835E+01
 -1      6273 2.39744E+01
 -1      6274 2.41829E+01
 -1      6275 8.38076E+00
 -1      6276 8.38949E+00
 -1      6277 1.44824E+01
 -1      6278 7.10836E+00
 -1      6279 8.79552E+00
 -1      6280 7.33062E+00
 -1      6281 7.85192E+00
 -1      6282 1.26607E+01
 -1      6283 8.13301E+00
 -1      6284 9.36099E+00
 -1      6285 9.13414E+00
 -1      6286 8.66034E+00
 -1      6287 8.65843E+00
 -1      6288 8.43158E+00
 -1      6289 2.27134E+01
 -1      6290 2.86246E+01
 -1      6291 8.05866E+00
 -1      6292 1.42516E+01
 -1      6293 1.50443E+01
 -1      6294 8.67335E+00
 -1      6295 8.93110E+00
 -1      6296 1.45093E+01
 -1      6297 1.53937E+01
 -1      6298 1.72597E+01
 -1      6299 7.09449E+00
 -1      6300 6.74243E+00
 -1      6301 1.48638E+01
 -1      6302 8.54066E+00
 -1      6303 8.76608E+00
 -1      6304 1.60142E+01
 -1      6305 2.45548E+01
 -1      6306 1.55107E+01
 -1      6307 8.79909E+00
 -1      6308 8.58621E+00
 -1      6309 2.92342E+01
 -1      6310 2.69805E+01
 -1      6311 7.94036E+00
 -1      6312 1.41938E+01
 -1      6313 8.63750E+00
 -1      6314 1.48910E+01
 -1      6315 8.63750E+00
 -1      6316 2.21367E+01
 -1      6317 2.70752E+01
 -1      6318 8.84046E+00
 -1      6319 9.02299E+00
 -1      6320 1.66226E+01
 -1      6321 1.64984E+01
 -1      6322 1.73007E+01
 -1      6323 2.64820E+01
 -1      6324 2.26505E+01
 -1      6325 2.68268E+01
 -1      6326 2.84268E+01
 -1      6327 7.18711E+00
 -1      6328 1.57401E+01
 -1      6329 1.76181E+01
 -1      6330 1.89991E+01
 -1      6331 2.06698E+01
 -1      6332 1.87918E+01
 -1      6333 2.17287E+01
 -1      6334 2.17287E+01
 -1      6335 1.82784E+01
 -1      6336 2.11209E+01
 -1      6337 1.84407E+01
 -1      6338 2.66958E+01
 -1      6339 2.67044E+01
 -1      6340 2.49638E+01
 -1      6341 2.48421E+01
 -1      6342 1.05490E+01
 -1      6343 9.24677E+00
 -1      6344 8.37315E+00
 -1      6345 8.42156E+00
 -1      6346 8.33408E+00
 -1      6347 8.92475E+00
 -1      6348 2.28562E+01
 -1      6349 1.65754E+01
 -1      6350 8.43058E+00
 -1      6351 1.57556E+01
 -1      6352 1.69853E+01
 -1      6353 8.84044E+00
 -1      6354 9.66029E+00
 -1      6355 2.27444E+01
 -1      6356 8.36371E+00
 -1      6357 6.75895E+00
 -1      6358 6.67343E+00
 -1      6359 6.89099E+00
 -1      6360 2.31379E+01
 -1      6361 2.35502E+01
 -1      6362 2.41832E+01
 -1      6363 2.45954E+01
 -1      6364 2.41961E+01
 -1      6365 2.33571E+01
 -1      6366 2.33571E+01
 -1      6367 1.87585E+01
 -1      6368 1.58466E+01
 -1      6369 1.58640E+01
 -1      6370 1.63614E+01
 -1      6371 2.39574E+01
 -1      6372 2.46034E+01
 -1      6373 2.98975E+01
 -1      6374 2.69700E+01
 -1      6375 2.66177E+01
 -1      6376 2.88298E+01
 -1      6377 2.95452E+01
 -1      6378 1.65223E+01
 -1      6379 1.87469E+01
 -1      6380 1.60785E+01
 -1      6381 8.83038E+00
 -1      6382 9.75537E+00
 -1      6383 7.20835E+00
 -1      6384 1.66325E+01
 -1      6385 2.12295E+01
 -1      6386 2.17024E+01
 -1      6387 2.16832E+01
 -1      6388 1.06341E+01
 -1      6389 1.08297E+01
 -1      6390 9.86048E+00
 -1      6391 9.86048E+00
 -1      6392 9.66493E+00
 -1      6393 2.26822E+01
 -1      6394 1.53372E+01
 -1      6395 1.59718E+01
 -1      6396 1.53571E+01
 -1      6397 1.96094E+01
 -1      6398 2.93432E+01
 -1      6399 1.97016E+01
 -1      6400 2.94354E+01
 -1      6401 3.01467E+01
 -1      6402 1.42037E+01
 -1      6403 8.16777E+00
 -1      6404 8.15792E+00
 -1      6405 2.17555E+01
 -1      6406 3.01467E+01
 -1      6407 2.94354E+01
 -1      6408 3.02389E+01
 -1      6409 2.45719E+01
 -1      6410 2.42675E+01
 -1      6411 2.77729E+01
 -1      6412 2.71954E+01
 -1      6413 2.99370E+01
 -1      6414 2.93595E+01
 -1      6415 2.51993E+01
 -1      6416 2.56205E+01
 -1      6417 2.83162E+01
 -1      6418 3.05152E+01
 -1      6419 3.04803E+01
 -1      6420 3.04803E+01
 -1      6421 9.22940E+00
 -1      6422 2.26844E+01
 -1      6423 2.27649E+01
 -1      6424 2.28322E+01
 -1      6425 1.45165E+01
 -1      6426 2.61125E+01
 -1      6427 3.01417E+01
 -1      6428 2.95337E+01
 -1      6429 2.95337E+01
 -1      6430 2.99684E+01
 -1      6431 2.93604E+01
 -1      6432 2.99684E+01
 -1      6433 2.20856E+01
 -1      6434 2.86226E+01
 -1      6435 2.39247E+01
 -1      6436 2.41609E+01
 -1      6437 2.88588E+01
 -1      6438 8.47543E+00
 -1      6439 9.00666E+00
 -1      6440 1.94517E+01
 -1      6441 1.95439E+01
 -1      6442 2.25335E+01
 -1      6443 2.27922E+01
 -1      6444 2.28720E+01
 -1      6445 2.29277E+01
 -1      6446 2.31863E+01
 -1      6447 2.28478E+01
 -1      6448 2.50048E+01
 -1      6449 2.69423E+01
 -1      6450 3.05152E+01
 -1      6451 3.04803E+01
 -1      6452 7.51669E+00
 -1      6453 6.87961E+00
 -1      6454 7.46157E+00
 -1      6455 7.85934E+00
 -1      6456 8.25145E+00
 -1      6457 9.03816E+00
 -1      6458 8.06642E+00
 -1      6459 8.44928E+00
 -1      6460 2.29215E+01
 -1      6461 2.12711E+01
 -1      6462 2.36592E+01
 -1      6463 8.38968E+00
 -1      6464 8.10232E+00
 -1      6465 8.31931E+00
 -1      6466 2.46932E+01
 -1      6467 2.46932E+01
 -1      6468 2.62146E+01
 -1      6469 2.56549E+01
 -1      6470 2.56549E+01
 -1      6471 2.41335E+01
 -1      6472 2.28142E+01
 -1      6473 2.14566E+01
 -1      6474 2.19125E+01
 -1      6475 2.16990E+01
 -1      6476 2.32700E+01
 -1      6477 2.48586E+01
 -1      6478 2.47588E+01
 -1      6479 2.41829E+01
 -1      6480 2.89295E+01
 -1      6481 3.01467E+01
 -1      6482 3.02389E+01
 -1      6483 2.51805E+01
 -1      6484 9.46605E+00
 -1      6485 1.69423E+01
 -1      6486 7.75517E+00
 -1      6487 1.65481E+01
 -1      6488 2.63212E+01
 -1      6489 2.57886E+01
 -1      6490 2.77371E+01
 -1      6491 1.63256E+01
 -1      6492 8.18077E+00
 -1      6493 2.07168E+01
 -1      6494 1.09747E+01
 -1      6495 1.04065E+01
 -1      6496 9.68590E+00
 -1      6497 9.58976E+00
 -1      6498 1.01580E+01
 -1      6499 8.05881E+00
 -1      6500 1.62818E+01
 -1      6501 2.31708E+01
 -1      6502 2.44753E+01
 -1      6503 2.40053E+01
 -1      6504 1.64855E+01
 -1      6505 2.81006E+01
 -1      6506 1.70453E+01
 -1      6507 2.50354E+01
 -1      6508 9.24603E+00
 -1      6509 2.39756E+01
 -1      6510 2.81295E+01
 -1      6511 2.97950E+01
 -1      6512 1.73300E+01
 -1      6513 1.09098E+01
 -1      6514 1.14073E+01
 -1      6515 1.01771E+01
 -1      6516 1.01771E+01
 -1      6517 9.67958E+00
 -1      6518 2.29332E+01
 -1      6519 2.76312E+01
 -1      6520 6.91770E+00
 -1      6521 8.53007E+00
 -1      6522 8.11318E+00
 -1      6523 1.77512E+01
 -1      6524 2.32907E+01
 -1      6525 2.17022E+01
 -1      6526 2.33101E+01
 -1      6527 2.36640E+01
 -1      6528 2.32869E+01
 -1      6529 2.29938E+01
 -1      6530 2.29331E+01
 -1      6531 2.76429E+01
 -1      6532 2.58201E+01
 -1      6533 2.92298E+01
 -1      6534 9.05332E+00
 -1      6535 8.82457E+00
 -1      6536 8.82169E+00
 -1      6537 7.78901E+00
 -1      6538 2.66543E+01
 -1      6539 2.66342E+01
 -1      6540 1.44990E+01
 -1      6541 8.92076E+00
 -1      6542 2.21517E+01
 -1      6543 1.50066E+01
 -1      6544 9.12788E+00
 -1      6545 1.47008E+01
 -1      6546 1.80864E+01
 -1      6547 8.94685E+00
 -1      6548 1.70790E+01
 -1      6549 6.93023E+00
 -1      6550 5.63489E+00
 -1      6551 6.18063E+00
 -1      6552 2.27134E+01
 -1      6553 2.20787E+01
 -1      6554 2.77322E+01
 -1      6555 2.69247E+01
 -1      6556 2.61635E+01
 -1      6557 2.33051E+01
 -1      6558 2.42960E+01
 -1      6559 2.39555E+01
 -1      6560 2.24263E+01
 -1      6561 2.42092E+01
 -1      6562 1.58182E+01
 -1      6563 1.03491E+01
 -1      6564 2.73671E+01
 -1      6565 2.31196E+01
 -1      6566 2.57274E+01
 -1      6567 2.11320E+01
 -1      6568 1.03677E+01
 -1      6569 9.59401E+00
 -1      6570 7.37223E+00
 -1      6571 9.21946E+00
 -1      6572 8.82457E+00
 -1      6573 2.40541E+01
 -1      6574 2.96771E+01
 -1      6575 2.92287E+01
 -1      6576 7.51063E+00
 -1      6577 7.50391E+00
 -1      6578 9.19518E+00
 -1      6579 1.66762E+01
 -1      6580 1.67181E+01
 -1      6581 8.63425E+00
 -1      6582 8.88911E+00
 -1      6583 2.16652E+01
 -1      6584 2.33853E+01
 -1      6585 1.41980E+01
 -1      6586 8.66973E+00
 -1      6587 8.64168E+00
 -1      6588 9.36268E+00
 -1      6589 8.58538E+00
 -1      6590 1.58112E+01
 -1      6591 7.26745E+00
 -1      6592 1.59784E+01
 -1      6593 9.16534E+00
 -1      6594 1.60726E+01
 -1      6595 2.85805E+01
 -1      6596 6.22017E+00
 -1      6597 2.67315E+01
 -1      6598 2.23130E+01
 -1      6599 2.72802E+01
 -1      6600 2.14135E+01
 -1      6601 2.14135E+01
 -1      6602 1.63642E+01
 -1      6603 1.58108E+01
 -1      6604 8.58500E+00
 -1      6605 9.25082E+00
 -1      6606 2.99719E+01
 -1      6607 9.29911E+00
 -1      6608 7.60784E+00
 -1      6609 1.00611E+01
 -1      6610 2.91237E+01
 -1      6611 2.31196E+01
 -1      6612 1.83020E+01
 -1      6613 1.54466E+01
 -1      6614 1.74125E+01
 -1      6615 2.24164E+01
 -1      6616 2.23788E+01
 -1      6617 2.30033E+01
 -1      6618 2.47709E+01
 -1      6619 2.30965E+01
 -1      6620 1.64494E+01
 -1      6621 8.35125E+00
 -1      6622 2.31776E+01
 -1      6623 1.70113E+01
 -1      6624 1.58440E+01
 -1      6625 7.78700E+00
 -1      6626 7.03413E+00
 -1      6627 1.63329E+01
 -1      6628 1.72946E+01
 -1      6629 9.57158E+00
 -1      6630 2.43244E+01
 -1      6631 8.74164E+00
 -1      6632 8.56892E+00
 -1      6633 1.74125E+01
 -1      6634 1.74125E+01
 -1      6635 2.36287E+01
 -1      6636 2.32516E+01
 -1      6637 1.70374E+01
 -1      6638 1.19764E+01
 -1      6639 1.97016E+01
 -1      6640 2.28675E+01
 -1      6641 7.08638E+00
 -1      6642 7.18425E+00
 -1      6643 2.53046E+01
 -1      6644 1.70364E+01
 -1      6645 1.93985E+01
 -1      6646 6.75700E+00
 -1      6647 8.44154E+00
 -1      6648 8.73020E+00
 -1      6649 8.25931E+00
 -1      6650 2.83852E+01
 -1      6651 1.62893E+01
 -1      6652 2.26971E+01
 -1      6653 2.26971E+01
 -1      6654 6.67343E+00
 -1      6655 2.36477E+01
 -1      6656 2.43052E+01
 -1      6657 8.85627E+00
 -1      6658 1.80413E+01
 -1      6659 2.53163E+01
 -1      6660 2.46750E+01
 -1      6661 2.36213E+01
 -1      6662 2.37957E+01
 -1      6663 1.14622E+01
 -1      6664 7.52320E+00
 -1      6665 1.34361E+01
 -1      6666 2.75978E+01
 -1      6667 2.94069E+01
 -1      6668 5.86093E+00
 -1      6669 6.19904E+00
 -1      6670 2.17578E+01
 -1      6671 2.33463E+01
 -1      6672 7.31067E+00
 -1      6673 4.95933E+00
 -1      6674 4.95261E+00
 -1      6675 7.40591E+00
 -1      6676 8.67539E+00
 -1      6677 8.89157E+00
 -1      6678 1.01213E+01
 -1      6679 4.90204E+00
 -1      6680 7.41972E+00
 -1      6681 2.90856E+01
 -1      6682 2.57620E+01
 -1      6683 2.34975E+01
 -1      6684 8.92076E+00
 -1      6685 8.08419E+00
 -1      6686 1.55578E+01
 -1      6687 6.74163E+00
 -1      6688 1.57702E+01
 -1      6689 1.46197E+01
 -1      6690 2.15466E+01
 -1      6691 8.88310E+00
 -1      6692 9.42838E+00
 -1      6693 4.82157E+00
 -1      6694 7.09060E+00
 -1      6695 8.73244E+00
 -1      6696 8.39552E+00
 -1      6697 1.70113E+01
 -1      6698 1.61453E+01
 -1      6699 1.69073E+01
 -1      6700 1.12586E+01
 -1      6701 2.20508E+01
 -1      6702 7.59500E+00
 -1      6703 7.67024E+00
 -1      6704 2.76104E+01
 -1      6705 2.46731E+01
 -1      6706 2.51805E+01
 -1      6707 2.47823E+01
 -1      6708 2.46731E+01
 -1      6709 9.46161E+00
 -1      6710 1.71243E+01
 -1      6711 1.70179E+01
 -1      6712 1.64319E+01
 -1      6713 1.59919E+01
 -1      6714 1.57106E+01
 -1      6715 5.65331E+00
 -1      6716 2.62952E+01
 -1      6717 2.56226E+01
 -1      6718 2.56226E+01
 -1      6719 2.41011E+01
 -1      6720 1.63854E+01
 -1      6721 1.67392E+01
 -1      6722 1.60691E+01
 -1      6723 5.78021E+00
 -1      6724 1.49970E+01
 -1      6725 8.60315E+00
 -1      6726 1.69600E+01
 -1      6727 1.61443E+01
 -1      6728 1.01201E+01
 -1      6729 2.37106E+01
 -1      6730 6.43032E+00
 -1      6731 7.34365E+00
 -1      6732 1.57863E+01
 -1      6733 1.72639E+01
 -1      6734 2.28598E+01
 -1      6735 1.85812E+01
 -1      6736 1.85858E+01
 -1      6737 6.84241E+00
 -1      6738 5.95070E+00
 -1      6739 9.09866E+00
 -1      6740 2.75615E+01
 -1      6741 2.76832E+01
 -1      6742 2.39570E+01
 -1      6743 2.36032E+01
 -1      6744 1.65706E+01
 -1      6745 1.66010E+01
 -1      6746 2.56865E+01
 -1      6747 2.53416E+01
 -1      6748 1.60806E+01
 -1      6749 2.51671E+01
 -1      6750 2.17861E+01
 -1      6751 1.07791E+01
 -1      6752 7.41310E+00
 -1      6753 2.54320E+01
 -1      6754 1.83957E+01
 -1      6755 2.27510E+01
 -1      6756 6.77265E+00
 -1      6757 7.15341E+00
 -1      6758 6.76682E+00
 -1      6759 6.52651E+00
 -1      6760 8.62353E+00
 -1      6761 1.69795E+01
 -1      6762 2.31756E+01
 -1      6763 1.54419E+01
 -1      6764 7.47631E+00
 -1      6765 6.91397E+00
 -1      6766 1.61537E+01
 -1      6767 2.48138E+01
 -1      6768 2.12929E+01
 -1      6769 8.73865E+00
 -1      6770 7.38219E+00
 -1      6771 2.49102E+01
 -1      6772 2.53619E+01
 -1      6773 2.96365E+01
 -1      6774 2.87712E+01
 -1      6775 2.87712E+01
 -1      6776 2.98875E+01
 -1      6777 2.26822E+01
 -1      6778 2.67108E+01
 -1      6779 2.97554E+01
 -1      6780 2.94963E+01
 -1      6781 2.27049E+01
 -1      6782 2.42341E+01
 -1      6783 6.96928E+00
 -1      6784 7.47690E+00
 -1      6785 7.51456E+00
 -1      6786 2.94576E+01
 -1      6787 2.88588E+01
 -1      6788 1.01580E+01
 -1      6789 2.29107E+01
 -1      6790 8.39966E+00
 -1      6791 8.39966E+00
 -1      6792 1.57231E+01
 -1      6793 1.02975E+01
 -1      6794 9.56475E+00
 -1      6795 2.46030E+01
 -1      6796 2.31991E+01
 -1      6797 2.36169E+01
 -1      6798 2.61632E+01
 -1      6799 2.59993E+01
 -1      6800 2.51521E+01
 -1      6801 9.51614E+00
 -1      6802 8.65417E+00
 -1      6803 9.10006E+00
 -1      6804 7.11955E+00
 -1      6805 7.52941E+00
 -1      6806 1.49947E+01
 -1      6807 1.74697E+01
 -1      6808 1.68138E+01
 -1      6809 1.81948E+01
 -1      6810 2.63701E+01
 -1      6811 2.54907E+01
 -1      6812 2.63194E+01
 -1      6813 7.12897E+00
 -1      6814 6.78385E+00
 -1      6815 1.87921E+01
 -1      6816 1.83751E+01
 -1      6817 2.32296E+01
 -1      6818 2.31509E+01
 -1      6819 1.63144E+01
 -1      6820 1.61183E+01
 -1      6821 1.53910E+01
 -1      6822 1.53826E+01
 -1      6823 1.56355E+01
 -1      6824 7.13651E+00
 -1      6825 7.14120E+00
 -1      6826 2.28822E+01
 -1      6827 2.44143E+01
 -1      6828 1.65397E+01
 -1      6829 2.42518E+01
 -1      6830 8.81726E+00
 -1      6831 9.00666E+00
 -1      6832 8.81726E+00
 -1      6833 1.60496E+01
 -1      6834 1.61311E+01
 -1      6835 2.13142E+01
 -1      6836 2.25352E+01
 -1      6837 2.72283E+01
 -1      6838 2.34848E+01
 -1      6839 2.68915E+01
 -1      6840 1.58952E+01
 -1      6841 2.23809E+01
 -1      6842 1.60626E+01
 -1      6843 1.72504E+01
 -1      6844 1.99612E+01
 -1      6845 2.31460E+01
 -1      6846 2.55241E+01
 -1      6847 2.82348E+01
 -1      6848 2.23392E+01
 -1      6849 1.56106E+01
 -1      6850 1.58551E+01
 -1      6851 2.37315E+01
 -1      6852 2.52111E+01
 -1      6853 2.46339E+01
 -1      6854 1.54242E+01
 -1      6855 1.53607E+01
 -1      6856 2.59260E+01
 -1      6857 1.68021E+01
 -1      6858 1.91513E+01
 -1      6859 7.97223E+00
 -1      6860 7.79076E+00
 -1      6861 7.67648E+00
 -1      6862 7.14153E+00
 -1      6863 1.92860E+01
 -1      6864 1.45469E+01
 -1      6865 1.60230E+01
 -1      6866 9.09852E+00
 -1      6867 1.59795E+01
 -1      6868 1.72901E+01
 -1      6869 9.34461E+00
 -1      6870 1.99446E+01
 -1      6871 1.94545E+01
 -1      6872 8.42427E+00
 -1      6873 1.90243E+01
 -1      6874 1.46342E+01
 -1      6875 9.82683E+00
 -1      6876 1.40278E+01
 -1      6877 8.92582E+00
 -1      6878 1.17774E+01
 -1      6879 1.68794E+01
 -1      6880 2.45445E+01
 -1      6881 2.45548E+01
 -1      6882 8.27100E+00
 -1      6883 8.27100E+00
 -1      6884 9.83479E+00
 -1      6885 1.99446E+01
 -1      6886 7.23243E+00
 -1      6887 1.63499E+01
 -1      6888 1.63852E+01
 -1      6889 2.46750E+01
 -1      6890 1.91276E+01
 -1      6891 8.76033E+00
 -1      6892 2.79745E+01
 -1      6893 2.65150E+01
 -1      6894 6.66544E+00
 -1      6895 7.48018E+00
 -1      6896 7.10013E+00
 -1      6897 8.52055E+00
 -1      6898 2.92100E+01
 -1      6899 2.99995E+01
 -1      6900 2.23809E+01
 -1      6901 1.82992E+01
 -1      6902 1.82992E+01
 -1      6903 8.91446E+00
 -1      6904 2.28432E+01
 -1      6905 1.67040E+01
 -1      6906 2.46060E+01
 -1      6907 2.47212E+01
 -1      6908 1.05664E+01
 -1      6909 1.50521E+01
 -1      6910 1.50762E+01
 -1      6911 2.89004E+01
 -1      6912 2.53416E+01
 -1      6913 6.92610E+00
 -1      6914 2.85397E+01
 -1      6915 2.86246E+01
 -1      6916 7.89108E+00
 -1      6917 7.60434E+00
 -1      6918 2.40538E+01
 -1      6919 2.35642E+01
 -1      6920 2.40284E+01
 -1      6921 1.48303E+01
 -1      6922 8.71327E+00
 -1      6923 1.58068E+01
 -1      6924 9.41436E+00
 -1      6925 1.62532E+01
 -1      6926 1.58332E+01
 -1      6927 8.47528E+00
 -1      6928 1.46255E+01
 -1      6929 5.37810E+00
 -1      6930 5.39230E+00
 -1      6931 6.87679E+00
 -1      6932 6.87679E+00
 -1      6933 6.53550E+00
 -1      6934 9.06751E+00
 -1      6935 2.29202E+01
 -1      6936 1.39994E+01
 -1      6937 1.59499E+01
 -1      6938 1.72623E+01
 -1      6939 2.83340E+01
 -1      6940 2.49090E+01
 -1      6941 2.56104E+01
 -1      6942 1.78728E+01
 -1      6943 7.37980E+00
 -1      6944 8.71722E+00
 -1      6945 1.55561E+01
 -1      6946 2.75809E+01
 -1      6947 2.85982E+01
 -1      6948 2.87393E+01
 -1      6949 2.63902E+01
 -1      6950 2.74075E+01
 -1      6951 1.70650E+01
 -1      6952 1.51145E+01
 -1      6953 1.79700E+01
 -1      6954 1.77844E+01
 -1      6955 2.20286E+01
 -1      6956 2.33162E+01
 -1      6957 1.55397E+01
 -1      6958 2.18220E+01
 -1      6959 2.09210E+01
 -1      6960 2.37725E+01
 -1      6961 7.18042E+00
 -1      6962 6.90629E+00
 -1      6963 1.13153E+01
 -1      6964 1.19277E+01
 -1      6965 6.87388E+00
 -1      6966 7.87497E+00
 -1      6967 8.48743E+00
 -1      6968 9.25541E+00
 -1      6969 7.87302E+00
 -1      6970 9.33066E+00
 -1      6971 8.57922E+00
 -1      6972 7.33671E+00
 -1      6973 8.16566E+00
 -1      6974 2.95803E+01
 -1      6975 2.46376E+01
 -1      6976 2.43175E+01
 -1      6977 2.66958E+01
 -1      6978 2.75289E+01
 -1      6979 2.92594E+01
 -1      6980 2.85462E+01
 -1      6981 2.68157E+01
 -1      6982 1.83092E+01
 -1      6983 1.83092E+01
 -1      6984 1.02707E+01
 -1      6985 1.40343E+01
 -1      6986 9.50080E+00
 -1      6987 1.56987E+01
 -1      6988 1.54029E+01
 -1      6989 4.73720E+00
 -1      6990 7.19049E+00
 -1      6991 7.89405E+00
 -1      6992 9.82524E+00
 -1      6993 1.97016E+01
 -1      6994 2.43175E+01
 -1      6995 2.46113E+01
 -1      6996 1.78612E+01
 -1      6997 7.12756E+00
 -1      6998 7.39813E+00
 -1      6999 7.03097E+00
 -1      7000 9.06124E+00
 -1      7001 6.96433E+00
 -1      7002 7.23374E+00
 -1      7003 2.28038E+01
 -1      7004 2.28712E+01
 -1      7005 1.73012E+01
 -1      7006 1.63106E+01
 -1      7007 1.58454E+01
 -1      7008 1.93527E+01
 -1      7009 2.40564E+01
 -1      7010 1.63672E+01
 -1      7011 2.18833E+01
 -1      7012 2.98616E+01
 -1      7013 2.98616E+01
 -1      7014 2.96882E+01
 -1      7015 7.23317E+00
 -1      7016 7.30894E+00
 -1      7017 2.57326E+01
 -1      7018 1.61749E+01
 -1      7019 9.33703E+00
 -1      7020 9.47185E+00
 -1      7021 1.95113E+01
 -1      7022 1.96461E+01
 -1      7023 1.99675E+01
 -1      7024 2.99269E+01
 -1      7025 3.01507E+01
 -1      7026 2.95516E+01
 -1      7027 6.96088E+00
 -1      7028 1.46054E+01
 -1      7029 7.87421E+00
 -1      7030 6.62616E+00
 -1      7031 2.15762E+01
 -1      7032 8.55590E+00
 -1      7033 1.88897E+01
 -1      7034 2.57572E+01
 -1      7035 2.81481E+01
 -1      7036 2.84042E+01
 -1      7037 2.87152E+01
 -1      7038 1.51883E+01
 -1      7039 1.81859E+01
 -1      7040 1.62159E+01
 -1      7041 1.61354E+01
 -1      7042 8.16140E+00
 -1      7043 1.67065E+01
 -1      7044 1.75844E+01
 -1      7045 1.84894E+01
 -1      7046 2.38575E+01
 -1      7047 2.05757E+01
 -1      7048 1.48045E+01
 -1      7049 8.92760E+00
 -1      7050 1.44742E+01
 -1      7051 1.44468E+01
 -1      7052 1.58651E+01
 -1      7053 2.85707E+01
 -1      7054 2.89548E+01
 -1      7055 2.95832E+01
 -1      7056 2.84824E+01
 -1      7057 2.90312E+01
 -1      7058 8.21381E+00
 -1      7059 8.44065E+00
 -1      7060 7.42644E+00
 -1      7061 7.51916E+00
 -1      7062 7.43943E+00
 -1      7063 2.94354E+01
 -1      7064 3.02389E+01
 -1      7065 1.48635E+01
 -1      7066 2.42567E+01
 -1      7067 2.31416E+01
 -1      7068 8.69074E+00
 -1      7069 6.87065E+00
 -1      7070 8.61497E+00
 -1      7071 2.00409E+01
 -1      7072 2.00409E+01
 -1      7073 1.57899E+01
 -1      7074 1.65758E+01
 -1      7075 2.46743E+01
 -1      7076 2.25919E+01
 -1      7077 2.41211E+01
 -1      7078 2.44899E+01
 -1      7079 6.95303E+00
 -1      7080 6.39069E+00
 -1      7081 6.78859E+00
 -1      7082 8.71722E+00
 -1      7083 2.33900E+01
 -1      7084 2.33900E+01
 -1      7085 1.56395E+01
 -1      7086 7.99498E+00
 -1      7087 2.38713E+01
 -1      7088 1.93046E+01
 -1      7089 1.93046E+01
 -1      7090 1.64488E+01
 -1      7091 1.69095E+01
 -1      7092 9.43323E+00
 -1      7093 1.57899E+01
 -1      7094 2.94990E+01
 -1      7095 2.95176E+01
 -1      7096 1.62565E+01
 -1      7097 1.65724E+01
 -1      7098 1.48992E+01
 -1      7099 1.57895E+01
 -1      7100 4.93612E+00
 -1      7101 7.08001E+00
 -1      7102 3.01507E+01
 -1      7103 2.58717E+01
 -1      7104 2.60596E+01
 -1      7105 2.54669E+01
 -1      7106 2.55000E+01
 -1      7107 6.57911E+00
 -1      7108 8.71722E+00
 -1      7109 2.81743E+01
 -1      7110 2.68736E+01
 -1      7111 2.75076E+01
 -1      7112 1.86311E+01
 -1      7113 1.47812E+01
 -1      7114 1.69217E+01
 -1      7115 1.92999E+01
 -1      7116 2.93604E+01
 -1      7117 1.08513E+01
 -1      7118 6.40993E+00
 -1      7119 2.29640E+01
 -1      7120 2.29640E+01
 -1      7121 1.97893E+01
 -1      7122 6.54090E+00
 -1      7123 6.36573E+00
 -1      7124 2.51909E+01
 -1      7125 2.51909E+01
 -1      7126 2.46137E+01
 -1      7127 2.85094E+01
 -1      7128 3.08875E+01
 -1      7129 2.53755E+01
 -1      7130 2.78371E+01
 -1      7131 2.80932E+01
 -1      7132 6.90891E+00
 -1      7133 7.01942E+00
 -1      7134 2.12231E+01
 -1      7135 2.32579E+01
 -1      7136 2.32493E+01
 -1      7137 1.96220E+01
 -1      7138 2.90856E+01
 -1      7139 3.00434E+01
 -1      7140 3.14622E+01
 -1      7141 1.59202E+01
 -1      7142 1.60018E+01
 -1      7143 7.40216E+00
 -1      7144 7.39347E+00
 -1      7145 2.94018E+01
 -1      7146 2.75753E+01
 -1      7147 2.28780E+01
 -1      7148 2.25618E+01
 -1      7149 7.95114E+00
 -1      7150 1.19036E+01
 -1      7151 6.31268E+00
 -1      7152 1.20200E+01
 -1      7153 1.02831E+01
 -1      7154 1.69420E+01
 -1      7155 1.01016E+01
 -1      7156 2.98603E+01
 -1      7157 5.82203E+00
 -1      7158 2.98593E+01
 -1      7159 2.87430E+01
 -1      7160 5.54768E+00
 -1      7161 1.54759E+01
 -1      7162 1.59221E+01
 -1      7163 1.69072E+01
 -1      7164 2.30620E+01
 -1      7165 2.53619E+01
 -1      7166 2.58048E+01
 -1      7167 2.43426E+01
 -1      7168 7.46424E+00
 -1      7169 7.45245E+00
 -1      7170 7.38816E+00
 -1      7171 1.93527E+01
 -1      7172 8.82624E+00
 -1      7173 1.70769E+01
 -1      7174 2.37283E+01
 -1      7175 1.70113E+01
 -1      7176 2.20262E+01
 -1      7177 3.01417E+01
 -1      7178 2.98616E+01
 -1      7179 1.72950E+01
 -1      7180 6.40894E+00
 -1      7181 6.80684E+00
 -1      7182 2.26459E+01
 -1      7183 2.29471E+01
 -1      7184 2.28908E+01
 -1      7185 1.82345E+01
 -1      7186 2.49638E+01
 -1      7187 2.48421E+01
 -1      7188 1.43441E+01
 -1      7189 1.55812E+01
 -1      7190 1.67145E+01
 -1      7191 1.46901E+01
 -1      7192 5.92391E+00
 -1      7193 7.14887E+00
 -1      7194 1.36076E+01
 -1      7195 8.70089E+00
 -1      7196 2.47297E+01
 -1      7197 6.65228E+00
 -1      7198 2.86106E+01
 -1      7199 9.50558E+00
 -1      7200 2.35655E+01
 -1      7201 2.32432E+01
 -1      7202 1.52435E+01
 -1      7203 9.16432E+00
 -1      7204 2.78602E+01
 -1      7205 1.83341E+01
 -1      7206 2.84028E+01
 -1      7207 2.56201E+01
 -1      7208 2.50429E+01
 -1      7209 2.65388E+01
 -1      7210 5.89842E+00
 -1      7211 5.95364E+00
 -1      7212 7.53992E+00
 -1      7213 7.53992E+00
 -1      7214 7.48470E+00
 -1      7215 2.97407E+01
 -1      7216 2.88756E+01
 -1      7217 2.87152E+01
 -1      7218 2.88756E+01
 -1      7219 2.95803E+01
 -1      7220 8.11641E+00
 -1      7221 2.29339E+01
 -1      7222 2.58540E+01
 -1      7223 3.02470E+01
 -1      7224 8.19724E+00
 -1      7225 1.29321E+01
 -1      7226 7.81932E+00
 -1      7227 2.95516E+01
 -1      7228 2.99584E+01
 -1      7229 2.81500E+01
 -1      7230 2.81500E+01
 -1      7231 1.51204E+01
 -1      7232 1.64596E+01
 -1      7233 2.10380E+01
 -1      7234 1.59957E+01
 -1      7235 1.30100E+01
 -1      7236 1.28558E+01
 -1      7237 2.63106E+01
 -1      7238 2.86997E+01
 -1      7239 2.95417E+01
 -1      7240 2.67685E+01
 -1      7241 1.96873E+01
 -1      7242 2.15175E+01
 -1      7243 2.44143E+01
 -1      7244 2.81745E+01
 -1      7245 2.74845E+01
 -1      7246 1.66475E+01
 -1      7247 2.51237E+01
 -1      7248 1.35228E+01
 -1      7249 2.19045E+01
 -1      7250 1.74631E+01
 -1      7251 1.84642E+01
 -1      7252 2.78896E+01
 -1      7253 7.14887E+00
 -1      7254 7.81497E+00
 -1      7255 1.77917E+01
 -1      7256 3.01944E+01
 -1      7257 2.34462E+01
 -1      7258 7.44764E+00
 -1      7259 2.25352E+01
 -1      7260 2.26168E+01
 -1      7261 2.04664E+01
 -1      7262 2.53174E+01
 -1      7263 2.53669E+01
 -1      7264 2.49143E+01
 -1      7265 2.54616E+01
 -1      7266 2.27288E+01
 -1      7267 2.36736E+01
 -1      7268 7.11966E+00
 -1      7269 2.83501E+01
 -1      7270 2.64878E+01
 -1      7271 2.93055E+01
 -1      7272 2.50445E+01
 -1      7273 2.31666E+01
 -1      7274 7.10957E+00
 -1      7275 5.89558E+00
 -1      7276 7.95114E+00
 -1      7277 2.36216E+01
 -1      7278 2.28838E+01
 -1      7279 2.95759E+01
 -1      7280 2.99995E+01
 -1      7281 2.20646E+01
 -1      7282 2.48304E+01
 -1      7283 2.32312E+01
 -1      7284 2.30759E+01
 -1      7285 2.31354E+01
 -1      7286 2.54999E+01
 -1      7287 7.38330E+00
 -1      7288 1.63691E+01
 -1      7289 1.08513E+01
 -1      7290 1.19277E+01
 -1      7291 2.95680E+01
 -1      7292 3.00807E+01
 -1      7293 2.83739E+01
 -1      7294 2.87555E+01
 -1      7295 2.99497E+01
 -1      7296 8.25155E+00
 -1      7297 8.14923E+00
 -1      7298 8.97120E+00
 -1      7299 8.97120E+00
 -1      7300 9.07352E+00
 -1      7301 8.89370E+00
 -1      7302 2.60179E+01
 -1      7303 2.20569E+01
 -1      7304 8.35388E+00
 -1      7305 9.07352E+00
 -1      7306 7.30518E+00
 -1      7307 6.88685E+00
 -1      7308 7.43541E+00
 -1      7309 1.58396E+01
 -1      7310 1.62858E+01
 -1      7311 2.27749E+01
 -1      7312 6.79312E+00
 -1      7313 6.80157E+00
 -1      7314 1.64552E+01
 -1      7315 7.61923E+00
 -1      7316 7.31347E+00
 -1      7317 8.85855E+00
 -1      7318 1.80006E+01
 -1      7319 1.04058E+01
 -1      7320 1.69664E+01
 -1      7321 2.46718E+01
 -1      7322 1.81112E+01
 -1      7323 9.49408E+00
 -1      7324 2.22747E+01
 -1      7325 8.76759E+00
 -1      7326 9.46054E+00
 -1      7327 9.50081E+00
 -1      7328 1.73297E+01
 -1      7329 1.58079E+01
 -1      7330 1.64579E+01
 -1      7331 9.40599E+00
 -1      7332 1.60093E+01
 -1      7333 1.15195E+01
 -1      7334 1.52955E+01
 -1      7335 1.65460E+01
 -1      7336 1.94728E+01
 -1      7337 8.67077E+00
 -1      7338 2.89501E+01
 -1      7339 2.82600E+01
 -1      7340 2.74845E+01
 -1      7341 2.27386E+01
 -1      7342 1.99883E+01
 -1      7343 1.99883E+01
 -1      7344 9.13223E+00
 -1      7345 1.92857E+01
 -1      7346 2.39059E+01
 -1      7347 7.51296E+00
 -1      7348 9.17338E+00
 -1      7349 2.50713E+01
 -1      7350 2.45639E+01
 -1      7351 5.63424E+00
 -1      7352 2.89352E+01
 -1      7353 2.85982E+01
 -1      7354 3.00936E+01
 -1      7355 2.99618E+01
 -1      7356 2.96247E+01
 -1      7357 2.84664E+01
 -1      7358 2.46595E+01
 -1      7359 2.66126E+01
 -1      7360 2.74450E+01
 -1      7361 2.87406E+01
 -1      7362 2.29310E+01
 -1      7363 2.29310E+01
 -1      7364 2.38395E+01
 -1      7365 3.04014E+01
 -1      7366 2.38395E+01
 -1      7367 2.59739E+01
 -1      7368 2.58789E+01
 -1      7369 2.51588E+01
 -1      7370 2.51588E+01
 -1      7371 1.70490E+01
 -1      7372 1.59439E+01
 -1      7373 9.15447E+00
 -1      7374 2.34975E+01
 -1      7375 2.90856E+01
 -1      7376 3.14622E+01
 -1      7377 2.45557E+01
 -1      7378 2.45557E+01
 -1      7379 2.60653E+01
 -1      7380 2.48895E+01
 -1      7381 2.48895E+01
 -1      7382 7.77185E+00
 -1      7383 7.25954E+00
 -1      7384 1.63708E+01
 -1      7385 2.40816E+01
 -1      7386 1.91297E+01
 -1      7387 2.40640E+01
 -1      7388 6.60616E+00
 -1      7389 6.46483E+00
 -1      7390 6.30039E+00
 -1      7391 7.08224E+00
 -1      7392 1.09389E+01
 -1      7393 1.17940E+01
 -1      7394 1.09389E+01
 -1      7395 5.83560E+00
 -1      7396 7.47710E+00
 -1      7397 1.58242E+01
 -1      7398 1.63708E+01
 -1      7399 1.58510E+01
 -1      7400 1.46992E+01
 -1      7401 2.76274E+01
 -1      7402 5.01477E+00
 -1      7403 6.38106E+00
 -1      7404 2.45355E+01
 -1      7405 2.58353E+01
 -1      7406 2.41606E+01
 -1      7407 1.67765E+01
 -1      7408 2.23409E+01
 -1      7409 2.53902E+01
 -1      7410 2.74659E+01
 -1      7411 2.19015E+01
 -1      7412 2.48500E+01
 -1      7413 2.52443E+01
 -1      7414 1.82814E+01
 -1      7415 1.50965E+01
 -1      7416 1.67467E+01
 -1      7417 1.64623E+01
 -1      7418 2.35727E+01
 -1      7419 2.69472E+01
 -1      7420 2.95205E+01
 -1      7421 2.95245E+01
 -1      7422 3.01507E+01
 -1      7423 2.94283E+01
 -1      7424 1.68437E+01
 -1      7425 2.12851E+01
 -1      7426 2.25863E+01
 -1      7427 1.77299E+01
 -1      7428 1.84213E+01
 -1      7429 2.76507E+01
 -1      7430 7.96440E+00
 -1      7431 9.05824E+00
 -1      7432 6.74230E+00
 -1      7433 8.87434E+00
 -1      7434 8.82624E+00
 -1      7435 8.07308E+00
 -1      7436 1.35576E+01
 -1      7437 8.44476E+00
 -1      7438 2.84848E+01
 -1      7439 2.84848E+01
 -1      7440 7.18328E+00
 -1      7441 8.89196E+00
 -1      7442 2.54675E+01
 -1      7443 1.60845E+01
 -1      7444 2.12335E+01
 -1      7445 1.60468E+01
 -1      7446 2.02946E+01
 -1      7447 1.36740E+01
 -1      7448 1.60022E+01
 -1      7449 7.04605E+00
 -1      7450 2.42567E+01
 -1      7451 7.13411E+00
 -1      7452 2.41603E+01
 -1      7453 2.57594E+01
 -1      7454 2.81743E+01
 -1      7455 2.55733E+01
 -1      7456 1.72155E+01
 -1      7457 8.45254E+00
 -1      7458 8.46014E+00
 -1      7459 9.54432E+00
 -1      7460 1.66464E+01
 -1      7461 3.04599E+01
 -1      7462 3.04599E+01
 -1      7463 2.98611E+01
 -1      7464 2.50228E+01
 -1      7465 2.45827E+01
 -1      7466 2.51334E+01
 -1      7467 2.42316E+01
 -1      7468 9.45413E+00
 -1      7469 1.68549E+01
 -1      7470 2.87211E+01
 -1      7471 2.27138E+01
 -1      7472 1.92888E+01
 -1      7473 2.27138E+01
 -1      7474 2.52960E+01
 -1      7475 1.95507E+01
 -1      7476 2.82792E+01
 -1      7477 2.93057E+01
 -1      7478 1.80678E+01
 -1      7479 1.70026E+01
 -1      7480 2.20801E+01
 -1      7481 2.65194E+01
 -1      7482 1.64787E+01
 -1      7483 8.76118E+00
 -1      7484 9.91809E+00
 -1      7485 2.88756E+01
 -1      7486 2.87152E+01
 -1      7487 6.16948E+00
 -1      7488 6.49811E+00
 -1      7489 7.17056E+00
 -1      7490 2.58160E+01
 -1      7491 2.55105E+01
 -1      7492 2.49313E+01
 -1      7493 2.48500E+01
 -1      7494 1.57044E+01
 -1      7495 1.57990E+01
 -1      7496 7.59459E+00
 -1      7497 7.58590E+00
 -1      7498 1.70374E+01
 -1      7499 1.58541E+01
 -1      7500 1.92620E+01
 -1      7501 8.17011E+00
 -1      7502 8.17011E+00
 -1      7503 8.99208E+00
 -1      7504 2.48692E+01
 -1      7505 7.15332E+00
 -1      7506 6.32437E+00
 -1      7507 2.77982E+01
 -1      7508 3.03805E+01
 -1      7509 2.44005E+01
 -1      7510 2.18095E+01
 -1      7511 1.61573E+01
 -1      7512 1.65263E+01
 -1      7513 1.49036E+01
 -1      7514 1.16673E+01
 -1      7515 6.08661E+00
 -1      7516 1.21820E+01
 -1      7517 1.02833E+01
 -1      7518 1.58640E+01
 -1      7519 2.45157E+01
 -1      7520 2.25488E+01
 -1      7521 1.62320E+01
 -1      7522 3.01944E+01
 -1      7523 2.58540E+01
 -1      7524 2.44005E+01
 -1      7525 2.71850E+01
 -1      7526 1.93474E+01
 -1      7527 1.70761E+01
 -1      7528 9.09336E+00
 -1      7529 7.38467E+00
 -1      7530 6.14806E+00
 -1      7531 6.75454E+00
 -1      7532 2.61688E+01
 -1      7533 9.49620E+00
 -1      7534 6.03137E+00
 -1      7535 1.07699E+01
 -1      7536 1.10879E+01
 -1      7537 2.92824E+01
 -1      7538 3.23316E+01
 -1      7539 1.68574E+01
 -1      7540 1.64277E+01
 -1      7541 9.05028E+00
 -1      7542 1.11381E+01
 -1      7543 1.49947E+01
 -1      7544 2.56205E+01
 -1      7545 7.54931E+00
 -1      7546 2.55739E+01
 -1      7547 2.97407E+01
 -1      7548 3.04453E+01
 -1      7549 1.92356E+01
 -1      7550 1.55557E+01
 -1      7551 1.60178E+01
 -1      7552 2.50874E+01
 -1      7553 8.32368E+00
 -1      7554 8.53872E+00
 -1      7555 8.70653E+00
 -1      7556 8.70653E+00
 -1      7557 1.92379E+01
 -1      7558 5.61873E+00
 -1      7559 6.41482E+00
 -1      7560 2.95863E+01
 -1      7561 3.01944E+01
 -1      7562 3.03333E+01
 -1      7563 2.98603E+01
 -1      7564 6.91881E+00
 -1      7565 6.91881E+00
 -1      7566 5.46214E+00
 -1      7567 7.46409E+00
 -1      7568 7.46409E+00
 -1      7569 8.37250E+00
 -1      7570 2.83897E+01
 -1      7571 2.82588E+01
 -1      7572 2.59910E+01
 -1      7573 2.48151E+01
 -1      7574 1.46884E+01
 -1      7575 1.35070E+01
 -1      7576 1.79474E+01
 -1      7577 2.55020E+01
 -1      7578 3.05512E+01
 -1      7579 2.89372E+01
 -1      7580 2.97566E+01
 -1      7581 2.84009E+01
 -1      7582 5.42012E+00
 -1      7583 2.90567E+01
 -1      7584 2.90041E+01
 -1      7585 1.97941E+01
 -1      7586 5.03891E+00
 -1      7587 2.55739E+01
 -1      7588 8.65843E+00
 -1      7589 2.91923E+01
 -1      7590 8.65528E+00
 -1      7591 7.00348E+00
 -1      7592 9.12673E+00
 -1      7593 1.10255E+01
 -1      7594 1.52221E+01
 -1      7595 2.97823E+01
 -1      7596 1.77166E+01
 -1      7597 2.79066E+01
 -1      7598 2.51220E+01
 -1      7599 2.43729E+01
 -1      7600 2.72326E+01
 -1      7601 2.93748E+01
 -1      7602 2.94965E+01
 -1      7603 3.02142E+01
 -1      7604 2.08844E+01
 -1      7605 3.00320E+01
 -1      7606 2.12275E+01
 -1      7607 2.89643E+01
 -1      7608 2.01598E+01
 -1      7609 1.69280E+01
 -1      7610 1.83341E+01
 -1      7611 7.00286E+00
 -1      7612 7.36422E+00
 -1      7613 2.33810E+01
 -1      7614 2.33810E+01
 -1      7615 2.40492E+01
 -1      7616 2.48500E+01
 -1      7617 2.52443E+01
 -1      7618 1.80217E+01
 -1      7619 1.68311E+01
 -1      7620 8.65843E+00
 -1      7621 1.80458E+01
 -1      7622 1.80458E+01
 -1      7623 4.96611E+00
 -1      7624 9.90496E+00
 -1      7625 2.42226E+01
 -1      7626 2.38395E+01
 -1      7627 2.45077E+01
 -1      7628 3.10431E+01
 -1      7629 2.36479E+01
 -1      7630 2.61635E+01
 -1      7631 2.23259E+01
 -1      7632 1.62739E+01
 -1      7633 7.38563E+00
 -1      7634 1.57401E+01
 -1      7635 1.89991E+01
 -1      7636 6.87325E+00
 -1      7637 9.40462E+00
 -1      7638 1.88019E+01
 -1      7639 1.90803E+01
 -1      7640 1.03801E+01
 -1      7641 1.97773E+01
 -1      7642 7.57796E+00
 -1      7643 1.29539E+01
 -1      7644 2.94411E+01
 -1      7645 5.24711E+00
 -1      7646 6.39165E+00
 -1      7647 1.11795E+01
 -1      7648 1.23240E+01
 -1      7649 1.04368E+01
 -1      7650 1.41115E+01
 -1      7651 1.60900E+01
 -1      7652 7.29443E+00
 -1      7653 7.11994E+00
 -1      7654 9.66068E+00
 -1      7655 1.55698E+01
 -1      7656 1.86323E+01
 -1      7657 2.51631E+01
 -1      7658 2.50429E+01
 -1      7659 8.06600E+00
 -1      7660 7.68808E+00
 -1      7661 7.66619E+00
 -1      7662 7.46009E+00
 -1      7663 1.85836E+01
 -1      7664 1.45571E+01
 -1      7665 1.86487E+01
 -1      7666 6.73307E+00
 -1      7667 2.48152E+01
 -1      7668 2.55684E+01
 -1      7669 2.51389E+01
 -1      7670 2.47211E+01
 -1      7671 1.73787E+01
 -1      7672 1.76183E+01
 -1      7673 9.45457E+00
 -1      7674 1.74149E+01
 -1      7675 1.78244E+01
 -1      7676 9.86405E+00
 -1      7677 8.37364E+00
 -1      7678 2.57069E+01
 -1      7679 2.86337E+01
 -1      7680 7.18267E+00
 -1      7681 6.88006E+00
 -1      7682 1.63440E+01
 -1      7683 1.52048E+01
 -1      7684 8.43839E+00
 -1      7685 1.93456E+01
 -1      7686 2.94018E+01
 -1      7687 2.75753E+01
 -1      7688 2.73180E+01
 -1      7689 2.52443E+01
 -1      7690 2.09210E+01
 -1      7691 2.18220E+01
 -1      7692 1.67100E+01
 -1      7693 1.70508E+01
 -1      7694 1.67724E+01
 -1      7695 2.64481E+01
 -1      7696 2.98310E+01
 -1      7697 2.85462E+01
 -1      7698 2.58425E+01
 -1      7699 2.25919E+01
 -1      7700 2.25919E+01
 -1      7701 2.59166E+01
 -1      7702 2.48151E+01
 -1      7703 2.59548E+01
 -1      7704 2.60672E+01
 -1      7705 2.49623E+01
 -1      7706 2.49623E+01
 -1      7707 2.57688E+01
 -1      7708 2.54320E+01
 -1      7709 9.26330E+00
 -1      7710 1.59392E+01
 -1      7711 1.59212E+01
 -1      7712 1.92468E+01
 -1      7713 7.21996E+00
 -1      7714 2.60291E+01
 -1      7715 1.12501E+01
 -1      7716 1.54972E+01
 -1      7717 8.59462E+00
 -1      7718 2.59620E+01
 -1      7719 2.54881E+01
 -1      7720 2.55693E+01
 -1      7721 2.56341E+01
 -1      7722 2.66324E+01
 -1      7723 2.93459E+01
 -1      7724 2.69139E+01
 -1      7725 1.01327E+01
 -1      7726 6.86946E+00
 -1      7727 9.24169E+00
 -1      7728 3.00807E+01
 -1      7729 3.12749E+01
 -1      7730 8.04501E+00
 -1      7731 2.64293E+01
 -1      7732 1.38667E+01
 -1      7733 1.51329E+01
 -1      7734 8.06600E+00
 -1      7735 7.68808E+00
 -1      7736 1.50169E+01
 -1      7737 1.92165E+01
 -1      7738 7.49878E+00
 -1      7739 7.47498E+00
 -1      7740 6.54901E+00
 -1      7741 1.59733E+01
 -1      7742 2.99984E+01
 -1      7743 2.17807E+01
 -1      7744 7.90549E+00
 -1      7745 6.59820E+00
 -1      7746 1.80672E+01
 -1      7747 1.83773E+01
 -1      7748 2.60268E+01
 -1      7749 2.56341E+01
 -1      7750 2.76274E+01
 -1      7751 2.48363E+01
 -1      7752 7.49984E+00
 -1      7753 1.62227E+01
 -1      7754 1.38052E+01
 -1      7755 7.48209E+00
 -1      7756 6.38356E+00
 -1      7757 8.61080E+00
 -1      7758 1.76570E+01
 -1      7759 1.76570E+01
 -1      7760 8.23229E+00
 -1      7761 2.36809E+01
 -1      7762 2.42316E+01
 -1      7763 8.23229E+00
 -1      7764 3.04453E+01
 -1      7765 3.11312E+01
 -1      7766 1.63865E+01
 -1      7767 8.33500E+00
 -1      7768 8.47633E+00
 -1      7769 8.39177E+00
 -1      7770 9.39689E+00
 -1      7771 6.92537E+00
 -1      7772 7.12677E+00
 -1      7773 2.36378E+01
 -1      7774 2.97407E+01
 -1      7775 2.56534E+01
 -1      7776 2.56534E+01
 -1      7777 9.29612E+00
 -1      7778 1.49404E+01
 -1      7779 3.08513E+01
 -1      7780 1.66367E+01
 -1      7781 1.07020E+01
 -1      7782 1.47471E+01
 -1      7783 2.62466E+01
 -1      7784 2.65150E+01
 -1      7785 2.72613E+01
 -1      7786 1.49978E+01
 -1      7787 2.56534E+01
 -1      7788 1.48743E+01
 -1      7789 2.88057E+01
 -1      7790 6.66584E+00
 -1      7791 6.33720E+00
 -1      7792 1.90540E+01
 -1      7793 1.47074E+01
 -1      7794 1.63877E+01
 -1      7795 6.12503E+00
 -1      7796 1.82597E+01
 -1      7797 1.88695E+01
 -1      7798 1.63783E+01
 -1      7799 7.52387E+00
 -1      7800 6.86984E+00
 -1      7801 2.46376E+01
 -1      7802 8.17804E+00
 -1      7803 7.86002E+00
 -1      7804 6.85020E+00
 -1      7805 2.08450E+01
 -1      7806 2.99429E+01
 -1      7807 2.06068E+01
 -1      7808 3.02069E+01
 -1      7809 2.86603E+01
 -1      7810 1.49049E+01
 -1      7811 1.58370E+01
 -1      7812 2.85171E+01
 -1      7813 2.97623E+01
 -1      7814 2.87472E+01
 -1      7815 2.87472E+01
 -1      7816 2.75021E+01
 -1      7817 1.96840E+01
 -1      7818 2.07106E+01
 -1      7819 2.37828E+01
 -1      7820 7.18516E+00
 -1      7821 8.17011E+00
 -1      7822 2.95245E+01
 -1      7823 1.57295E+01
 -1      7824 2.82713E+01
 -1      7825 2.66873E+01
 -1      7826 2.73497E+01
 -1      7827 2.73497E+01
 -1      7828 9.70728E+00
 -1      7829 3.01387E+01
 -1      7830 3.01387E+01
 -1      7831 8.39177E+00
 -1      7832 7.59765E+00
 -1      7833 3.13098E+01
 -1      7834 2.29307E+01
 -1      7835 8.33500E+00
 -1      7836 8.47633E+00
 -1      7837 1.14596E+01
 -1      7838 8.41071E+00
 -1      7839 3.12014E+01
 -1      7840 2.67178E+01
 -1      7841 6.56790E+00
 -1      7842 7.34476E+00
 -1      7843 1.74697E+01
 -1      7844 8.20984E+00
 -1      7845 1.70913E+01
 -1      7846 2.46579E+01
 -1      7847 2.67933E+01
 -1      7848 7.63248E+00
 -1      7849 2.90567E+01
 -1      7850 1.16473E+01
 -1      7851 2.02609E+01
 -1      7852 2.43590E+01
 -1      7853 2.44445E+01
 -1      7854 3.02470E+01
 -1      7855 2.97950E+01
 -1      7856 2.96882E+01
 -1      7857 6.95032E+00
 -1      7858 1.47083E+01
 -1      7859 2.29293E+01
 -1      7860 2.56226E+01
 -1      7861 1.63440E+01
 -1      7862 2.64878E+01
 -1      7863 7.70984E+00
 -1      7864 7.70984E+00
 -1      7865 2.54669E+01
 -1      7866 1.99979E+01
 -1      7867 1.11351E+01
 -1      7868 5.99539E+00
 -1      7869 6.73807E+00
 -1      7870 7.11617E+00
 -1      7871 6.22058E+00
 -1      7872 1.90853E+01
 -1      7873 2.99308E+01
 -1      7874 3.05465E+01
 -1      7875 3.11622E+01
 -1      7876 3.05465E+01
 -1      7877 3.05465E+01
 -1      7878 2.96451E+01
 -1      7879 3.04742E+01
 -1      7880 3.04742E+01
 -1      7881 3.13033E+01
 -1      7882 3.04742E+01
 -1      7883 1.47852E+01
 -1      7884 1.76087E+01
 -1      7885 1.60247E+01
 -1      7886 2.13471E+01
 -1      7887 2.41705E+01
 -1      7888 3.16702E+01
 -1      7889 3.02470E+01
 -1      7890 7.12411E+00
 -1      7891 3.01290E+01
 -1      7892 3.01290E+01
 -1      7893 3.11312E+01
 -1      7894 3.00807E+01
 -1      7895 2.35174E+01
 -1      7896 7.81765E+00
 -1      7897 7.50655E+00
 -1      7898 2.58591E+01
 -1      7899 2.92017E+01
 -1      7900 2.78602E+01
 -1      7901 2.62105E+01
 -1      7902 6.65343E+00
 -1      7903 2.74779E+01
 -1      7904 2.55383E+01
 -1      7905 2.68082E+01
 -1      7906 2.70383E+01
 -1      7907 2.62322E+01
 -1      7908 1.51145E+01
 -1      7909 1.58843E+01
 -1      7910 1.80468E+01
 -1      7911 2.61407E+01
 -1      7912 1.93780E+01
 -1      7913 7.13051E+00
 -1      7914 7.32331E+00
 -1      7915 7.33388E+00
 -1      7916 2.93057E+01
 -1      7917 3.02142E+01
 -1      7918 2.13894E+01
 -1      7919 3.29098E+01
 -1      7920 2.84262E+01
 -1      7921 3.12014E+01
 -1      7922 2.53809E+01
 -1      7923 8.35142E+00
 -1      7924 3.10431E+01
 -1      7925 3.02117E+01
 -1      7926 1.84070E+01
 -1      7927 3.16702E+01
 -1      7928 7.13482E+00
 -1      7929 1.57600E+01
 -1      7930 2.83340E+01
 -1      7931 2.83340E+01
 -1      7932 2.78602E+01
 -1      7933 1.14468E+01
 -1      7934 3.07757E+01
 -1      7935 3.11522E+01
 -1      7936 1.09635E+01
 -1      7937 1.06376E+01
 -1      7938 6.47392E+00
 -1      7939 1.62531E+01
 -1      7940 1.02206E+01
 -1      7941 2.56205E+01
 -1      7942 1.46976E+01
 -1      7943 2.21672E+01
 -1      7944 2.99429E+01
 -1      7945 3.08513E+01
 -1      7946 2.94511E+01
 -1      7947 2.89643E+01
 -1      7948 2.18220E+01
 -1      7949 2.07127E+01
 -1      7950 2.43144E+01
 -1      7951 2.54999E+01
 -1      7952 7.93543E+00
 -1      7953 2.79682E+01
 -1      7954 3.02069E+01
 -1      7955 3.04736E+01
 -1      7956 3.04736E+01
 -1      7957 3.10431E+01
 -1      7958 3.13098E+01
 -1      7959 2.51652E+01
 -1      7960 2.43855E+01
 -1      7961 5.22537E+00
 -1      7962 6.59783E+00
 -1      7963 2.81481E+01
 -1      7964 3.14622E+01
 -1      7965 2.31776E+01
 -1      7966 2.73086E+01
 -1      7967 2.52791E+01
 -1      7968 1.71787E+01
 -1      7969 2.40660E+01
 -1      7970 1.83341E+01
 -1      7971 6.91763E+00
 -1      7972 7.11617E+00
 -1      7973 6.22058E+00
 -1      7974 8.61835E+00
 -1      7975 1.84896E+01
 -1      7976 1.60659E+01
 -1      7977 1.73054E+01
 -1      7978 2.05015E+01
 -1      7979 1.89588E+01
 -1      7980 1.03470E+01
 -1      7981 9.59665E+00
 -1      7982 9.63201E+00
 -1      7983 1.74551E+01
 -1      7984 1.03824E+01
 -1      7985 9.63201E+00
 -1      7986 2.07977E+01
 -1      7987 2.19531E+01
 -1      7988 2.20569E+01
 -1      7989 1.69287E+01
 -1      7990 1.87921E+01
 -1      7991 2.47573E+01
 -1      7992 2.96909E+01
 -1      7993 3.02718E+01
 -1      7994 3.02718E+01
 -1      7995 3.00320E+01
 -1      7996 2.13954E+01
 -1      7997 2.22747E+01
 -1      7998 7.08001E+00
 -1      7999 1.04600E+01
 -1      8000 9.64325E+00
 -1      8001 1.76400E+01
 -1      8002 5.02034E+00
 -1      8003 2.60179E+01
 -1      8004 1.52169E+01
 -1      8005 7.04770E+00
 -1      8006 2.06998E+01
 -1      8007 2.25632E+01
 -1      8008 1.04174E+01
 -1      8009 9.64325E+00
 -1      8010 2.60648E+01
 -1      8011 2.56205E+01
 -1      8012 9.77643E+00
 -1      8013 1.00366E+01
 -1      8014 9.33385E+00
 -1      8015 9.33385E+00
 -1      8016 2.29293E+01
 -1      8017 7.17710E+00
 -1      8018 7.19963E+00
 -1      8019 3.04736E+01
 -1      8020 3.13098E+01
 -1      8021 2.00914E+01
 -1      8022 8.82457E+00
 -1      8023 6.91917E+00
 -1      8024 1.00539E+01
 -1      8025 9.43604E+00
 -1      8026 3.41481E+01
 -1      8027 3.23316E+01
 -1      8028 1.81432E+01
 -1      8029 2.95514E+01
 -1      8030 8.97226E+00
 -1      8031 9.92524E+00
 -1      8032 9.43604E+00
 -1      8033 2.55184E+01
 -1      8034 7.41972E+00
 -1      8035 8.27100E+00
 -1      8036 1.03438E+01
 -1      8037 7.37469E+00
 -1      8038 1.58379E+01
 -1      8039 4.83167E+00
 -1      8040 2.95514E+01
 -1      8041 3.03333E+01
 -1      8042 2.60648E+01
 -1      8043 8.42387E+00
 -1      8044 6.99373E+00
 -1      8045 2.43417E+01
 -1      8046 2.43417E+01
 -1      8047 1.56935E+01
 -1      8048 1.88896E+01
 -1      8049 2.94955E+01
 -1      8050 2.34319E+01
 -1      8051 2.46174E+01
 -1      8052 2.48863E+01
 -1      8053 2.38163E+01
 -1      8054 2.49130E+01
 -1      8055 2.56797E+01
 -1      8056 1.85197E+01
 -1      8057 2.27131E+01
 -1      8058 2.12847E+01
 -1      8059 2.35955E+01
 -1      8060 2.37887E+01
 -1      8061 2.16222E+01
 -1      8062 3.29686E+01
 -1      8063 3.29686E+01
 -1      8064 8.26171E+00
 -1      8065 9.63175E+00
 -1      8066 9.14255E+00
 -1      8067 9.90880E+00
 -1      8068 7.83636E+00
 -1      8069 9.13468E+00
 -1      8070 2.46922E+01
 -1      8071 2.35944E+01
 -1      8072 2.47498E+01
 -1      8073 7.71506E+00
 -1      8074 9.87076E+00
 -1      8075 9.12040E+00
 -1      8076 2.46356E+01
 -1      8077 2.35020E+01
 -1      8078 2.40573E+01
 -1      8079 2.46558E+01
 -1      8080 2.13732E+01
 -1      8081 2.28672E+01
 -1      8082 2.19285E+01
 -1      8083 7.88475E+00
 -1      8084 9.57062E+00
 -1      8085 9.12804E+00
 -1      8086 2.14816E+01
 -1      8087 2.29747E+01
 -1      8088 2.47212E+01
 -1      8089 9.57062E+00
 -1      8090 8.36100E+00
 -1      8091 6.16948E+00
 -1      8092 9.87076E+00
 -1      8093 8.57375E+00
 -1      8094 8.44977E+00
 -1      8095 9.90880E+00
 -1      8096 1.83343E+01
 -1      8097 1.56243E+01
 -1      8098 1.88896E+01
 -1      8099 6.45029E+00
 -1      8100 1.85197E+01
 -1      8101 9.63175E+00
 -1      8102 7.84721E+00
 -1      8103 7.78835E+00
 -1      8104 8.81726E+00
 -1      8105 7.28476E+00
 -1      8106 5.10445E+00
 -1      8107 6.19823E+00
 -1      8108 6.76333E+00
 -1      8109 2.07747E+01
 -1      8110 2.56205E+01
 -1      8111 1.71554E+01
 -1      8112 2.98844E+01
 -1      8113 3.08072E+01
 -1      8114 3.08072E+01
 -1      8115 2.93992E+01
 -1      8116 1.53202E+01
 -1      8117 3.02813E+01
 -1      8118 1.57114E+01
 -1      8119 3.05512E+01
 -1      8120 3.08791E+01
 -1      8121 3.08072E+01
 -1      8122 3.05152E+01
 -1      8123 2.99756E+01
 -1      8124 3.17920E+01
 -1      8125 3.17920E+01
 -1      8126 3.16514E+01
 -1      8127 3.17920E+01
 -1      8128 3.04708E+01
 -1      8129 1.87585E+01
 -1      8130 8.73410E+00
 -1      8131 8.50208E+00
 -1      8132 2.27922E+01
 -1      8133 3.09318E+01
 -1      8134 2.99584E+01
 -1      8135 9.73662E+00
 -1      8136 1.84662E+01
 -1      8137 7.90674E+00
 -1      8138 3.08867E+01
 -1      8139 3.04708E+01
 -1      8140 3.03287E+01
 -1      8141 2.94761E+01
 -1      8142 3.00067E+01
 -1      8143 3.04117E+01
 -1      8144 3.11453E+01
 -1      8145 3.11537E+01
 -1      8146 3.10142E+01
 -1      8147 3.04714E+01
 -1      8148 3.05380E+01
 -1      8149 3.16702E+01
 -3
 9999
