    1C
    1UUSER                                                              
    1UDATE              12.june.2025                                    
    1UTIME              18:00:41                                        
    1UHOST                                                              
    1UPGM               CalculiX                                        
    1UVERSION           Version 2.22                             
    1UCOMPILETIME       Mon Aug  5 19:15:25 CEST 2024                    
    1UDIR                                                               
    1UDBN                                                               
    1UMAT    1STEEL                                                     
    2C                          4681                                     1
 -1         1-3.49250E+01 6.35000E+01-9.52500E+00
 -1         2-4.12750E+01 5.71500E+01-9.52500E+00
 -1         3-4.12750E+01 5.71500E+01 9.52500E+00
 -1         4-3.49250E+01 6.35000E+01 9.52500E+00
 -1         5-4.12750E+01-5.71500E+01-9.52500E+00
 -1         6-3.49250E+01-6.35000E+01-9.52500E+00
 -1         7-3.49250E+01-6.35000E+01 9.52500E+00
 -1         8-4.12750E+01-5.71500E+01 9.52500E+00
 -1         9 4.12750E+01 5.71500E+01-9.52500E+00
 -1        10 3.49250E+01 6.35000E+01-9.52500E+00
 -1        11 3.49250E+01 6.35000E+01 9.52500E+00
 -1        12 4.12750E+01 5.71500E+01 9.52500E+00
 -1        13 3.49250E+01-6.35000E+01-9.52500E+00
 -1        14 4.12750E+01-5.71500E+01-9.52500E+00
 -1        15 4.12750E+01-5.71500E+01 9.52500E+00
 -1        16 3.49250E+01-6.35000E+01 9.52500E+00
 -1        17-4.12750E+01 7.93750E+00 9.52500E+00
 -1        18-4.12750E+01-7.93750E+00 9.52500E+00
 -1        19 4.12750E+01 2.54000E+01 9.52500E+00
 -1        20 4.12750E+01 2.54000E+01 2.70002E+01
 -1        21 4.12750E+01-2.54000E+01 2.70002E+01
 -1        22 4.12750E+01-2.54000E+01 9.52500E+00
 -1        23 2.22250E+01 7.93750E+00 9.52500E+00
 -1        24 2.22250E+01 2.54000E+01 9.52500E+00
 -1        25 2.22250E+01-2.54000E+01 9.52500E+00
 -1        26 2.22250E+01-7.93750E+00 9.52500E+00
 -1        27 2.22250E+01 7.93750E+00 2.70002E+01
 -1        28 2.22250E+01 2.54000E+01 2.70002E+01
 -1        29 5.69254E+01 7.93750E+00 6.19245E+01
 -1        30 5.69254E+01 2.54000E+01 6.19245E+01
 -1        31 2.22250E+01-7.93750E+00 2.70002E+01
 -1        32 5.69254E+01-7.93750E+00 6.19245E+01
 -1        33 2.22250E+01-2.54000E+01 2.70002E+01
 -1        34 5.69254E+01-2.54000E+01 6.19245E+01
 -1        35 6.03250E+01 0.00000E+00 3.81000E+01
 -1        36 6.03250E+01 0.00000E+00 6.66750E+01
 -1        37 6.03250E+01 6.22121E-15 4.28752E+01
 -1        38 8.57250E+01 2.54000E+01 4.28752E+01
 -1        39 8.57250E+01 2.54000E+01 6.19252E+01
 -1        40 6.03250E+01 6.22121E-15 6.19252E+01
 -1        41 8.57250E+01-2.54000E+01 6.19252E+01
 -1        42 8.57250E+01-2.54000E+01 4.28752E+01
 -1        43 5.71500E+01-2.54000E+01 4.28752E+01
 -1        44 5.71500E+01-2.54000E+01 6.19252E+01
 -1        45 5.71500E+01 2.54000E+01 6.19252E+01
 -1        46 5.71500E+01 2.54000E+01 4.28752E+01
 -1        47-3.94151E+01 6.16401E+01-9.52500E+00
 -1        48-3.73550E+01 6.30166E+01-9.52500E+00
 -1        49-4.07916E+01 5.95800E+01-9.52500E+00
 -1        50-4.12750E+01 5.71500E+01-4.94049E-15
 -1        51-4.12750E+01 5.71500E+01-4.76250E+00
 -1        52-4.12750E+01 5.71500E+01 4.76250E+00
 -1        53-3.94151E+01 6.16401E+01 9.52500E+00
 -1        54-3.73550E+01 6.30166E+01 9.52500E+00
 -1        55-4.07916E+01 5.95800E+01 9.52500E+00
 -1        56-3.49250E+01 6.35000E+01-1.55154E-14
 -1        57-3.49250E+01 6.35000E+01-4.76250E+00
 -1        58-3.49250E+01 6.35000E+01 4.76250E+00
 -1        59-3.94151E+01-6.16401E+01-9.52500E+00
 -1        60-4.07916E+01-5.95800E+01-9.52500E+00
 -1        61-3.73550E+01-6.30166E+01-9.52500E+00
 -1        62-3.49250E+01-6.35000E+01 1.09218E-14
 -1        63-3.49250E+01-6.35000E+01-4.76250E+00
 -1        64-3.49250E+01-6.35000E+01 4.76250E+00
 -1        65-3.94151E+01-6.16401E+01 9.52500E+00
 -1        66-4.07916E+01-5.95800E+01 9.52500E+00
 -1        67-3.73550E+01-6.30166E+01 9.52500E+00
 -1        68-4.12750E+01-5.71500E+01-1.55154E-14
 -1        69-4.12750E+01-5.71500E+01-4.76250E+00
 -1        70-4.12750E+01-5.71500E+01 4.76250E+00
 -1        71 3.94151E+01 6.16401E+01-9.52500E+00
 -1        72 4.07916E+01 5.95800E+01-9.52500E+00
 -1        73 3.73550E+01 6.30166E+01-9.52500E+00
 -1        74 3.49250E+01 6.35000E+01 1.09218E-14
 -1        75 3.49250E+01 6.35000E+01-4.76250E+00
 -1        76 3.49250E+01 6.35000E+01 4.76250E+00
 -1        77 3.94151E+01 6.16401E+01 9.52500E+00
 -1        78 4.07916E+01 5.95800E+01 9.52500E+00
 -1        79 3.73550E+01 6.30166E+01 9.52500E+00
 -1        80 4.12750E+01 5.71500E+01-1.55154E-14
 -1        81 4.12750E+01 5.71500E+01-4.76250E+00
 -1        82 4.12750E+01 5.71500E+01 4.76250E+00
 -1        83 3.94151E+01-6.16401E+01-9.52500E+00
 -1        84 3.73550E+01-6.30166E+01-9.52500E+00
 -1        85 4.07916E+01-5.95800E+01-9.52500E+00
 -1        86 4.12750E+01-5.71500E+01-4.94049E-15
 -1        87 4.12750E+01-5.71500E+01-4.76250E+00
 -1        88 4.12750E+01-5.71500E+01 4.76250E+00
 -1        89 3.94151E+01-6.16401E+01 9.52500E+00
 -1        90 3.73550E+01-6.30166E+01 9.52500E+00
 -1        91 4.07916E+01-5.95800E+01 9.52500E+00
 -1        92 3.49250E+01-6.35000E+01-1.55154E-14
 -1        93 3.49250E+01-6.35000E+01-4.76250E+00
 -1        94 3.49250E+01-6.35000E+01 4.76250E+00
 -1        95-2.49464E+01 6.35000E+01-9.52500E+00
 -1        96-1.49679E+01 6.35000E+01-9.52500E+00
 -1        97-4.98929E+00 6.35000E+01-9.52500E+00
 -1        98 4.98929E+00 6.35000E+01-9.52500E+00
 -1        99 1.49679E+01 6.35000E+01-9.52500E+00
 -1       100 2.49464E+01 6.35000E+01-9.52500E+00
 -1       101-2.99357E+01 6.35000E+01-9.52500E+00
 -1       102-1.99571E+01 6.35000E+01-9.52500E+00
 -1       103-9.97857E+00 6.35000E+01-9.52500E+00
 -1       104 4.19248E-14 6.35000E+01-9.52500E+00
 -1       105 9.97857E+00 6.35000E+01-9.52500E+00
 -1       106 1.99571E+01 6.35000E+01-9.52500E+00
 -1       107 2.99357E+01 6.35000E+01-9.52500E+00
 -1       108 4.12750E+01-4.67591E+01-9.52500E+00
 -1       109 4.12750E+01-3.63682E+01-9.52500E+00
 -1       110 4.12750E+01-2.59773E+01-9.52500E+00
 -1       111 4.12750E+01-1.55864E+01-9.52500E+00
 -1       112 4.12750E+01-5.19545E+00-9.52500E+00
 -1       113 4.12750E+01 5.19545E+00-9.52500E+00
 -1       114 4.12750E+01 1.55864E+01-9.52500E+00
 -1       115 4.12750E+01 2.59773E+01-9.52500E+00
 -1       116 4.12750E+01 3.63682E+01-9.52500E+00
 -1       117 4.12750E+01 4.67591E+01-9.52500E+00
 -1       118 4.12750E+01-5.19545E+01-9.52500E+00
 -1       119 4.12750E+01-4.15636E+01-9.52500E+00
 -1       120 4.12750E+01-3.11727E+01-9.52500E+00
 -1       121 4.12750E+01-2.07818E+01-9.52500E+00
 -1       122 4.12750E+01-1.03909E+01-9.52500E+00
 -1       123 4.12750E+01-1.42109E-14-9.52500E+00
 -1       124 4.12750E+01 1.03909E+01-9.52500E+00
 -1       125 4.12750E+01 2.07818E+01-9.52500E+00
 -1       126 4.12750E+01 3.11727E+01-9.52500E+00
 -1       127 4.12750E+01 4.15636E+01-9.52500E+00
 -1       128 4.12750E+01 5.19545E+01-9.52500E+00
 -1       129-2.49464E+01-6.35000E+01-9.52500E+00
 -1       130-1.49679E+01-6.35000E+01-9.52500E+00
 -1       131-4.98929E+00-6.35000E+01-9.52500E+00
 -1       132 4.98929E+00-6.35000E+01-9.52500E+00
 -1       133 1.49679E+01-6.35000E+01-9.52500E+00
 -1       134 2.49464E+01-6.35000E+01-9.52500E+00
 -1       135-2.99357E+01-6.35000E+01-9.52500E+00
 -1       136-1.99571E+01-6.35000E+01-9.52500E+00
 -1       137-9.97857E+00-6.35000E+01-9.52500E+00
 -1       138 4.19248E-14-6.35000E+01-9.52500E+00
 -1       139 9.97857E+00-6.35000E+01-9.52500E+00
 -1       140 1.99571E+01-6.35000E+01-9.52500E+00
 -1       141 2.99357E+01-6.35000E+01-9.52500E+00
 -1       142-4.12750E+01-4.67591E+01-9.52500E+00
 -1       143-4.12750E+01-3.63682E+01-9.52500E+00
 -1       144-4.12750E+01-2.59773E+01-9.52500E+00
 -1       145-4.12750E+01-1.55864E+01-9.52500E+00
 -1       146-4.12750E+01-5.19545E+00-9.52500E+00
 -1       147-4.12750E+01 5.19545E+00-9.52500E+00
 -1       148-4.12750E+01 1.55864E+01-9.52500E+00
 -1       149-4.12750E+01 2.59773E+01-9.52500E+00
 -1       150-4.12750E+01 3.63682E+01-9.52500E+00
 -1       151-4.12750E+01 4.67591E+01-9.52500E+00
 -1       152-4.12750E+01-5.19545E+01-9.52500E+00
 -1       153-4.12750E+01-4.15636E+01-9.52500E+00
 -1       154-4.12750E+01-3.11727E+01-9.52500E+00
 -1       155-4.12750E+01-2.07818E+01-9.52500E+00
 -1       156-4.12750E+01-1.03909E+01-9.52500E+00
 -1       157-4.12750E+01-1.42109E-14-9.52500E+00
 -1       158-4.12750E+01 1.03909E+01-9.52500E+00
 -1       159-4.12750E+01 2.07818E+01-9.52500E+00
 -1       160-4.12750E+01 3.11727E+01-9.52500E+00
 -1       161-4.12750E+01 4.15636E+01-9.52500E+00
 -1       162-4.12750E+01 5.19545E+01-9.52500E+00
 -1       163-2.49464E+01 6.35000E+01 9.52500E+00
 -1       164-1.49679E+01 6.35000E+01 9.52500E+00
 -1       165-4.98929E+00 6.35000E+01 9.52500E+00
 -1       166 4.98929E+00 6.35000E+01 9.52500E+00
 -1       167 1.49679E+01 6.35000E+01 9.52500E+00
 -1       168 2.49464E+01 6.35000E+01 9.52500E+00
 -1       169-2.99357E+01 6.35000E+01 9.52500E+00
 -1       170-1.99571E+01 6.35000E+01 9.52500E+00
 -1       171-9.97857E+00 6.35000E+01 9.52500E+00
 -1       172 4.19248E-14 6.35000E+01 9.52500E+00
 -1       173 9.97857E+00 6.35000E+01 9.52500E+00
 -1       174 1.99571E+01 6.35000E+01 9.52500E+00
 -1       175 2.99357E+01 6.35000E+01 9.52500E+00
 -1       176-2.49464E+01-6.35000E+01 9.52500E+00
 -1       177-1.49679E+01-6.35000E+01 9.52500E+00
 -1       178-4.98929E+00-6.35000E+01 9.52500E+00
 -1       179 4.98929E+00-6.35000E+01 9.52500E+00
 -1       180 1.49679E+01-6.35000E+01 9.52500E+00
 -1       181 2.49464E+01-6.35000E+01 9.52500E+00
 -1       182-2.99357E+01-6.35000E+01 9.52500E+00
 -1       183-1.99571E+01-6.35000E+01 9.52500E+00
 -1       184-9.97857E+00-6.35000E+01 9.52500E+00
 -1       185 4.19248E-14-6.35000E+01 9.52500E+00
 -1       186 9.97857E+00-6.35000E+01 9.52500E+00
 -1       187 1.99571E+01-6.35000E+01 9.52500E+00
 -1       188 2.99357E+01-6.35000E+01 9.52500E+00
 -1       189-4.12750E+01 1.77800E+01 9.52500E+00
 -1       190-4.12750E+01 2.76225E+01 9.52500E+00
 -1       191-4.12750E+01 3.74650E+01 9.52500E+00
 -1       192-4.12750E+01 4.73075E+01 9.52500E+00
 -1       193-4.12750E+01 1.28588E+01 9.52500E+00
 -1       194-4.12750E+01 2.27013E+01 9.52500E+00
 -1       195-4.12750E+01 3.25438E+01 9.52500E+00
 -1       196-4.12750E+01 4.23862E+01 9.52500E+00
 -1       197-4.12750E+01 5.22287E+01 9.52500E+00
 -1       198-4.12750E+01-4.73075E+01 9.52500E+00
 -1       199-4.12750E+01-3.74650E+01 9.52500E+00
 -1       200-4.12750E+01-2.76225E+01 9.52500E+00
 -1       201-4.12750E+01-1.77800E+01 9.52500E+00
 -1       202-4.12750E+01-5.22287E+01 9.52500E+00
 -1       203-4.12750E+01-4.23862E+01 9.52500E+00
 -1       204-4.12750E+01-3.25438E+01 9.52500E+00
 -1       205-4.12750E+01-2.27013E+01 9.52500E+00
 -1       206-4.12750E+01-1.28588E+01 9.52500E+00
 -1       207-4.12750E+01-1.06581E-14 9.52500E+00
 -1       208-4.12750E+01-3.96875E+00 9.52500E+00
 -1       209-4.12750E+01 3.96875E+00 9.52500E+00
 -1       210 4.12750E+01 3.59833E+01 9.52500E+00
 -1       211 4.12750E+01 4.65667E+01 9.52500E+00
 -1       212 4.12750E+01 3.06917E+01 9.52500E+00
 -1       213 4.12750E+01 4.12750E+01 9.52500E+00
 -1       214 4.12750E+01 5.18583E+01 9.52500E+00
 -1       215 4.12750E+01 2.54000E+01 1.82626E+01
 -1       216 4.12750E+01 2.54000E+01 1.38938E+01
 -1       217 4.12750E+01 2.54000E+01 2.26314E+01
 -1       218 4.12750E+01-1.52400E+01 2.70002E+01
 -1       219 4.12750E+01-5.08000E+00 2.70002E+01
 -1       220 4.12750E+01 5.08000E+00 2.70002E+01
 -1       221 4.12750E+01 1.52400E+01 2.70002E+01
 -1       222 4.12750E+01-2.03200E+01 2.70002E+01
 -1       223 4.12750E+01-1.01600E+01 2.70002E+01
 -1       224 4.12750E+01-2.13163E-14 2.70002E+01
 -1       225 4.12750E+01 1.01600E+01 2.70002E+01
 -1       226 4.12750E+01 2.03200E+01 2.70002E+01
 -1       227 4.12750E+01-2.54000E+01 1.82626E+01
 -1       228 4.12750E+01-2.54000E+01 1.38938E+01
 -1       229 4.12750E+01-2.54000E+01 2.26314E+01
 -1       230 4.12750E+01-4.65667E+01 9.52500E+00
 -1       231 4.12750E+01-3.59833E+01 9.52500E+00
 -1       232 4.12750E+01-5.18583E+01 9.52500E+00
 -1       233 4.12750E+01-4.12750E+01 9.52500E+00
 -1       234 4.12750E+01-3.06917E+01 9.52500E+00
 -1       235-3.06917E+01 7.93750E+00 9.52500E+00
 -1       236-2.01083E+01 7.93750E+00 9.52500E+00
 -1       237-9.52500E+00 7.93750E+00 9.52500E+00
 -1       238 1.05833E+00 7.93750E+00 9.52500E+00
 -1       239 1.16417E+01 7.93750E+00 9.52500E+00
 -1       240-3.59833E+01 7.93750E+00 9.52500E+00
 -1       241-2.54000E+01 7.93750E+00 9.52500E+00
 -1       242-1.48167E+01 7.93750E+00 9.52500E+00
 -1       243-4.23333E+00 7.93750E+00 9.52500E+00
 -1       244 6.35000E+00 7.93750E+00 9.52500E+00
 -1       245 1.69333E+01 7.93750E+00 9.52500E+00
 -1       246 2.22250E+01 1.66688E+01 9.52500E+00
 -1       247 2.22250E+01 1.23031E+01 9.52500E+00
 -1       248 2.22250E+01 2.10344E+01 9.52500E+00
 -1       249 3.17500E+01 2.54000E+01 9.52500E+00
 -1       250 2.69875E+01 2.54000E+01 9.52500E+00
 -1       251 3.65125E+01 2.54000E+01 9.52500E+00
 -1       252 3.17500E+01-2.54000E+01 9.52500E+00
 -1       253 2.69875E+01-2.54000E+01 9.52500E+00
 -1       254 3.65125E+01-2.54000E+01 9.52500E+00
 -1       255 2.22250E+01-1.66688E+01 9.52500E+00
 -1       256 2.22250E+01-2.10344E+01 9.52500E+00
 -1       257 2.22250E+01-1.23031E+01 9.52500E+00
 -1       258-3.06917E+01-7.93750E+00 9.52500E+00
 -1       259-2.01083E+01-7.93750E+00 9.52500E+00
 -1       260-9.52500E+00-7.93750E+00 9.52500E+00
 -1       261 1.05833E+00-7.93750E+00 9.52500E+00
 -1       262 1.16417E+01-7.93750E+00 9.52500E+00
 -1       263-3.59833E+01-7.93750E+00 9.52500E+00
 -1       264-2.54000E+01-7.93750E+00 9.52500E+00
 -1       265-1.48167E+01-7.93750E+00 9.52500E+00
 -1       266-4.23333E+00-7.93750E+00 9.52500E+00
 -1       267 6.35000E+00-7.93750E+00 9.52500E+00
 -1       268 1.69333E+01-7.93750E+00 9.52500E+00
 -1       269 2.22250E+01 1.66688E+01 2.70002E+01
 -1       270 2.22250E+01 1.23031E+01 2.70002E+01
 -1       271 2.22250E+01 2.10344E+01 2.70002E+01
 -1       272 2.39205E+01 7.93750E+00 3.77499E+01
 -1       273 2.88424E+01 7.93750E+00 4.74559E+01
 -1       274 3.65128E+01 7.93750E+00 5.51757E+01
 -1       275 4.62832E+01 7.93750E+00 6.01916E+01
 -1       276 2.26515E+01 7.93750E+00 3.24415E+01
 -1       277 2.60011E+01 7.93750E+00 4.27958E+01
 -1       278 3.23750E+01 7.93750E+00 5.16164E+01
 -1       279 4.11542E+01 7.93750E+00 5.80468E+01
 -1       280 5.12851E+01 7.93750E+00 6.14292E+01
 -1       281 5.69254E+01 1.66688E+01 6.19245E+01
 -1       282 5.69254E+01 1.23030E+01 6.19245E+01
 -1       283 5.69254E+01 2.10344E+01 6.19245E+01
 -1       284 2.39205E+01 2.54000E+01 3.77499E+01
 -1       285 2.88424E+01 2.54000E+01 4.74559E+01
 -1       286 3.65128E+01 2.54000E+01 5.51757E+01
 -1       287 4.61869E+01 2.54000E+01 6.01599E+01
 -1       288 2.26515E+01 2.54000E+01 3.24415E+01
 -1       289 2.60011E+01 2.54000E+01 4.27958E+01
 -1       290 3.23750E+01 2.54000E+01 5.16164E+01
 -1       291 4.11545E+01 2.54000E+01 5.80469E+01
 -1       292 5.14870E+01 2.54000E+01 6.14630E+01
 -1       293 2.39205E+01-7.93750E+00 3.77499E+01
 -1       294 2.88424E+01-7.93750E+00 4.74559E+01
 -1       295 3.65128E+01-7.93750E+00 5.51757E+01
 -1       296 4.62864E+01-7.93750E+00 6.01926E+01
 -1       297 2.26515E+01-7.93750E+00 3.24415E+01
 -1       298 2.60011E+01-7.93750E+00 4.27958E+01
 -1       299 3.23750E+01-7.93750E+00 5.16164E+01
 -1       300 4.11504E+01-7.93750E+00 5.80448E+01
 -1       301 5.12848E+01-7.93750E+00 6.14292E+01
 -1       302 2.22250E+01-1.66688E+01 2.70002E+01
 -1       303 2.22250E+01-2.10344E+01 2.70002E+01
 -1       304 2.22250E+01-1.23031E+01 2.70002E+01
 -1       305 2.39205E+01-2.54000E+01 3.77499E+01
 -1       306 2.88424E+01-2.54000E+01 4.74559E+01
 -1       307 3.65128E+01-2.54000E+01 5.51757E+01
 -1       308 4.61869E+01-2.54000E+01 6.01599E+01
 -1       309 2.26515E+01-2.54000E+01 3.24415E+01
 -1       310 2.60011E+01-2.54000E+01 4.27958E+01
 -1       311 3.23750E+01-2.54000E+01 5.16164E+01
 -1       312 4.11545E+01-2.54000E+01 5.80469E+01
 -1       313 5.14868E+01-2.54000E+01 6.14630E+01
 -1       314 5.69254E+01-1.66688E+01 6.19245E+01
 -1       315 5.69254E+01-2.10344E+01 6.19245E+01
 -1       316 5.69254E+01-1.23032E+01 6.19245E+01
 -1       317 2.22250E+01 7.93750E+00 1.82626E+01
 -1       318 2.22250E+01 7.93750E+00 1.38938E+01
 -1       319 2.22250E+01 7.93750E+00 2.26314E+01
 -1       320 2.22250E+01 2.54000E+01 1.82626E+01
 -1       321 2.22250E+01 2.54000E+01 1.38938E+01
 -1       322 2.22250E+01 2.54000E+01 2.26314E+01
 -1       323 2.22250E+01-7.93750E+00 1.82626E+01
 -1       324 2.22250E+01-7.93750E+00 1.38938E+01
 -1       325 2.22250E+01-7.93750E+00 2.26314E+01
 -1       326 2.22250E+01-2.54000E+01 1.82626E+01
 -1       327 2.22250E+01-2.54000E+01 1.38938E+01
 -1       328 2.22250E+01-2.54000E+01 2.26314E+01
 -1       329 6.25209E+01 1.03311E+01 3.81000E+01
 -1       330 6.87291E+01 1.88759E+01 3.81000E+01
 -1       331 7.78758E+01 2.41568E+01 3.81000E+01
 -1       332 8.83800E+01 2.52609E+01 3.81000E+01
 -1       333 9.84250E+01 2.19970E+01 3.81000E+01
 -1       334 1.06274E+02 1.49297E+01 3.81000E+01
 -1       335 1.10570E+02 5.28096E+00 3.81000E+01
 -1       336 1.10570E+02-5.28096E+00 3.81000E+01
 -1       337 1.06274E+02-1.49297E+01 3.81000E+01
 -1       338 9.84250E+01-2.19970E+01 3.81000E+01
 -1       339 8.83800E+01-2.52609E+01 3.81000E+01
 -1       340 7.78758E+01-2.41568E+01 3.81000E+01
 -1       341 6.87291E+01-1.88759E+01 3.81000E+01
 -1       342 6.25209E+01-1.03311E+01 3.81000E+01
 -1       343 6.08801E+01 5.28096E+00 3.81000E+01
 -1       344 6.51760E+01 1.49297E+01 3.81000E+01
 -1       345 7.30249E+01 2.19970E+01 3.81000E+01
 -1       346 8.30700E+01 2.52609E+01 3.81000E+01
 -1       347 9.35740E+01 2.41568E+01 3.81000E+01
 -1       348 1.02721E+02 1.88759E+01 3.81000E+01
 -1       349 1.08929E+02 1.03311E+01 3.81000E+01
 -1       350 1.11125E+02-1.54808E-13 3.81000E+01
 -1       351 1.08929E+02-1.03311E+01 3.81000E+01
 -1       352 1.02721E+02-1.88759E+01 3.81000E+01
 -1       353 9.35740E+01-2.41568E+01 3.81000E+01
 -1       354 8.30699E+01-2.52609E+01 3.81000E+01
 -1       355 7.30250E+01-2.19970E+01 3.81000E+01
 -1       356 6.51760E+01-1.49297E+01 3.81000E+01
 -1       357 6.08801E+01-5.28096E+00 3.81000E+01
 -1       358 6.25209E+01 1.03311E+01 6.66750E+01
 -1       359 6.87291E+01 1.88759E+01 6.66750E+01
 -1       360 7.78758E+01 2.41568E+01 6.66750E+01
 -1       361 8.83800E+01 2.52609E+01 6.66750E+01
 -1       362 9.84250E+01 2.19970E+01 6.66750E+01
 -1       363 1.06274E+02 1.49297E+01 6.66750E+01
 -1       364 1.10570E+02 5.28096E+00 6.66750E+01
 -1       365 1.10570E+02-5.28096E+00 6.66750E+01
 -1       366 1.06274E+02-1.49297E+01 6.66750E+01
 -1       367 9.84250E+01-2.19970E+01 6.66750E+01
 -1       368 8.83800E+01-2.52609E+01 6.66750E+01
 -1       369 7.78757E+01-2.41568E+01 6.66750E+01
 -1       370 6.87291E+01-1.88759E+01 6.66750E+01
 -1       371 6.25209E+01-1.03311E+01 6.66750E+01
 -1       372 6.08801E+01 5.28096E+00 6.66750E+01
 -1       373 6.51760E+01 1.49297E+01 6.66750E+01
 -1       374 7.30249E+01 2.19970E+01 6.66750E+01
 -1       375 8.30699E+01 2.52609E+01 6.66750E+01
 -1       376 9.35740E+01 2.41568E+01 6.66750E+01
 -1       377 1.02721E+02 1.88759E+01 6.66750E+01
 -1       378 1.08929E+02 1.03311E+01 6.66750E+01
 -1       379 1.11125E+02-1.54808E-13 6.66750E+01
 -1       380 1.08929E+02-1.03311E+01 6.66750E+01
 -1       381 1.02721E+02-1.88759E+01 6.66750E+01
 -1       382 9.35740E+01-2.41568E+01 6.66750E+01
 -1       383 8.30700E+01-2.52609E+01 6.66750E+01
 -1       384 7.30250E+01-2.19970E+01 6.66750E+01
 -1       385 6.51760E+01-1.49297E+01 6.66750E+01
 -1       386 6.08801E+01-5.28096E+00 6.66750E+01
 -1       387 6.03250E+01 0.00000E+00 4.04876E+01
 -1       388 6.03250E+01 0.00000E+00 3.92938E+01
 -1       389 6.03250E+01 0.00000E+00 4.16814E+01
 -1       390 7.61056E+01 2.35080E+01 4.28752E+01
 -1       391 6.77645E+01 1.79605E+01 4.28752E+01
 -1       392 6.22585E+01 9.72016E+00 4.28752E+01
 -1       393 8.05468E+01 2.48666E+01 4.28752E+01
 -1       394 7.16131E+01 2.11190E+01 4.28752E+01
 -1       395 6.46057E+01 1.41115E+01 4.28752E+01
 -1       396 6.08131E+01 4.95529E+00 4.28752E+01
 -1       397 8.57250E+01 2.54000E+01 5.24002E+01
 -1       398 8.57250E+01 2.54000E+01 4.76379E+01
 -1       399 8.57250E+01 2.54000E+01 5.71626E+01
 -1       400 7.61061E+01 2.35082E+01 6.19252E+01
 -1       401 6.77645E+01 1.79605E+01 6.19252E+01
 -1       402 6.22585E+01 9.72016E+00 6.19252E+01
 -1       403 8.05468E+01 2.48666E+01 6.19252E+01
 -1       404 7.16131E+01 2.11190E+01 6.19252E+01
 -1       405 6.46057E+01 1.41115E+01 6.19252E+01
 -1       406 6.08131E+01 4.95529E+00 6.19252E+01
 -1       407 6.03250E+01 0.00000E+00 6.43001E+01
 -1       408 6.03250E+01 0.00000E+00 6.31127E+01
 -1       409 6.03250E+01 0.00000E+00 6.54875E+01
 -1       410 6.22585E+01-9.72016E+00 6.19252E+01
 -1       411 6.77645E+01-1.79605E+01 6.19252E+01
 -1       412 7.61052E+01-2.35079E+01 6.19252E+01
 -1       413 6.08131E+01-4.95529E+00 6.19252E+01
 -1       414 6.46057E+01-1.41115E+01 6.19252E+01
 -1       415 7.16130E+01-2.11190E+01 6.19252E+01
 -1       416 8.05468E+01-2.48666E+01 6.19252E+01
 -1       417 8.57250E+01-2.54000E+01 5.24002E+01
 -1       418 8.57250E+01-2.54000E+01 4.76377E+01
 -1       419 8.57250E+01-2.54000E+01 5.71627E+01
 -1       420 6.22585E+01-9.72016E+00 4.28752E+01
 -1       421 6.77645E+01-1.79605E+01 4.28752E+01
 -1       422 7.61061E+01-2.35082E+01 4.28752E+01
 -1       423 6.08131E+01-4.95529E+00 4.28752E+01
 -1       424 6.46057E+01-1.41115E+01 4.28752E+01
 -1       425 7.16131E+01-2.11190E+01 4.28752E+01
 -1       426 8.05466E+01-2.48665E+01 4.28752E+01
 -1       427 4.67751E+01-7.93750E+00 6.16211E+01
 -1       428 3.66825E+01-7.93750E+00 6.07884E+01
 -1       429 2.66358E+01-7.93750E+00 5.94102E+01
 -1       430 1.66851E+01-7.93750E+00 5.74573E+01
 -1       431 6.87788E+00-7.93750E+00 5.48800E+01
 -1       432-2.71747E+00-7.93750E+00 5.16030E+01
 -1       433-1.19953E+01-7.93750E+00 4.75157E+01
 -1       434-2.07809E+01-7.93750E+00 4.24610E+01
 -1       435-2.87681E+01-7.93750E+00 3.62288E+01
 -1       436-3.54140E+01-7.93750E+00 2.85958E+01
 -1       437-3.98638E+01-7.93750E+00 1.95232E+01
 -1       438 5.18736E+01-7.93750E+00 6.18397E+01
 -1       439 4.17313E+01-7.93750E+00 6.12721E+01
 -1       440 3.16496E+01-7.93750E+00 6.01689E+01
 -1       441 2.16458E+01-7.93750E+00 5.85082E+01
 -1       442 1.17599E+01-7.93750E+00 5.62507E+01
 -1       443 2.04827E+00-7.93750E+00 5.33349E+01
 -1       444-7.40487E+00-7.93750E+00 4.96692E+01
 -1       445-1.64647E+01-7.93750E+00 4.51213E+01
 -1       446-2.49011E+01-7.93750E+00 3.95069E+01
 -1       447-3.23052E+01-7.93750E+00 3.25983E+01
 -1       448-3.79753E+01-7.93750E+00 2.42239E+01
 -1       449-4.09779E+01-7.93750E+00 1.45818E+01
 -1       450 4.67750E+01 7.93750E+00 6.16210E+01
 -1       451 3.66825E+01 7.93750E+00 6.07884E+01
 -1       452 2.66358E+01 7.93750E+00 5.94102E+01
 -1       453 1.66851E+01 7.93750E+00 5.74573E+01
 -1       454 6.87788E+00 7.93750E+00 5.48800E+01
 -1       455-2.71747E+00 7.93750E+00 5.16030E+01
 -1       456-1.19953E+01 7.93750E+00 4.75157E+01
 -1       457-2.07809E+01 7.93750E+00 4.24610E+01
 -1       458-2.87681E+01 7.93750E+00 3.62288E+01
 -1       459-3.54140E+01 7.93750E+00 2.85958E+01
 -1       460-3.98638E+01 7.93750E+00 1.95232E+01
 -1       461 5.18733E+01 7.93750E+00 6.18397E+01
 -1       462 4.17313E+01 7.93750E+00 6.12721E+01
 -1       463 3.16496E+01 7.93750E+00 6.01689E+01
 -1       464 2.16458E+01 7.93750E+00 5.85082E+01
 -1       465 1.17599E+01 7.93750E+00 5.62507E+01
 -1       466 2.04827E+00 7.93750E+00 5.33349E+01
 -1       467-7.40487E+00 7.93750E+00 4.96692E+01
 -1       468-1.64647E+01 7.93750E+00 4.51213E+01
 -1       469-2.49011E+01 7.93750E+00 3.95069E+01
 -1       470-3.23052E+01 7.93750E+00 3.25983E+01
 -1       471-3.79753E+01 7.93750E+00 2.42239E+01
 -1       472-4.09779E+01 7.93750E+00 1.45818E+01
 -1       473 4.34018E+01-2.54000E+01 3.49377E+01
 -1       474 4.92125E+01-2.54000E+01 4.07484E+01
 -1       475 4.18159E+01-2.54000E+01 3.11090E+01
 -1       476 4.59247E+01-2.54000E+01 3.82255E+01
 -1       477 5.30412E+01-2.54000E+01 4.23343E+01
 -1       478 6.66750E+01-2.54000E+01 4.28752E+01
 -1       479 7.62042E+01-2.54000E+01 4.28752E+01
 -1       480 6.19125E+01-2.54000E+01 4.28752E+01
 -1       481 7.14385E+01-2.54000E+01 4.28752E+01
 -1       482 8.09440E+01-2.54000E+01 4.28752E+01
 -1       483 6.66750E+01-2.54000E+01 6.19252E+01
 -1       484 7.62041E+01-2.54000E+01 6.19252E+01
 -1       485 6.19125E+01-2.54000E+01 6.19252E+01
 -1       486 7.14385E+01-2.54000E+01 6.19252E+01
 -1       487 8.09441E+01-2.54000E+01 6.19252E+01
 -1       488 5.70377E+01-2.54000E+01 6.19249E+01
 -1       489 5.70939E+01-2.54000E+01 6.19250E+01
 -1       490 5.69818E+01-2.54000E+01 6.19247E+01
 -1       491 5.70377E+01 2.54000E+01 6.19249E+01
 -1       492 5.70939E+01 2.54000E+01 6.19250E+01
 -1       493 5.69816E+01 2.54000E+01 6.19247E+01
 -1       494 6.66750E+01 2.54000E+01 6.19252E+01
 -1       495 7.62042E+01 2.54000E+01 6.19252E+01
 -1       496 6.19125E+01 2.54000E+01 6.19252E+01
 -1       497 7.14385E+01 2.54000E+01 6.19252E+01
 -1       498 8.09440E+01 2.54000E+01 6.19252E+01
 -1       499 6.66750E+01 2.54000E+01 4.28752E+01
 -1       500 7.62041E+01 2.54000E+01 4.28752E+01
 -1       501 6.19125E+01 2.54000E+01 4.28752E+01
 -1       502 7.14385E+01 2.54000E+01 4.28752E+01
 -1       503 8.09441E+01 2.54000E+01 4.28752E+01
 -1       504 4.34018E+01 2.54000E+01 3.49377E+01
 -1       505 4.92125E+01 2.54000E+01 4.07484E+01
 -1       506 4.18159E+01 2.54000E+01 3.11090E+01
 -1       507 4.59247E+01 2.54000E+01 3.82255E+01
 -1       508 5.30412E+01 2.54000E+01 4.23343E+01
 -1       509 5.71500E+01-1.52400E+01 6.19252E+01
 -1       510 5.71500E+01-5.09173E+00 6.19252E+01
 -1       511 5.71500E+01 5.08000E+00 6.19252E+01
 -1       512 5.71500E+01 1.52400E+01 6.19252E+01
 -1       513 5.71500E+01-2.03200E+01 6.19252E+01
 -1       514 5.71500E+01-1.01607E+01 6.19252E+01
 -1       515 5.71500E+01-4.32426E-05 6.19252E+01
 -1       516 5.71500E+01 1.01605E+01 6.19252E+01
 -1       517 5.71500E+01 2.03200E+01 6.19252E+01
 -1       518 5.71500E+01-1.52400E+01 4.28752E+01
 -1       519 5.71500E+01-5.08000E+00 4.28752E+01
 -1       520 5.71500E+01 5.08000E+00 4.28752E+01
 -1       521 5.71500E+01 1.52400E+01 4.28752E+01
 -1       522 5.71500E+01-2.03200E+01 4.28752E+01
 -1       523 5.71500E+01-1.01600E+01 4.28752E+01
 -1       524 5.71500E+01-2.13163E-14 4.28752E+01
 -1       525 5.71500E+01 1.01604E+01 4.28752E+01
 -1       526 5.71500E+01 2.03200E+01 4.28752E+01
 -1       527-3.73550E+01 6.30166E+01-4.76250E+00
 -1       528-4.07916E+01 5.95800E+01-4.76250E+00
 -1       529-4.07916E+01 5.95800E+01 4.76250E+00
 -1       530-3.73550E+01 6.30166E+01 4.76250E+00
 -1       531-3.94151E+01 6.16401E+01-1.02279E-14
 -1       532-4.07916E+01-5.95800E+01-4.76250E+00
 -1       533-3.73550E+01-6.30166E+01-4.76250E+00
 -1       534-3.73550E+01-6.30166E+01 4.76250E+00
 -1       535-4.07916E+01-5.95800E+01 4.76250E+00
 -1       536-3.94151E+01-6.16401E+01-4.94049E-15
 -1       537 4.07916E+01 5.95800E+01-4.76250E+00
 -1       538 3.73550E+01 6.30166E+01-4.76250E+00
 -1       539 3.73550E+01 6.30166E+01 4.76250E+00
 -1       540 4.07916E+01 5.95800E+01 4.76250E+00
 -1       541 3.94151E+01 6.16401E+01-4.94049E-15
 -1       542 3.73550E+01-6.30166E+01-4.76250E+00
 -1       543 4.07916E+01-5.95800E+01-4.76250E+00
 -1       544 4.07916E+01-5.95800E+01 4.76250E+00
 -1       545 3.73550E+01-6.30166E+01 4.76250E+00
 -1       546 3.94151E+01-6.16401E+01-1.02279E-14
 -1       547-7.90388E-01 5.38685E+01-9.52500E+00
 -1       548-2.72600E-02-5.58074E+01-9.52500E+00
 -1       549 3.16484E+01 1.07072E+01-9.52500E+00
 -1       550-3.25110E+01-1.02415E+01-9.52500E+00
 -1       551-3.22762E+01 2.07818E+01-9.52500E+00
 -1       552 3.28282E+01-2.25158E+01-9.52500E+00
 -1       553-3.28899E+01-3.15233E+01-9.52500E+00
 -1       554 3.22762E+01 3.11727E+01-9.52500E+00
 -1       555-3.23999E+01 4.13871E+01-9.52500E+00
 -1       556 3.21416E+01-4.05283E+01-9.52500E+00
 -1       557 1.99516E+01 5.49534E+01-9.52500E+00
 -1       558-1.99571E+01-5.48583E+01-9.52500E+00
 -1       559 1.96959E+01-5.49865E+01-9.52500E+00
 -1       560-1.99986E+01 5.54161E+01-9.52500E+00
 -1       561-3.45259E+01-5.19545E+01-9.52500E+00
 -1       562 3.45259E+01 5.19545E+01-9.52500E+00
 -1       563 3.52638E+01-5.78562E+01-9.52500E+00
 -1       564-3.52638E+01 5.78562E+01-9.52500E+00
 -1       565 3.28371E+01 4.23436E+01-9.52500E+00
 -1       566 2.38827E+01 3.73236E+01-9.52500E+00
 -1       567 2.30040E+01 2.70146E+01-9.52500E+00
 -1       568 1.45064E+01 3.31083E+01-9.52500E+00
 -1       569 1.35605E+01 2.25650E+01-9.52500E+00
 -1       570 5.09694E+00 2.88827E+01-9.52500E+00
 -1       571 4.14078E+00 1.83315E+01-9.52500E+00
 -1       572-4.30946E+00 2.46916E+01-9.52500E+00
 -1       573-5.41162E+00 1.44328E+01-9.52500E+00
 -1       574 3.04071E+00 8.27871E+00-9.52500E+00
 -1       575-6.37873E+00 4.18134E+00-9.52500E+00
 -1       576 2.25609E+00-2.09055E+00-9.52500E+00
 -1       577-7.31009E+00-6.31733E+00-9.52500E+00
 -1       578 8.31020E-01-1.22234E+01-9.52500E+00
 -1       579-8.56558E+00-1.65937E+01-9.52500E+00
 -1       580-3.62779E-01-2.24650E+01-9.52500E+00
 -1       581 1.13505E+01-8.43109E+00-9.52500E+00
 -1       582-9.66306E+00-2.64708E+01-9.52500E+00
 -1       583-1.48518E+00-3.26286E+01-9.52500E+00
 -1       584 7.88443E+00-2.84833E+01-9.52500E+00
 -1       585-3.26362E+00 3.49420E+01-9.52500E+00
 -1       586-1.26425E+01 3.07995E+01-9.52500E+00
 -1       587-1.45327E+01 1.00856E+01-9.52500E+00
 -1       588-1.02368E+01-3.66480E+01-9.52500E+00
 -1       589 6.65560E+00-3.84400E+01-9.52500E+00
 -1       590-1.75466E+01-2.07482E+01-9.52500E+00
 -1       591 1.60021E+01-3.42211E+01-9.52500E+00
 -1       592-1.08263E+01 4.04498E+01-9.52500E+00
 -1       593 1.72795E+01-2.45318E+01-9.52500E+00
 -1       594 1.49328E+01 4.48001E+01-9.52500E+00
 -1       595 2.26551E+01 1.63060E+01-9.52500E+00
 -1       596 2.55390E+01-3.04253E+01-9.52500E+00
 -1       597-2.17257E+01 3.78907E+01-9.52500E+00
 -1       598-2.22550E+01 2.65162E+01-9.52500E+00
 -1       599-3.28743E+01-4.23649E+01-9.52500E+00
 -1       600-2.52769E+01-3.62573E+01-9.52500E+00
 -1       601 1.51426E+01-4.51979E+01-9.52500E+00
 -1       602-2.74139E+00-4.23777E+01-9.52500E+00
 -1       603-1.19354E+01-4.69327E+01-9.52500E+00
 -1       604 6.14273E+00 3.91531E+01-9.52500E+00
 -1       605-3.22857E+01 3.11563E+01-9.52500E+00
 -1       606 3.20978E+01 2.10338E+01-9.52500E+00
 -1       607 2.22701E+01 5.74585E+00-9.52500E+00
 -1       608 3.13603E+01 2.67198E-01-9.52500E+00
 -1       609 2.15863E+01-4.41649E+00-9.52500E+00
 -1       610 3.05202E+01-1.19583E+01-9.52500E+00
 -1       611 1.32179E+01 1.20602E+01-9.52500E+00
 -1       612-3.30785E+01-2.06688E+01-9.52500E+00
 -1       613-3.22682E+01 1.04888E+01-9.52500E+00
 -1       614-3.23433E+01-3.26004E-03-9.52500E+00
 -1       615-2.41146E+01-5.25753E+00-9.52500E+00
 -1       616 9.62942E+00-1.84741E+01-9.52500E+00
 -1       617-1.10934E+01 5.52197E+01-9.52500E+00
 -1       618 9.97857E+00 5.48583E+01-9.52500E+00
 -1       619-1.37012E+01 2.04943E+01-9.52500E+00
 -1       620 9.95961E+00-5.50763E+01-9.52500E+00
 -1       621 1.91481E+01-1.48938E+01-9.52500E+00
 -1       622-1.99413E+00 4.39554E+01-9.52500E+00
 -1       623-2.30799E+01 1.55478E+01-9.52500E+00
 -1       624-2.35829E+01 5.13603E+00-9.52500E+00
 -1       625 2.83577E+01-5.55241E+01-9.52500E+00
 -1       626 2.50306E+01-4.74998E+01-9.52500E+00
 -1       627-2.84082E+01 5.55957E+01-9.52500E+00
 -1       628-2.54973E+01 4.78729E+01-9.52500E+00
 -1       629-2.91680E+01-5.63621E+01-9.52500E+00
 -1       630 2.91671E+01 5.63779E+01-9.52500E+00
 -1       631 1.22869E+01 1.85777E+00-9.52500E+00
 -1       632-2.44214E+01-4.71417E+01-9.52500E+00
 -1       633 2.58829E+01 4.79589E+01-9.52500E+00
 -1       634-1.54123E+01-6.06798E-01-9.52500E+00
 -1       635-9.97857E+00-5.58521E+01-9.52500E+00
 -1       636-1.76303E+01-3.12273E+01-9.52500E+00
 -1       637-1.62706E+01-1.07051E+01-9.52500E+00
 -1       638-3.60874E+01-5.79291E+01-9.52500E+00
 -1       639 3.60873E+01 5.79307E+01-9.52500E+00
 -1       640 3.97273E+00-4.77613E+01-9.52500E+00
 -1       641 3.38906E+01-5.08862E+01-9.52500E+00
 -1       642-3.40199E+01 5.11035E+01-9.52500E+00
 -1       643 2.27712E+01-3.95745E+01-9.52500E+00
 -1       644-2.48945E+01-1.55997E+01-9.52500E+00
 -1       645 3.46117E+01-3.11630E+01-9.52500E+00
 -1       646 5.67744E+00 4.73975E+01-9.52500E+00
 -1       647-1.67204E+01 4.73257E+01-9.52500E+00
 -1       648-2.52195E+01-2.60041E+01-9.52500E+00
 -1       649-3.16087E+01 5.96423E+01-9.52500E+00
 -1       650 3.16087E+01-5.96423E+01-9.52500E+00
 -1       651-1.79002E+01-3.96414E+01-9.52500E+00
 -1       652 2.49087E+01-2.10610E+01-9.52500E+00
 -1       653-4.78445E+00-4.96968E+01-9.52500E+00
 -1       654-8.28492E+00 4.81638E+01-9.52500E+00
 -1       655-3.50944E+01 6.06781E+01-9.52500E+00
 -1       656-3.73395E+01 5.97481E+01-9.52500E+00
 -1       657-2.82776E+01 6.15711E+01-9.52500E+00
 -1       658-3.32669E+01 6.15711E+01-9.52500E+00
 -1       659-3.34363E+01 5.87492E+01-9.52500E+00
 -1       660-3.82694E+01 5.75031E+01-9.52500E+00
 -1       661-3.76474E+01 5.41268E+01-9.52500E+00
 -1       662-3.76474E+01 4.89313E+01-9.52500E+00
 -1       663-3.46418E+01 5.44798E+01-9.52500E+00
 -1       664-3.86812E+01-5.75395E+01-9.52500E+00
 -1       665-3.77513E+01-5.97846E+01-9.52500E+00
 -1       666-3.79005E+01-4.93568E+01-9.52500E+00
 -1       667-3.79005E+01-5.45523E+01-9.52500E+00
 -1       668-3.53066E+01-5.49418E+01-9.52500E+00
 -1       669-3.55062E+01-6.07145E+01-9.52500E+00
 -1       670-3.20465E+01-5.99310E+01-9.52500E+00
 -1       671-2.70572E+01-5.99310E+01-9.52500E+00
 -1       672-3.26277E+01-5.71456E+01-9.52500E+00
 -1       673 3.86811E+01 5.75403E+01-9.52500E+00
 -1       674 3.77512E+01 5.97854E+01-9.52500E+00
 -1       675 3.79005E+01 4.93568E+01-9.52500E+00
 -1       676 3.79005E+01 5.45523E+01-9.52500E+00
 -1       677 3.53066E+01 5.49426E+01-9.52500E+00
 -1       678 3.55061E+01 6.07153E+01-9.52500E+00
 -1       679 3.20460E+01 5.99390E+01-9.52500E+00
 -1       680 2.70568E+01 5.99390E+01-9.52500E+00
 -1       681 3.26272E+01 5.71543E+01-9.52500E+00
 -1       682 3.50944E+01-6.06781E+01-9.52500E+00
 -1       683 3.73395E+01-5.97481E+01-9.52500E+00
 -1       684 2.82776E+01-6.15711E+01-9.52500E+00
 -1       685 3.32669E+01-6.15711E+01-9.52500E+00
 -1       686 3.34363E+01-5.87492E+01-9.52500E+00
 -1       687 3.82694E+01-5.75031E+01-9.52500E+00
 -1       688 3.75828E+01-5.40181E+01-9.52500E+00
 -1       689 3.75828E+01-4.88227E+01-9.52500E+00
 -1       690 3.45772E+01-5.43712E+01-9.52500E+00
 -1       691-1.74832E+01 5.94580E+01-9.52500E+00
 -1       692-2.24725E+01 5.94580E+01-9.52500E+00
 -1       693-2.42034E+01 5.55059E+01-9.52500E+00
 -1       694-2.66773E+01 5.95479E+01-9.52500E+00
 -1       695-3.00085E+01 5.76190E+01-9.52500E+00
 -1       696-8.04132E+00 5.93598E+01-9.52500E+00
 -1       697-1.30306E+01 5.93598E+01-9.52500E+00
 -1       698-1.55460E+01 5.53179E+01-9.52500E+00
 -1       699 2.09945E+00 5.86843E+01-9.52500E+00
 -1       700-2.88984E+00 5.86843E+01-9.52500E+00
 -1       701-5.94187E+00 5.45441E+01-9.52500E+00
 -1       702 1.24732E+01 5.91792E+01-9.52500E+00
 -1       703 7.48393E+00 5.91792E+01-9.52500E+00
 -1       704 4.59409E+00 5.43634E+01-9.52500E+00
 -1       705 2.24490E+01 5.92267E+01-9.52500E+00
 -1       706 1.74597E+01 5.92267E+01-9.52500E+00
 -1       707 1.49651E+01 5.49059E+01-9.52500E+00
 -1       708 2.45593E+01 5.56657E+01-9.52500E+00
 -1       709 3.67083E+01-4.36437E+01-9.52500E+00
 -1       710 3.67083E+01-3.84482E+01-9.52500E+00
 -1       711 3.30161E+01-4.57072E+01-9.52500E+00
 -1       712 3.79434E+01-3.37656E+01-9.52500E+00
 -1       713 3.79434E+01-2.85701E+01-9.52500E+00
 -1       714 3.33767E+01-3.58456E+01-9.52500E+00
 -1       715 3.70516E+01-2.42465E+01-9.52500E+00
 -1       716 3.70516E+01-1.90511E+01-9.52500E+00
 -1       717 3.37200E+01-2.68394E+01-9.52500E+00
 -1       718 3.58976E+01-1.37723E+01-9.52500E+00
 -1       719 3.58976E+01-8.57687E+00-9.52500E+00
 -1       720 3.16742E+01-1.72371E+01-9.52500E+00
 -1       721 3.63177E+01-2.46413E+00-9.52500E+00
 -1       722 3.63177E+01 2.73133E+00-9.52500E+00
 -1       723 3.09403E+01-5.84554E+00-9.52500E+00
 -1       724 3.64617E+01 7.95132E+00-9.52500E+00
 -1       725 3.64617E+01 1.31468E+01-9.52500E+00
 -1       726 3.15044E+01 5.48719E+00-9.52500E+00
 -1       727 3.66864E+01 1.83101E+01-9.52500E+00
 -1       728 3.66864E+01 2.35055E+01-9.52500E+00
 -1       729 3.18731E+01 1.58705E+01-9.52500E+00
 -1       730 3.67756E+01 2.85750E+01-9.52500E+00
 -1       731 3.67756E+01 3.37705E+01-9.52500E+00
 -1       732 3.21870E+01 2.61032E+01-9.52500E+00
 -1       733 3.70560E+01 3.93559E+01-9.52500E+00
 -1       734 3.70560E+01 4.45513E+01-9.52500E+00
 -1       735 3.25566E+01 3.67582E+01-9.52500E+00
 -1       736 3.36815E+01 4.71491E+01-9.52500E+00
 -1       737-2.24518E+01-5.91792E+01-9.52500E+00
 -1       738-1.74625E+01-5.91792E+01-9.52500E+00
 -1       739-2.45626E+01-5.56102E+01-9.52500E+00
 -1       740-1.24732E+01-5.96760E+01-9.52500E+00
 -1       741-7.48393E+00-5.96760E+01-9.52500E+00
 -1       742-1.49679E+01-5.53552E+01-9.52500E+00
 -1       743-2.50827E+00-5.96537E+01-9.52500E+00
 -1       744 2.48101E+00-5.96537E+01-9.52500E+00
 -1       745-5.00292E+00-5.58297E+01-9.52500E+00
 -1       746 7.47445E+00-5.92881E+01-9.52500E+00
 -1       747 1.24637E+01-5.92881E+01-9.52500E+00
 -1       748 4.96618E+00-5.54418E+01-9.52500E+00
 -1       749 1.73319E+01-5.92433E+01-9.52500E+00
 -1       750 2.23211E+01-5.92433E+01-9.52500E+00
 -1       751 1.48277E+01-5.50314E+01-9.52500E+00
 -1       752 2.40268E+01-5.52553E+01-9.52500E+00
 -1       753 2.66521E+01-5.95121E+01-9.52500E+00
 -1       754 2.99832E+01-5.75832E+01-9.52500E+00
 -1       755-3.70747E+01-3.93665E+01-9.52500E+00
 -1       756-3.70747E+01-4.45620E+01-9.52500E+00
 -1       757-3.37001E+01-4.71597E+01-9.52500E+00
 -1       758-3.70825E+01-2.87503E+01-9.52500E+00
 -1       759-3.70825E+01-3.39458E+01-9.52500E+00
 -1       760-3.28821E+01-3.69441E+01-9.52500E+00
 -1       761-3.71768E+01-1.81276E+01-9.52500E+00
 -1       762-3.71768E+01-2.33230E+01-9.52500E+00
 -1       763-3.29842E+01-2.60960E+01-9.52500E+00
 -1       764-3.68930E+01-7.71850E+00-9.52500E+00
 -1       765-3.68930E+01-1.29140E+01-9.52500E+00
 -1       766-3.27948E+01-1.54552E+01-9.52500E+00
 -1       767-3.68091E+01 2.59610E+00-9.52500E+00
 -1       768-3.68091E+01-2.59936E+00-9.52500E+00
 -1       769-3.24272E+01-5.12240E+00-9.52500E+00
 -1       770-3.67716E+01 1.30376E+01-9.52500E+00
 -1       771-3.67716E+01 7.84210E+00-9.52500E+00
 -1       772-3.23057E+01 5.24275E+00-9.52500E+00
 -1       773-3.67756E+01 2.33795E+01-9.52500E+00
 -1       774-3.67756E+01 1.81841E+01-9.52500E+00
 -1       775-3.22722E+01 1.56353E+01-9.52500E+00
 -1       776-3.67804E+01 3.37622E+01-9.52500E+00
 -1       777-3.67804E+01 2.85668E+01-9.52500E+00
 -1       778-3.22810E+01 2.59690E+01-9.52500E+00
 -1       779-3.68375E+01 4.40731E+01-9.52500E+00
 -1       780-3.68375E+01 3.88777E+01-9.52500E+00
 -1       781-3.23428E+01 3.62717E+01-9.52500E+00
 -1       782-3.32099E+01 4.62453E+01-9.52500E+00
 -1       783-4.53766E+00 5.10162E+01-9.52500E+00
 -1       784-9.68914E+00 5.16917E+01-9.52500E+00
 -1       785 7.82801E+00 5.11279E+01-9.52500E+00
 -1       786 2.44353E+00 5.06330E+01-9.52500E+00
 -1       787-1.39226E+00 4.89119E+01-9.52500E+00
 -1       788 1.84165E+00 4.56764E+01-9.52500E+00
 -1       789-5.13953E+00 4.60596E+01-9.52500E+00
 -1       790 1.97273E+00-5.17843E+01-9.52500E+00
 -1       791 6.96617E+00-5.14188E+01-9.52500E+00
 -1       792-7.38151E+00-5.27744E+01-9.52500E+00
 -1       793-2.40586E+00-5.27521E+01-9.52500E+00
 -1       794-4.05863E-01-4.87290E+01-9.52500E+00
 -1       795 2.71518E+01 1.35066E+01-9.52500E+00
 -1       796 2.73765E+01 1.86699E+01-9.52500E+00
 -1       797 2.69593E+01 8.22652E+00-9.52500E+00
 -1       798 2.24626E+01 1.10259E+01-9.52500E+00
 -1       799 2.68152E+01 3.00652E+00-9.52500E+00
 -1       800-2.87028E+01-1.29206E+01-9.52500E+00
 -1       801-2.89865E+01-1.81342E+01-9.52500E+00
 -1       802-2.82289E+01-2.63040E+00-9.52500E+00
 -1       803-2.83128E+01-7.74954E+00-9.52500E+00
 -1       804-2.45046E+01-1.04286E+01-9.52500E+00
 -1       805-2.72656E+01 2.36490E+01-9.52500E+00
 -1       806-2.72703E+01 2.88362E+01-9.52500E+00
 -1       807-2.26674E+01 2.10320E+01-9.52500E+00
 -1       808-2.76780E+01 1.81648E+01-9.52500E+00
 -1       809-2.76740E+01 1.30183E+01-9.52500E+00
 -1       810 2.91836E+01-2.64706E+01-9.52500E+00
 -1       811 3.00754E+01-3.07941E+01-9.52500E+00
 -1       812 2.52238E+01-2.57432E+01-9.52500E+00
 -1       813 2.88685E+01-2.17884E+01-9.52500E+00
 -1       814 2.77145E+01-1.65097E+01-9.52500E+00
 -1       815-2.90834E+01-3.38903E+01-9.52500E+00
 -1       816-2.90756E+01-3.93111E+01-9.52500E+00
 -1       817-2.90547E+01-2.87637E+01-9.52500E+00
 -1       818-2.52482E+01-3.11307E+01-9.52500E+00
 -1       819-2.91490E+01-2.33364E+01-9.52500E+00
 -1       820 2.80795E+01 3.42482E+01-9.52500E+00
 -1       821 2.83599E+01 3.98336E+01-9.52500E+00
 -1       822 2.76401E+01 2.90937E+01-9.52500E+00
 -1       823 2.34433E+01 3.21691E+01-9.52500E+00
 -1       824 2.75509E+01 2.40242E+01-9.52500E+00
 -1       825-2.70628E+01 3.96389E+01-9.52500E+00
 -1       826-2.70057E+01 3.45235E+01-9.52500E+00
 -1       827-2.89486E+01 4.46300E+01-9.52500E+00
 -1       828-2.36115E+01 4.28818E+01-9.52500E+00
 -1       829-2.97586E+01 4.94882E+01-9.52500E+00
 -1       830 2.88403E+01-3.54768E+01-9.52500E+00
 -1       831 2.74564E+01-4.00514E+01-9.52500E+00
 -1       832 2.41551E+01-3.49999E+01-9.52500E+00
 -1       833 2.85861E+01-4.40140E+01-9.52500E+00
 -1       834 2.94606E+01-4.91930E+01-9.52500E+00
 -1       835 2.39009E+01-4.35371E+01-9.52500E+00
 -1       836 1.74422E+01 4.98768E+01-9.52500E+00
 -1       837 1.24557E+01 4.98292E+01-9.52500E+00
 -1       838 2.29172E+01 5.14561E+01-9.52500E+00
 -1       839 2.04078E+01 4.63795E+01-9.52500E+00
 -1       840 2.75250E+01 5.21684E+01-9.52500E+00
 -1       841-1.59463E+01-5.08955E+01-9.52500E+00
 -1       842-2.21893E+01-5.10000E+01-9.52500E+00
 -1       843-1.81784E+01-4.70372E+01-9.52500E+00
 -1       844-1.09570E+01-5.13924E+01-9.52500E+00
 -1       845-2.67947E+01-5.17519E+01-9.52500E+00
 -1       846 1.74193E+01-5.00922E+01-9.52500E+00
 -1       847 1.25511E+01-5.01371E+01-9.52500E+00
 -1       848 2.00866E+01-4.63488E+01-9.52500E+00
 -1       849 2.23632E+01-5.12432E+01-9.52500E+00
 -1       850 2.66942E+01-5.15119E+01-9.52500E+00
 -1       851-1.39069E+01 5.12727E+01-9.52500E+00
 -1       852-1.83595E+01 5.13709E+01-9.52500E+00
 -1       853-2.27480E+01 5.16445E+01-9.52500E+00
 -1       854-2.69528E+01 5.17343E+01-9.52500E+00
 -1       855-2.11089E+01 4.75993E+01-9.52500E+00
 -1       856-2.86479E+01-4.47533E+01-9.52500E+00
 -1       857-2.94737E+01-4.95481E+01-9.52500E+00
 -1       858-3.18470E+01-5.41583E+01-9.52500E+00
 -1       859 2.93600E+01 4.51512E+01-9.52500E+00
 -1       860 3.02044E+01 4.99567E+01-9.52500E+00
 -1       861 3.18465E+01 5.41662E+01-9.52500E+00
 -1       862 3.18108E+01-5.66901E+01-9.52500E+00
 -1       863 3.11242E+01-5.32052E+01-9.52500E+00
 -1       864-3.18360E+01 5.67259E+01-9.52500E+00
 -1       865-3.12140E+01 5.33496E+01-9.52500E+00
 -1       866 2.48828E+01 4.26413E+01-9.52500E+00
 -1       867 1.87552E+01 3.00615E+01-9.52500E+00
 -1       868 1.91946E+01 3.52160E+01-9.52500E+00
 -1       869 1.47196E+01 3.89542E+01-9.52500E+00
 -1       870 1.94078E+01 4.10619E+01-9.52500E+00
 -1       871 1.82822E+01 2.47898E+01-9.52500E+00
 -1       872 1.40335E+01 2.78367E+01-9.52500E+00
 -1       873 2.28295E+01 2.16603E+01-9.52500E+00
 -1       874 1.81078E+01 1.94355E+01-9.52500E+00
 -1       875 9.32873E+00 2.57238E+01-9.52500E+00
 -1       876 9.80169E+00 3.09955E+01-9.52500E+00
 -1       877 5.61983E+00 3.40179E+01-9.52500E+00
 -1       878 1.03246E+01 3.61307E+01-9.52500E+00
 -1       879 1.05378E+01 4.19766E+01-9.52500E+00
 -1       880 8.85066E+00 2.04483E+01-9.52500E+00
 -1       881 4.61886E+00 2.36071E+01-9.52500E+00
 -1       882 1.33892E+01 1.73126E+01-9.52500E+00
 -1       883 8.67933E+00 1.51959E+01-9.52500E+00
 -1       884 1.79365E+01 1.41831E+01-9.52500E+00
 -1       885-8.43395E-02 2.15115E+01-9.52500E+00
 -1       886 3.93739E-01 2.67871E+01-9.52500E+00
 -1       887-3.78654E+00 2.98168E+01-9.52500E+00
 -1       888 9.16658E-01 3.19123E+01-9.52500E+00
 -1       889 1.43956E+00 3.70476E+01-9.52500E+00
 -1       890-6.35420E-01 1.63822E+01-9.52500E+00
 -1       891-4.86054E+00 1.95622E+01-9.52500E+00
 -1       892 3.59075E+00 1.33051E+01-9.52500E+00
 -1       893-1.18545E+00 1.13558E+01-9.52500E+00
 -1       894 8.12930E+00 1.01695E+01-9.52500E+00
 -1       895-9.55642E+00 1.74636E+01-9.52500E+00
 -1       896-9.00534E+00 2.25929E+01-9.52500E+00
 -1       897-8.47598E+00 2.77455E+01-9.52500E+00
 -1       898-7.95306E+00 3.28707E+01-9.52500E+00
 -1       899-1.31719E+01 2.56469E+01-9.52500E+00
 -1       900-1.66901E+00 6.23003E+00-9.52500E+00
 -1       901-5.89518E+00 9.30707E+00-9.52500E+00
 -1       902-1.04557E+01 7.13345E+00-9.52500E+00
 -1       903-9.97216E+00 1.22592E+01-9.52500E+00
 -1       904-1.41170E+01 1.52899E+01-9.52500E+00
 -1       905 2.64840E+00 3.09408E+00-9.52500E+00
 -1       906-2.06132E+00 1.04540E+00-9.52500E+00
 -1       907 7.66382E+00 5.06824E+00-9.52500E+00
 -1       908 7.27151E+00-1.16390E-01-9.52500E+00
 -1       909 1.27524E+01 6.95899E+00-9.52500E+00
 -1       910-2.52700E+00-4.20394E+00-9.52500E+00
 -1       911-6.84441E+00-1.06799E+00-9.52500E+00
 -1       912-1.13612E+01-3.46206E+00-9.52500E+00
 -1       913-1.08955E+01 1.78727E+00-9.52500E+00
 -1       914-1.49725E+01 4.73938E+00-9.52500E+00
 -1       915 1.54355E+00-7.15700E+00-9.52500E+00
 -1       916-3.23954E+00-9.27039E+00-9.52500E+00
 -1       917 6.80329E+00-5.26082E+00-9.52500E+00
 -1       918 6.09076E+00-1.03273E+01-9.52500E+00
 -1       919 1.18187E+01-3.28666E+00-9.52500E+00
 -1       920-3.86728E+00-1.44086E+01-9.52500E+00
 -1       921-7.93784E+00-1.14555E+01-9.52500E+00
 -1       922-1.24181E+01-1.36494E+01-9.52500E+00
 -1       923-1.17903E+01-8.51119E+00-9.52500E+00
 -1       924-1.58414E+01-5.65593E+00-9.52500E+00
 -1       925 2.34120E-01-1.73442E+01-9.52500E+00
 -1       926-4.46418E+00-1.95293E+01-9.52500E+00
 -1       927 5.23022E+00-1.53488E+01-9.52500E+00
 -1       928 4.63332E+00-2.04695E+01-9.52500E+00
 -1       929 1.04900E+01-1.34526E+01-9.52500E+00
 -1       930-5.01292E+00-2.44679E+01-9.52500E+00
 -1       931-9.11432E+00-2.15322E+01-9.52500E+00
 -1       932-1.36048E+01-2.36095E+01-9.52500E+00
 -1       933-1.30561E+01-1.86710E+01-9.52500E+00
 -1       934-1.69086E+01-1.57266E+01-9.52500E+00
 -1       935-9.23982E-01-2.75468E+01-9.52500E+00
 -1       936-5.57412E+00-2.95497E+01-9.52500E+00
 -1       937 3.76082E+00-2.54741E+01-9.52500E+00
 -1       938 3.19962E+00-3.05559E+01-9.52500E+00
 -1       939 8.75692E+00-2.34787E+01-9.52500E+00
 -1       940 1.64684E+01-6.42379E+00-9.52500E+00
 -1       941 2.03672E+01-9.65515E+00-9.52500E+00
 -1       942 1.52493E+01-1.16624E+01-9.52500E+00
 -1       943 1.69366E+01-1.27936E+00-9.52500E+00
 -1       944 1.43888E+01-1.66840E+01-9.52500E+00
 -1       945-5.86100E+00-3.46383E+01-9.52500E+00
 -1       946-9.94994E+00-3.15594E+01-9.52500E+00
 -1       947-1.39335E+01-3.39377E+01-9.52500E+00
 -1       948-1.36467E+01-2.88490E+01-9.52500E+00
 -1       949-1.75884E+01-2.59877E+01-9.52500E+00
 -1       950 7.27001E+00-3.34616E+01-9.52500E+00
 -1       951 2.58521E+00-3.55343E+01-9.52500E+00
 -1       952-2.11329E+00-3.75031E+01-9.52500E+00
 -1       953-6.48911E+00-3.95129E+01-9.52500E+00
 -1       954 1.95710E+00-4.04088E+01-9.52500E+00
 -1       955 1.19433E+01-3.13522E+01-9.52500E+00
 -1       956 1.13289E+01-3.63305E+01-9.52500E+00
 -1       957 1.25820E+01-2.65076E+01-9.52500E+00
 -1       958 1.66408E+01-2.93765E+01-9.52500E+00
 -1       959 1.34545E+01-2.15030E+01-9.52500E+00
 -1       960-1.17344E+01 3.56246E+01-9.52500E+00
 -1       961-7.04496E+00 3.76959E+01-9.52500E+00
 -1       962-6.41021E+00 4.22026E+01-9.52500E+00
 -1       963-2.62888E+00 3.94487E+01-9.52500E+00
 -1       964 2.07430E+00 4.15542E+01-9.52500E+00
 -1       965-1.71841E+01 3.43451E+01-9.52500E+00
 -1       966-1.62760E+01 3.91702E+01-9.52500E+00
 -1       967-1.74487E+01 2.86579E+01-9.52500E+00
 -1       968-2.19903E+01 3.22035E+01-9.52500E+00
 -1       969-1.79781E+01 2.35053E+01-9.52500E+00
 -1       970-1.88063E+01 1.28167E+01-9.52500E+00
 -1       971-1.83905E+01 1.80211E+01-9.52500E+00
 -1       972-1.90578E+01 7.61079E+00-9.52500E+00
 -1       973-2.33314E+01 1.03419E+01-9.52500E+00
 -1       974-1.94976E+01 2.26462E+00-9.52500E+00
 -1       975-7.33840E+00-4.46552E+01-9.52500E+00
 -1       976-1.10861E+01-4.17904E+01-9.52500E+00
 -1       977-1.49178E+01-4.32871E+01-9.52500E+00
 -1       978-1.40685E+01-3.81447E+01-9.52500E+00
 -1       979-1.77652E+01-3.54343E+01-9.52500E+00
 -1       980 1.55724E+01-3.97095E+01-9.52500E+00
 -1       981 1.08991E+01-4.18190E+01-9.52500E+00
 -1       982 9.55769E+00-4.64796E+01-9.52500E+00
 -1       983 5.31416E+00-4.31006E+01-9.52500E+00
 -1       984 6.15667E-01-4.50695E+01-9.52500E+00
 -1       985-2.14249E+01-2.86157E+01-9.52500E+00
 -1       986-2.13831E+01-2.33762E+01-9.52500E+00
 -1       987-2.12206E+01-1.81740E+01-9.52500E+00
 -1       988-2.05825E+01-1.31524E+01-9.52500E+00
 -1       989-2.50570E+01-2.08019E+01-9.52500E+00
 -1       990 2.14093E+01-2.74786E+01-9.52500E+00
 -1       991 2.07705E+01-3.23232E+01-9.52500E+00
 -1       992 1.93867E+01-3.68978E+01-9.52500E+00
 -1       993 1.89569E+01-4.23862E+01-9.52500E+00
 -1       994-1.92231E+01 4.26082E+01-9.52500E+00
 -1       995-1.37734E+01 4.38877E+01-9.52500E+00
 -1       996-9.55561E+00 4.43068E+01-9.52500E+00
 -1       997-1.25027E+01 4.77448E+01-9.52500E+00
 -1       998 2.10941E+01-2.27964E+01-9.52500E+00
 -1       999 1.82138E+01-1.97128E+01-9.52500E+00
 -1      1000 2.20284E+01-1.79774E+01-9.52500E+00
 -1      1001 5.91009E+00 4.32753E+01-9.52500E+00
 -1      1002 1.03051E+01 4.60988E+01-9.52500E+00
 -1      1003 1.77440E+01 8.90302E+00-9.52500E+00
 -1      1004-2.48492E+01-4.16995E+01-9.52500E+00
 -1      1005-2.15886E+01-3.79494E+01-9.52500E+00
 -1      1006-2.11608E+01-4.33915E+01-9.52500E+00
 -1      1007-2.14536E+01-3.37423E+01-9.52500E+00
 -1      1008-3.76292E+00-4.60372E+01-9.52500E+00
 -1      1009-8.35993E+00-4.83147E+01-9.52500E+00
 -1      1010 2.64733E+01-2.07465E+00-9.52500E+00
 -1      1011 2.19282E+01 6.64678E-01-9.52500E+00
 -1      1012 1.72785E+01 3.80181E+00-9.52500E+00
 -1      1013 2.60532E+01-8.18739E+00-9.52500E+00
 -1      1014 2.48342E+01-1.34260E+01-9.52500E+00
 -1      1015-2.79255E+01 7.81239E+00-9.52500E+00
 -1      1016-2.79631E+01 2.56639E+00-9.52500E+00
 -1      1017-2.38487E+01-6.07484E-02-9.52500E+00
 -1      1018-1.97634E+01-2.93216E+00-9.52500E+00
 -1      1019-2.01926E+01-7.98129E+00-9.52500E+00
 -1      1020 9.98434E+00 6.35000E+01 2.92402E-01
 -1      1021-9.96727E+00 6.35000E+01 1.95709E-02
 -1      1022 2.07067E+01 6.35000E+01-5.04605E-01
 -1      1023-2.07050E+01 6.35000E+01 5.36439E-01
 -1      1024 2.84403E-03 6.35000E+01 5.19955E-02
 -1      1025 2.77632E+01 6.35000E+01 2.19563E+00
 -1      1026-2.79495E+01 6.35000E+01-2.27227E+00
 -1      1027 2.90197E+01 6.35000E+01-3.84057E+00
 -1      1028-2.90461E+01 6.35000E+01 3.83417E+00
 -1      1029-3.14373E+01 6.35000E+01-1.13614E+00
 -1      1030-3.14373E+01 6.35000E+01-5.89864E+00
 -1      1031-2.64480E+01 6.35000E+01-5.89864E+00
 -1      1032-3.19855E+01 6.35000E+01 6.67958E+00
 -1      1033-3.19855E+01 6.35000E+01 1.91708E+00
 -1      1034-2.69962E+01 6.35000E+01 6.67958E+00
 -1      1035 3.19723E+01 6.35000E+01-6.68278E+00
 -1      1036 3.19723E+01 6.35000E+01-1.92028E+00
 -1      1037 2.69831E+01 6.35000E+01-6.68278E+00
 -1      1038 3.13441E+01 6.35000E+01 1.09781E+00
 -1      1039 3.13441E+01 6.35000E+01 5.86031E+00
 -1      1040 2.63548E+01 6.35000E+01 5.86031E+00
 -1      1041-2.84978E+01 6.35000E+01 7.80948E-01
 -1      1042 2.83914E+01 6.35000E+01-8.22469E-01
 -1      1043-2.28257E+01 6.35000E+01-4.49428E+00
 -1      1044-1.78364E+01 6.35000E+01-4.49428E+00
 -1      1045-2.43273E+01 6.35000E+01-8.67916E-01
 -1      1046-1.24676E+01 6.35000E+01-4.75271E+00
 -1      1047-7.47828E+00 6.35000E+01-4.75271E+00
 -1      1048-1.53361E+01 6.35000E+01 2.78005E-01
 -1      1049-2.49322E+00 6.35000E+01-4.73650E+00
 -1      1050 2.49606E+00 6.35000E+01-4.73650E+00
 -1      1051-4.98221E+00 6.35000E+01 3.57832E-02
 -1      1052 7.48681E+00 6.35000E+01-4.61630E+00
 -1      1053 1.24761E+01 6.35000E+01-4.61630E+00
 -1      1054 4.99359E+00 6.35000E+01 1.72199E-01
 -1      1055 1.78373E+01 6.35000E+01-5.01480E+00
 -1      1056 2.28266E+01 6.35000E+01-5.01480E+00
 -1      1057 1.53455E+01 6.35000E+01-1.06101E-01
 -1      1058 2.48632E+01 6.35000E+01-2.17259E+00
 -1      1059-1.78364E+01 6.35000E+01 5.03072E+00
 -1      1060-2.28257E+01 6.35000E+01 5.03072E+00
 -1      1061-2.48755E+01 6.35000E+01 2.18530E+00
 -1      1062-7.47828E+00 6.35000E+01 4.77229E+00
 -1      1063-1.24676E+01 6.35000E+01 4.77229E+00
 -1      1064 2.49606E+00 6.35000E+01 4.78850E+00
 -1      1065-2.49322E+00 6.35000E+01 4.78850E+00
 -1      1066 1.24761E+01 6.35000E+01 4.90870E+00
 -1      1067 7.48681E+00 6.35000E+01 4.90870E+00
 -1      1068 2.28266E+01 6.35000E+01 4.51020E+00
 -1      1069 1.78373E+01 6.35000E+01 4.51020E+00
 -1      1070 2.42350E+01 6.35000E+01 8.45512E-01
 -1      1071 2.07061E+01-6.35000E+01-4.44309E-01
 -1      1072 3.66374E-14-6.35000E+01-2.82417E-01
 -1      1073-2.07061E+01-6.35000E+01-4.44309E-01
 -1      1074 1.01034E+01-6.35000E+01-1.21121E-01
 -1      1075-1.01034E+01-6.35000E+01-1.21121E-01
 -1      1076 2.77632E+01-6.35000E+01 2.19877E+00
 -1      1077-2.77632E+01-6.35000E+01 2.19877E+00
 -1      1078 2.90196E+01-6.35000E+01-3.83151E+00
 -1      1079-2.90196E+01-6.35000E+01-3.83151E+00
 -1      1080-3.19723E+01-6.35000E+01-6.67825E+00
 -1      1081-3.19723E+01-6.35000E+01-1.91575E+00
 -1      1082-2.69830E+01-6.35000E+01-6.67825E+00
 -1      1083-3.13441E+01-6.35000E+01 1.09938E+00
 -1      1084-3.13441E+01-6.35000E+01 5.86188E+00
 -1      1085-2.63548E+01-6.35000E+01 5.86188E+00
 -1      1086 3.19723E+01-6.35000E+01-1.91575E+00
 -1      1087 3.19723E+01-6.35000E+01-6.67825E+00
 -1      1088 2.69830E+01-6.35000E+01-6.67825E+00
 -1      1089 3.13441E+01-6.35000E+01 5.86188E+00
 -1      1090 3.13441E+01-6.35000E+01 1.09938E+00
 -1      1091 2.63548E+01-6.35000E+01 5.86188E+00
 -1      1092-2.83914E+01-6.35000E+01-8.16369E-01
 -1      1093 2.83914E+01-6.35000E+01-8.16369E-01
 -1      1094-1.78370E+01-6.35000E+01-4.98465E+00
 -1      1095-2.28263E+01-6.35000E+01-4.98465E+00
 -1      1096-2.48629E+01-6.35000E+01-2.13791E+00
 -1      1097-7.54634E+00-6.35000E+01-4.82306E+00
 -1      1098-1.25356E+01-6.35000E+01-4.82306E+00
 -1      1099-1.54048E+01-6.35000E+01-2.82715E-01
 -1      1100 2.49464E+00-6.35000E+01-4.90371E+00
 -1      1101-2.49464E+00-6.35000E+01-4.90371E+00
 -1      1102-5.05170E+00-6.35000E+01-2.01769E-01
 -1      1103 1.25356E+01-6.35000E+01-4.82306E+00
 -1      1104 7.54634E+00-6.35000E+01-4.82306E+00
 -1      1105 5.05170E+00-6.35000E+01-2.01769E-01
 -1      1106 2.28263E+01-6.35000E+01-4.98465E+00
 -1      1107 1.78370E+01-6.35000E+01-4.98465E+00
 -1      1108 1.54048E+01-6.35000E+01-2.82715E-01
 -1      1109 2.48629E+01-6.35000E+01-2.13791E+00
 -1      1110-2.28263E+01-6.35000E+01 4.54035E+00
 -1      1111-1.78370E+01-6.35000E+01 4.54035E+00
 -1      1112-2.42347E+01-6.35000E+01 8.77230E-01
 -1      1113-1.25356E+01-6.35000E+01 4.70194E+00
 -1      1114-7.54634E+00-6.35000E+01 4.70194E+00
 -1      1115-2.49464E+00-6.35000E+01 4.62129E+00
 -1      1116 2.49464E+00-6.35000E+01 4.62129E+00
 -1      1117 7.54634E+00-6.35000E+01 4.70194E+00
 -1      1118 1.25356E+01-6.35000E+01 4.70194E+00
 -1      1119 1.78370E+01-6.35000E+01 4.54035E+00
 -1      1120 2.28263E+01-6.35000E+01 4.54035E+00
 -1      1121 2.42347E+01-6.35000E+01 8.77230E-01
 -1      1122-4.12750E+01 4.13244E+00 2.67679E+00
 -1      1123-4.12750E+01-1.28588E+01 1.82603E+00
 -1      1124-4.12750E+01-4.30957E+01 3.66418E-01
 -1      1125-4.12750E+01 4.31798E+01 5.12080E-01
 -1      1126-4.12750E+01 2.27013E+01 1.00115E+00
 -1      1127-4.12750E+01-3.21377E+01 2.63596E-01
 -1      1128-4.12750E+01 1.28588E+01 2.10100E+00
 -1      1129-4.12750E+01 3.22190E+01 2.52204E-01
 -1      1130-4.12750E+01-2.19938E+01 3.48272E-01
 -1      1131-4.12750E+01-4.28849E+00 2.28038E+00
 -1      1132-4.12750E+01-1.16988E-01-3.45896E+00
 -1      1133-4.12750E+01-5.00264E+01-2.33661E+00
 -1      1134-4.12750E+01 5.02085E+01-2.38900E+00
 -1      1135-4.12750E+01 7.79801E+00-3.32034E+00
 -1      1136-4.12750E+01-8.10518E+00-3.62926E+00
 -1      1137-4.12750E+01 5.13505E+01 3.81401E+00
 -1      1138-4.12750E+01-5.13124E+01 3.80069E+00
 -1      1139-4.12750E+01 5.36793E+01-5.95700E+00
 -1      1140-4.12750E+01 5.36793E+01-1.19450E+00
 -1      1141-4.12750E+01 4.84838E+01-5.95700E+00
 -1      1142-4.12750E+01 5.42502E+01 1.90701E+00
 -1      1143-4.12750E+01 5.42502E+01 6.66951E+00
 -1      1144-4.12750E+01 4.93290E+01 6.66951E+00
 -1      1145-4.12750E+01-5.35882E+01-1.16830E+00
 -1      1146-4.12750E+01-5.35882E+01-5.93080E+00
 -1      1147-4.12750E+01-4.83928E+01-5.93080E+00
 -1      1148-4.12750E+01-5.42312E+01 6.66284E+00
 -1      1149-4.12750E+01-5.42312E+01 1.90034E+00
 -1      1150-4.12750E+01-4.93100E+01 6.66284E+00
 -1      1151-4.12750E+01 1.53194E+01 5.81300E+00
 -1      1152-4.12750E+01 1.03981E+01 5.81300E+00
 -1      1153-4.12750E+01 6.03497E+00 6.10089E+00
 -1      1154-4.12750E+01 2.06622E+00 6.10089E+00
 -1      1155-4.12750E+01 8.49560E+00 2.38889E+00
 -1      1156-4.12750E+01-1.03981E+01 5.67552E+00
 -1      1157-4.12750E+01-1.53194E+01 5.67552E+00
 -1      1158-4.12750E+01-2.14425E+00 5.90269E+00
 -1      1159-4.12750E+01-6.11300E+00 5.90269E+00
 -1      1160-4.12750E+01-8.57362E+00 2.05321E+00
 -1      1161-4.12750E+01 5.07795E+01 7.12507E-01
 -1      1162-4.12750E+01-5.06694E+01 7.32041E-01
 -1      1163-4.12750E+01-4.49274E+01-4.57929E+00
 -1      1164-4.12750E+01-3.97319E+01-4.57929E+00
 -1      1165-4.12750E+01-4.65611E+01-9.85094E-01
 -1      1166-4.12750E+01-3.42529E+01-4.63070E+00
 -1      1167-4.12750E+01-2.90575E+01-4.63070E+00
 -1      1168-4.12750E+01-3.76167E+01 3.15007E-01
 -1      1169-4.12750E+01-2.39855E+01-4.58836E+00
 -1      1170-4.12750E+01-1.87901E+01-4.58836E+00
 -1      1171-4.12750E+01-2.70657E+01 3.05934E-01
 -1      1172-4.12750E+01-1.18458E+01-6.57713E+00
 -1      1173-4.12750E+01-6.65032E+00-6.57713E+00
 -1      1174-4.12750E+01-1.74263E+01 1.08715E+00
 -1      1175-4.12750E+01-1.42226E+01-3.84948E+00
 -1      1176-4.12750E+01-1.04820E+01-9.01611E-01
 -1      1177-4.12750E+01-2.65622E+00-6.49198E+00
 -1      1178-4.12750E+01 2.53923E+00-6.49198E+00
 -1      1179-4.12750E+01-4.11108E+00-3.54411E+00
 -1      1180-4.12750E+01 6.49673E+00-6.42267E+00
 -1      1181-4.12750E+01 1.16922E+01-6.42267E+00
 -1      1182-4.12750E+01 3.84051E+00-3.38965E+00
 -1      1183-4.12750E+01 1.91438E+01-4.26193E+00
 -1      1184-4.12750E+01 2.43393E+01-4.26193E+00
 -1      1185-4.12750E+01 1.42226E+01-3.71200E+00
 -1      1186-4.12750E+01 1.77800E+01 1.55107E+00
 -1      1187-4.12750E+01 1.03284E+01-6.09673E-01
 -1      1188-4.12750E+01 2.90981E+01-4.63640E+00
 -1      1189-4.12750E+01 3.42936E+01-4.63640E+00
 -1      1190-4.12750E+01 2.74601E+01 6.26675E-01
 -1      1191-4.12750E+01 3.97740E+01-4.50646E+00
 -1      1192-4.12750E+01 4.49695E+01-4.50646E+00
 -1      1193-4.12750E+01 3.76994E+01 3.82142E-01
 -1      1194-4.12750E+01 4.66942E+01-9.38458E-01
 -1      1195-4.12750E+01 2.51619E+01 5.26307E+00
 -1      1196-4.12750E+01 2.02406E+01 5.26307E+00
 -1      1197-4.12750E+01 3.48420E+01 4.88860E+00
 -1      1198-4.12750E+01 2.99208E+01 4.88860E+00
 -1      1199-4.12750E+01 4.52437E+01 5.01854E+00
 -1      1200-4.12750E+01 4.03224E+01 5.01854E+00
 -1      1201-4.12750E+01 4.72651E+01 2.16305E+00
 -1      1202-4.12750E+01-4.02804E+01 4.94571E+00
 -1      1203-4.12750E+01-4.52016E+01 4.94571E+00
 -1      1204-4.12750E+01-4.72041E+01 2.08355E+00
 -1      1205-4.12750E+01-2.98801E+01 4.89430E+00
 -1      1206-4.12750E+01-3.48013E+01 4.89430E+00
 -1      1207-4.12750E+01-1.98869E+01 4.93664E+00
 -1      1208-4.12750E+01-2.48081E+01 4.93664E+00
 -1      1209-4.12750E+01-7.80245E-02 2.47859E+00
 -1      1210-4.12750E+01 5.96523E+00-3.21777E-01
 -1      1211-4.12750E+01 2.00773E+00-3.91083E-01
 -1      1212-4.12750E+01-2.20274E+00-5.89287E-01
 -1      1213-4.12750E+01-6.19684E+00-6.74436E-01
 -1      1214 4.12750E+01-5.95170E-03 1.78764E+01
 -1      1215 4.12750E+01 1.03909E+01-5.26209E-01
 -1      1216 4.12750E+01-9.97154E+00-5.99311E-01
 -1      1217 4.12750E+01-1.79970E+01 1.41522E+01
 -1      1218 4.12750E+01 1.79948E+01 1.41534E+01
 -1      1219 4.12750E+01 3.10379E+01 1.57115E-01
 -1      1220 4.12750E+01-3.10379E+01 1.57115E-01
 -1      1221 4.12750E+01 2.02513E+01-4.49303E-01
 -1      1222 4.12750E+01-2.01885E+01-4.65167E-01
 -1      1223 4.12750E+01-4.25546E+01 4.37603E-01
 -1      1224 4.12750E+01 4.25546E+01 4.37603E-01
 -1      1225 4.12750E+01 6.39434E-02-6.75516E-01
 -1      1226 4.12750E+01-4.60310E+00 8.41350E+00
 -1      1227 4.12750E+01 4.74770E+00 8.47572E+00
 -1      1228 4.12750E+01 1.01322E+01 1.80307E+01
 -1      1229 4.12750E+01-1.01258E+01 1.80245E+01
 -1      1230 4.12750E+01 1.31151E+01 7.19827E+00
 -1      1231 4.12750E+01-1.31579E+01 7.17620E+00
 -1      1232 4.12750E+01-4.99493E+01-2.18933E+00
 -1      1233 4.12750E+01 4.99493E+01-2.18933E+00
 -1      1234 4.12750E+01-1.88326E+01 2.08879E+01
 -1      1235 4.12750E+01 1.88334E+01 2.08894E+01
 -1      1236 4.12750E+01-5.14381E+01 4.28770E+00
 -1      1237 4.12750E+01 5.14381E+01 4.28770E+00
 -1      1238 4.12750E+01 5.35496E+01-1.09467E+00
 -1      1239 4.12750E+01 5.35496E+01-5.85717E+00
 -1      1240 4.12750E+01 4.83542E+01-5.85717E+00
 -1      1241 4.12750E+01 5.42940E+01 6.90635E+00
 -1      1242 4.12750E+01 5.42940E+01 2.14385E+00
 -1      1243 4.12750E+01 4.90024E+01 6.90635E+00
 -1      1244 4.12750E+01-5.35496E+01-5.85717E+00
 -1      1245 4.12750E+01-5.35496E+01-1.09467E+00
 -1      1246 4.12750E+01-4.83542E+01-5.85717E+00
 -1      1247 4.12750E+01-5.42940E+01 2.14385E+00
 -1      1248 4.12750E+01-5.42940E+01 6.90635E+00
 -1      1249 4.12750E+01-4.90024E+01 6.90635E+00
 -1      1250 4.12750E+01 2.82190E+01 4.84106E+00
 -1      1251 4.12750E+01 3.35106E+01 4.84106E+00
 -1      1252 4.12750E+01 2.16974E+01 1.62080E+01
 -1      1253 4.12750E+01 2.16974E+01 1.18392E+01
 -1      1254 4.12750E+01 1.55549E+01 1.06758E+01
 -1      1255 4.12750E+01 1.92575E+01 8.36164E+00
 -1      1256 4.12750E+01 2.28256E+01 4.53785E+00
 -1      1257 4.12750E+01 2.56446E+01-1.46094E-01
 -1      1258 4.12750E+01 1.66832E+01 3.37449E+00
 -1      1259 4.12750E+01 2.21167E+01 2.39448E+01
 -1      1260 4.12750E+01 2.21167E+01 1.95760E+01
 -1      1261 4.12750E+01 1.70367E+01 2.39448E+01
 -1      1262 4.12750E+01-2.21163E+01 2.39441E+01
 -1      1263 4.12750E+01-1.70363E+01 2.39441E+01
 -1      1264 4.12750E+01-2.21163E+01 1.95753E+01
 -1      1265 4.12750E+01-2.16985E+01 1.18386E+01
 -1      1266 4.12750E+01-2.16985E+01 1.62074E+01
 -1      1267 4.12750E+01-3.35106E+01 4.84106E+00
 -1      1268 4.12750E+01-2.82190E+01 4.84106E+00
 -1      1269 4.12750E+01-1.92789E+01 8.35060E+00
 -1      1270 4.12750E+01-1.55774E+01 1.06642E+01
 -1      1271 4.12750E+01-2.56132E+01-1.54026E-01
 -1      1272 4.12750E+01-2.27942E+01 4.52992E+00
 -1      1273 4.12750E+01-1.66732E+01 3.35551E+00
 -1      1274 4.12750E+01 5.06937E+01 1.04918E+00
 -1      1275 4.12750E+01-5.06937E+01 1.04918E+00
 -1      1276 4.12750E+01-3.94614E+01-4.54370E+00
 -1      1277 4.12750E+01-4.46568E+01-4.54370E+00
 -1      1278 4.12750E+01-4.62519E+01-8.75866E-01
 -1      1279 4.12750E+01-2.85076E+01-4.68394E+00
 -1      1280 4.12750E+01-3.37031E+01-4.68394E+00
 -1      1281 4.12750E+01-3.67962E+01 2.97359E-01
 -1      1282 4.12750E+01-1.78874E+01-4.99508E+00
 -1      1283 4.12750E+01-2.30829E+01-4.99508E+00
 -1      1284 4.12750E+01-7.58350E+00-5.06216E+00
 -1      1285 4.12750E+01-1.27790E+01-5.06216E+00
 -1      1286 4.12750E+01-1.50800E+01-5.32239E-01
 -1      1287 4.12750E+01 2.62970E+00-5.10026E+00
 -1      1288 4.12750E+01-2.56576E+00-5.10026E+00
 -1      1289 4.12750E+01-4.95380E+00-6.37414E-01
 -1      1290 4.12750E+01 1.29886E+01-5.02560E+00
 -1      1291 4.12750E+01 7.79318E+00-5.02560E+00
 -1      1292 4.12750E+01 5.22743E+00-6.00862E-01
 -1      1293 4.12750E+01 2.31143E+01-4.98715E+00
 -1      1294 4.12750E+01 1.79188E+01-4.98715E+00
 -1      1295 4.12750E+01 1.53211E+01-4.87756E-01
 -1      1296 4.12750E+01 3.37031E+01-4.68394E+00
 -1      1297 4.12750E+01 2.85076E+01-4.68394E+00
 -1      1298 4.12750E+01 4.46568E+01-4.54370E+00
 -1      1299 4.12750E+01 3.94614E+01-4.54370E+00
 -1      1300 4.12750E+01 3.67962E+01 2.97359E-01
 -1      1301 4.12750E+01 4.62519E+01-8.75866E-01
 -1      1302 4.12750E+01 3.92690E+01 4.98130E+00
 -1      1303 4.12750E+01 4.45606E+01 4.98130E+00
 -1      1304 4.12750E+01 4.69963E+01 2.36265E+00
 -1      1305 4.12750E+01 1.84141E+01 1.75214E+01
 -1      1306 4.12750E+01-1.26829E+01 2.25123E+01
 -1      1307 4.12750E+01-7.60289E+00 2.25123E+01
 -1      1308 4.12750E+01-1.44792E+01 1.94562E+01
 -1      1309 4.12750E+01-2.54298E+00 2.24383E+01
 -1      1310 4.12750E+01 2.53702E+00 2.24383E+01
 -1      1311 4.12750E+01-5.06587E+00 1.79504E+01
 -1      1312 4.12750E+01 7.60609E+00 2.25154E+01
 -1      1313 4.12750E+01 1.26861E+01 2.25154E+01
 -1      1314 4.12750E+01 5.06311E+00 1.79536E+01
 -1      1315 4.12750E+01 1.44828E+01 1.94601E+01
 -1      1316 4.12750E+01-1.84148E+01 1.75201E+01
 -1      1317 4.12750E+01-4.45606E+01 4.98130E+00
 -1      1318 4.12750E+01-3.92690E+01 4.98130E+00
 -1      1319 4.12750E+01-4.69963E+01 2.36265E+00
 -1      1320 4.12750E+01-2.30453E+00 1.31450E+01
 -1      1321 4.12750E+01 7.22985E-02 8.44461E+00
 -1      1322 4.12750E+01 2.37087E+00 1.31761E+01
 -1      1323 4.12750E+01-7.36444E+00 1.32190E+01
 -1      1324 4.12750E+01 7.43994E+00 1.32532E+01
 -1      1325 4.12750E+01 1.17530E+01 3.33603E+00
 -1      1326 4.12750E+01 7.56930E+00 3.97475E+00
 -1      1327 4.12750E+01 2.40582E+00 3.90010E+00
 -1      1328 4.12750E+01 8.93140E+00 7.83700E+00
 -1      1329 4.12750E+01-1.15647E+01 3.28844E+00
 -1      1330 4.12750E+01-2.26958E+00 3.86899E+00
 -1      1331 4.12750E+01-7.28732E+00 3.90710E+00
 -1      1332 4.12750E+01-8.88049E+00 7.79485E+00
 -1      1333 4.12750E+01-1.40614E+01 1.60883E+01
 -1      1334 4.12750E+01-1.16418E+01 1.26003E+01
 -1      1335 4.12750E+01 1.40635E+01 1.60920E+01
 -1      1336 4.12750E+01 1.16236E+01 1.26145E+01
 -1      1337-9.97857E+00 5.48583E+01 9.52500E+00
 -1      1338-3.33519E+01 3.26774E+01 9.52500E+00
 -1      1339-4.54354E+00 1.62540E+01 9.52500E+00
 -1      1340 8.82798E+00 5.38479E+01 9.52500E+00
 -1      1341-3.48821E+01 5.22287E+01 9.52500E+00
 -1      1342 2.99357E+01 5.70187E+01 9.52500E+00
 -1      1343 3.19400E+01 4.17500E+01 9.52500E+00
 -1      1344 1.46240E+01 2.12285E+01 9.52500E+00
 -1      1345 1.44800E+01 3.01200E+01 9.52500E+00
 -1      1346-2.57369E+01 1.77328E+01 9.52500E+00
 -1      1347 6.62268E+00 2.59029E+01 9.52500E+00
 -1      1348 6.33561E+00 3.50304E+01 9.52500E+00
 -1      1349 1.46764E+01 3.93452E+01 9.52500E+00
 -1      1350-1.78323E+00 3.07346E+01 9.52500E+00
 -1      1351-1.33920E+00 3.98642E+01 9.52500E+00
 -1      1352-9.29523E+00 3.67546E+01 9.52500E+00
 -1      1353 2.06998E+01 5.43932E+01 9.52500E+00
 -1      1354-1.50636E+01 1.69041E+01 9.52500E+00
 -1      1355-1.93446E+01 2.41818E+01 9.52500E+00
 -1      1356-4.08308E-01 5.48778E+01 9.52500E+00
 -1      1357-3.34134E+01 4.28308E+01 9.52500E+00
 -1      1358-2.54895E+01 4.94437E+01 9.52500E+00
 -1      1359-2.56765E+01 3.83908E+01 9.52500E+00
 -1      1360-1.64725E+01 4.49664E+01 9.52500E+00
 -1      1361 2.26072E+01 3.50425E+01 9.52500E+00
 -1      1362 7.22762E+00 4.39419E+01 9.52500E+00
 -1      1363 2.22570E+01 4.46889E+01 9.52500E+00
 -1      1364-3.38388E+01 2.30339E+01 9.52500E+00
 -1      1365 6.62638E+00 1.61390E+01 9.52500E+00
 -1      1366-9.78728E+00 2.59023E+01 9.52500E+00
 -1      1367-2.91694E+01 5.69484E+01 9.52500E+00
 -1      1368-1.95451E+01 5.55049E+01 9.52500E+00
 -1      1369 3.53043E+01 5.17883E+01 9.52500E+00
 -1      1370 1.47378E+01 4.72434E+01 9.52500E+00
 -1      1371-7.82464E+00 4.64724E+01 9.52500E+00
 -1      1372 3.04144E+01 3.33718E+01 9.52500E+00
 -1      1373-3.58938E+01 5.77402E+01 9.52500E+00
 -1      1374 3.59217E+01 5.81715E+01 9.52500E+00
 -1      1375 2.80274E+01 4.99278E+01 9.52500E+00
 -1      1376-3.42961E+01 1.49275E+01 9.52500E+00
 -1      1377-4.36096E-01 4.74218E+01 9.52500E+00
 -1      1378-1.79922E+01 3.29357E+01 9.52500E+00
 -1      1379 1.55980E+01 1.39217E+01 9.52500E+00
 -1      1380-2.63863E+01 2.79471E+01 9.52500E+00
 -1      1381-3.31339E-01 2.31146E+01 9.52500E+00
 -1      1382-3.85844E+01 5.74451E+01 9.52500E+00
 -1      1383-3.76545E+01 5.96902E+01 9.52500E+00
 -1      1384-3.80786E+01 4.97681E+01 9.52500E+00
 -1      1385-3.80786E+01 5.46894E+01 9.52500E+00
 -1      1386-3.53880E+01 5.49845E+01 9.52500E+00
 -1      1387-3.54094E+01 6.06201E+01 9.52500E+00
 -1      1388-3.20472E+01 6.02242E+01 9.52500E+00
 -1      1389-2.70579E+01 6.02242E+01 9.52500E+00
 -1      1390-3.25316E+01 5.73443E+01 9.52500E+00
 -1      1391 3.54234E+01 6.08357E+01 9.52500E+00
 -1      1392 3.76684E+01 5.99058E+01 9.52500E+00
 -1      1393 2.74411E+01 6.02594E+01 9.52500E+00
 -1      1394 3.24304E+01 6.02594E+01 9.52500E+00
 -1      1395 3.29287E+01 5.75951E+01 9.52500E+00
 -1      1396 3.85984E+01 5.76607E+01 9.52500E+00
 -1      1397 3.82896E+01 5.44692E+01 9.52500E+00
 -1      1398 3.82896E+01 4.91775E+01 9.52500E+00
 -1      1399 3.56130E+01 5.49799E+01 9.52500E+00
 -1      1400-3.77856E+01 1.14325E+01 9.52500E+00
 -1      1401-3.77856E+01 1.63537E+01 9.52500E+00
 -1      1402-3.24939E+01 1.14325E+01 9.52500E+00
 -1      1403 3.58447E+01 3.46776E+01 9.52500E+00
 -1      1404 3.58447E+01 2.93859E+01 9.52500E+00
 -1      1405 3.10822E+01 2.93859E+01 9.52500E+00
 -1      1406 1.89115E+01 1.09296E+01 9.52500E+00
 -1      1407 1.36198E+01 1.09296E+01 9.52500E+00
 -1      1408 1.89115E+01 1.52952E+01 9.52500E+00
 -1      1409 1.84245E+01 2.33142E+01 9.52500E+00
 -1      1410 1.84245E+01 1.89486E+01 9.52500E+00
 -1      1411 2.63197E+01 2.93859E+01 9.52500E+00
 -1      1412 1.83525E+01 2.77600E+01 9.52500E+00
 -1      1413 1.45520E+01 2.56743E+01 9.52500E+00
 -1      1414 2.24161E+01 3.02212E+01 9.52500E+00
 -1      1415 1.85436E+01 3.25812E+01 9.52500E+00
 -1      1416 2.65108E+01 3.42072E+01 9.52500E+00
 -1      1417-2.22458E+01 5.95025E+01 9.52500E+00
 -1      1418-1.72565E+01 5.95025E+01 9.52500E+00
 -1      1419-2.43573E+01 5.62267E+01 9.52500E+00
 -1      1420-1.24732E+01 5.91792E+01 9.52500E+00
 -1      1421-7.48393E+00 5.91792E+01 9.52500E+00
 -1      1422-1.47619E+01 5.51816E+01 9.52500E+00
 -1      1423-2.69880E+00 5.91889E+01 9.52500E+00
 -1      1424 2.29049E+00 5.91889E+01 9.52500E+00
 -1      1425-5.19344E+00 5.48681E+01 9.52500E+00
 -1      1426 6.90863E+00 5.86739E+01 9.52500E+00
 -1      1427 1.18979E+01 5.86739E+01 9.52500E+00
 -1      1428 4.20983E+00 5.43629E+01 9.52500E+00
 -1      1429 1.78338E+01 5.89466E+01 9.52500E+00
 -1      1430 2.28231E+01 5.89466E+01 9.52500E+00
 -1      1431 1.47639E+01 5.41206E+01 9.52500E+00
 -1      1432 2.53177E+01 5.57060E+01 9.52500E+00
 -1      1433-3.75569E+01 2.04069E+01 9.52500E+00
 -1      1434-3.75569E+01 2.53282E+01 9.52500E+00
 -1      1435-3.40675E+01 1.89807E+01 9.52500E+00
 -1      1436-3.73134E+01 3.01499E+01 9.52500E+00
 -1      1437-3.73134E+01 3.50712E+01 9.52500E+00
 -1      1438-3.35954E+01 2.78556E+01 9.52500E+00
 -1      1439-3.73442E+01 4.01479E+01 9.52500E+00
 -1      1440-3.73442E+01 4.50692E+01 9.52500E+00
 -1      1441-3.33826E+01 3.77541E+01 9.52500E+00
 -1      1442-3.41478E+01 4.75298E+01 9.52500E+00
 -1      1443 3.66075E+01 4.41583E+01 9.52500E+00
 -1      1444 3.66075E+01 3.88666E+01 9.52500E+00
 -1      1445 3.11772E+01 3.75609E+01 9.52500E+00
 -1      1446 3.36221E+01 4.67691E+01 9.52500E+00
 -1      1447-2.29226E+01 1.28351E+01 9.52500E+00
 -1      1448-2.82143E+01 1.28351E+01 9.52500E+00
 -1      1449-3.00165E+01 1.63301E+01 9.52500E+00
 -1      1450-1.22943E+01 1.24208E+01 9.52500E+00
 -1      1451-1.75860E+01 1.24208E+01 9.52500E+00
 -1      1452-2.04002E+01 1.73185E+01 9.52500E+00
 -1      1453-1.74260E+00 1.20958E+01 9.52500E+00
 -1      1454-7.03427E+00 1.20958E+01 9.52500E+00
 -1      1455-9.80358E+00 1.65791E+01 9.52500E+00
 -1      1456 9.13402E+00 1.20382E+01 9.52500E+00
 -1      1457 3.84236E+00 1.20382E+01 9.52500E+00
 -1      1458 1.04142E+00 1.61965E+01 9.52500E+00
 -1      1459 1.11122E+01 1.50303E+01 9.52500E+00
 -1      1460 1.51110E+01 1.75751E+01 9.52500E+00
 -1      1461-8.90160E+00 5.06653E+01 9.52500E+00
 -1      1462-4.11647E+00 5.06751E+01 9.52500E+00
 -1      1463-1.80088E+01 5.02356E+01 9.52500E+00
 -1      1464-1.32255E+01 4.99123E+01 9.52500E+00
 -1      1465-1.21486E+01 4.57194E+01 9.52500E+00
 -1      1466-2.95142E+01 3.55341E+01 9.52500E+00
 -1      1467-2.95450E+01 4.06108E+01 9.52500E+00
 -1      1468-2.98691E+01 3.03123E+01 9.52500E+00
 -1      1469-2.60314E+01 3.31690E+01 9.52500E+00
 -1      1470-3.01126E+01 2.54905E+01 9.52500E+00
 -1      1471-7.16541E+00 2.10782E+01 9.52500E+00
 -1      1472-1.24254E+01 2.14032E+01 9.52500E+00
 -1      1473 3.14752E+00 1.96268E+01 9.52500E+00
 -1      1474-2.43744E+00 1.96843E+01 9.52500E+00
 -1      1475-5.05931E+00 2.45084E+01 9.52500E+00
 -1      1476 1.17829E+01 5.05457E+01 9.52500E+00
 -1      1477 1.77188E+01 5.08183E+01 9.52500E+00
 -1      1478-4.22202E-01 5.11498E+01 9.52500E+00
 -1      1479 4.19594E+00 5.06348E+01 9.52500E+00
 -1      1480 1.09827E+01 4.55927E+01 9.52500E+00
 -1      1481 8.02780E+00 4.88949E+01 9.52500E+00
 -1      1482 3.39576E+00 4.56819E+01 9.52500E+00
 -1      1483-2.94515E+01 4.61372E+01 9.52500E+00
 -1      1484-3.01858E+01 5.08362E+01 9.52500E+00
 -1      1485-2.73295E+01 5.31960E+01 9.52500E+00
 -1      1486-3.20258E+01 5.45886E+01 9.52500E+00
 -1      1487 2.43636E+01 5.21605E+01 9.52500E+00
 -1      1488 2.89815E+01 5.34733E+01 9.52500E+00
 -1      1489 3.26200E+01 5.44035E+01 9.52500E+00
 -1      1490 3.16658E+01 5.08581E+01 9.52500E+00
 -1      1491 2.70985E+01 4.32194E+01 9.52500E+00
 -1      1492 2.24321E+01 3.98657E+01 9.52500E+00
 -1      1493 2.72736E+01 3.83962E+01 9.52500E+00
 -1      1494 2.99837E+01 4.58389E+01 9.52500E+00
 -1      1495 2.51422E+01 4.73084E+01 9.52500E+00
 -1      1496 1.05513E+01 2.80114E+01 9.52500E+00
 -1      1497 1.06233E+01 2.35657E+01 9.52500E+00
 -1      1498 6.62453E+00 2.10209E+01 9.52500E+00
 -1      1499 1.06252E+01 1.86837E+01 9.52500E+00
 -1      1500 1.04078E+01 3.25752E+01 9.52500E+00
 -1      1501 6.47914E+00 3.04666E+01 9.52500E+00
 -1      1502 1.45782E+01 3.47326E+01 9.52500E+00
 -1      1503 1.05060E+01 3.71878E+01 9.52500E+00
 -1      1504 1.86418E+01 3.71938E+01 9.52500E+00
 -1      1505-1.72041E+01 2.05430E+01 9.52500E+00
 -1      1506-2.25408E+01 2.09573E+01 9.52500E+00
 -1      1507-2.28655E+01 2.60645E+01 9.52500E+00
 -1      1508-2.60616E+01 2.28400E+01 9.52500E+00
 -1      1509-2.97879E+01 2.03833E+01 9.52500E+00
 -1      1510 2.27619E+00 3.28825E+01 9.52500E+00
 -1      1511 2.41973E+00 2.83187E+01 9.52500E+00
 -1      1512-1.05728E+00 2.69246E+01 9.52500E+00
 -1      1513 3.14567E+00 2.45087E+01 9.52500E+00
 -1      1514 1.09520E+01 4.16436E+01 9.52500E+00
 -1      1515 6.78161E+00 3.94862E+01 9.52500E+00
 -1      1516 2.49820E+00 3.74473E+01 9.52500E+00
 -1      1517-1.56121E+00 3.52994E+01 9.52500E+00
 -1      1518 2.94421E+00 4.19031E+01 9.52500E+00
 -1      1519 1.84667E+01 4.20171E+01 9.52500E+00
 -1      1520 1.47071E+01 4.32943E+01 9.52500E+00
 -1      1521 1.84974E+01 4.59662E+01 9.52500E+00
 -1      1522-5.31722E+00 3.83094E+01 9.52500E+00
 -1      1523-5.53923E+00 3.37446E+01 9.52500E+00
 -1      1524-9.54125E+00 3.13284E+01 9.52500E+00
 -1      1525-5.78525E+00 2.83184E+01 9.52500E+00
 -1      1526-4.58192E+00 4.31683E+01 9.52500E+00
 -1      1527-8.55993E+00 4.16135E+01 9.52500E+00
 -1      1528-8.87649E-01 4.36430E+01 9.52500E+00
 -1      1529-4.13037E+00 4.69471E+01 9.52500E+00
 -1      1530-1.28839E+01 4.08605E+01 9.52500E+00
 -1      1531-1.72323E+01 3.89510E+01 9.52500E+00
 -1      1532-1.36437E+01 3.48451E+01 9.52500E+00
 -1      1533-1.38897E+01 2.94190E+01 9.52500E+00
 -1      1534 2.14784E+01 4.95411E+01 9.52500E+00
 -1      1535-1.45660E+01 2.50420E+01 9.52500E+00
 -1      1536-1.86684E+01 2.85587E+01 9.52500E+00
 -1      1537-2.21892E+01 3.04414E+01 9.52500E+00
 -1      1538-2.55830E+01 4.39172E+01 9.52500E+00
 -1      1539-2.10745E+01 4.16786E+01 9.52500E+00
 -1      1540-2.09810E+01 4.72050E+01 9.52500E+00
 -1      1541-2.25173E+01 5.24743E+01 9.52500E+00
 -1      1542-2.18344E+01 3.56632E+01 9.52500E+00
 -1      1543-9.97857E+00-5.48583E+01 9.52500E+00
 -1      1544-3.33519E+01-3.26774E+01 9.52500E+00
 -1      1545-4.54354E+00-1.62540E+01 9.52500E+00
 -1      1546 9.97857E+00-5.48583E+01 9.52500E+00
 -1      1547-3.47465E+01-5.22082E+01 9.52500E+00
 -1      1548 2.99357E+01-5.70187E+01 9.52500E+00
 -1      1549 3.18885E+01-4.19924E+01 9.52500E+00
 -1      1550 1.46240E+01-2.12285E+01 9.52500E+00
 -1      1551 1.44946E+01-3.01444E+01 9.52500E+00
 -1      1552-2.57369E+01-1.77328E+01 9.52500E+00
 -1      1553 6.62511E+00-2.59070E+01 9.52500E+00
 -1      1554 6.32705E+00-3.50556E+01 9.52500E+00
 -1      1555 1.46719E+01-3.94514E+01 9.52500E+00
 -1      1556-1.78425E+00-3.07394E+01 9.52500E+00
 -1      1557-1.35959E+00-3.99066E+01 9.52500E+00
 -1      1558-9.29880E+00-3.67624E+01 9.52500E+00
 -1      1559 2.09282E+01-5.43652E+01 9.52500E+00
 -1      1560-1.50636E+01-1.69041E+01 9.52500E+00
 -1      1561-1.93446E+01-2.41818E+01 9.52500E+00
 -1      1562 1.06092E-01-5.49196E+01 9.52500E+00
 -1      1563-3.33908E+01-4.28274E+01 9.52500E+00
 -1      1564-2.54895E+01-4.94437E+01 9.52500E+00
 -1      1565-2.56728E+01-3.83902E+01 9.52500E+00
 -1      1566-1.64725E+01-4.49674E+01 9.52500E+00
 -1      1567 2.26235E+01-3.50377E+01 9.52500E+00
 -1      1568 6.36352E+00-4.56939E+01 9.52500E+00
 -1      1569 2.22961E+01-4.47501E+01 9.52500E+00
 -1      1570-3.38388E+01-2.30339E+01 9.52500E+00
 -1      1571 6.62647E+00-1.61391E+01 9.52500E+00
 -1      1572-9.78793E+00-2.59041E+01 9.52500E+00
 -1      1573-2.96146E+01-5.75762E+01 9.52500E+00
 -1      1574-1.98588E+01-5.55928E+01 9.52500E+00
 -1      1575 3.53271E+01-5.17704E+01 9.52500E+00
 -1      1576 1.51358E+01-4.80262E+01 9.52500E+00
 -1      1577-7.82464E+00-4.64724E+01 9.52500E+00
 -1      1578 3.04926E+01-3.33701E+01 9.52500E+00
 -1      1579 3.56795E+01-5.74625E+01 9.52500E+00
 -1      1580-3.53264E+01-5.81191E+01 9.52500E+00
 -1      1581-3.42961E+01-1.49275E+01 9.52500E+00
 -1      1582 2.80751E+01-4.99794E+01 9.52500E+00
 -1      1583-1.79922E+01-3.29374E+01 9.52500E+00
 -1      1584-4.80396E-01-4.75237E+01 9.52500E+00
 -1      1585 1.55980E+01-1.39217E+01 9.52500E+00
 -1      1586-2.63859E+01-2.79473E+01 9.52500E+00
 -1      1587-3.31339E-01-2.31146E+01 9.52500E+00
 -1      1588 3.65125E+01-3.02356E+01 9.52500E+00
 -1      1589-3.51257E+01-6.08095E+01 9.52500E+00
 -1      1590-3.73708E+01-5.98796E+01 9.52500E+00
 -1      1591-2.72805E+01-6.05381E+01 9.52500E+00
 -1      1592-3.22698E+01-6.05381E+01 9.52500E+00
 -1      1593-3.24705E+01-5.78476E+01 9.52500E+00
 -1      1594-3.83007E+01-5.76345E+01 9.52500E+00
 -1      1595-3.80107E+01-5.46791E+01 9.52500E+00
 -1      1596-3.80107E+01-4.97578E+01 9.52500E+00
 -1      1597-3.50364E+01-5.51636E+01 9.52500E+00
 -1      1598 3.84773E+01-5.73063E+01 9.52500E+00
 -1      1599 3.75473E+01-5.95513E+01 9.52500E+00
 -1      1600 3.83010E+01-4.91685E+01 9.52500E+00
 -1      1601 3.83010E+01-5.44602E+01 9.52500E+00
 -1      1602 3.55033E+01-5.46165E+01 9.52500E+00
 -1      1603 3.53023E+01-6.04813E+01 9.52500E+00
 -1      1604 3.24304E+01-6.02594E+01 9.52500E+00
 -1      1605 2.74411E+01-6.02594E+01 9.52500E+00
 -1      1606 3.28076E+01-5.72406E+01 9.52500E+00
 -1      1607-3.77856E+01-1.63537E+01 9.52500E+00
 -1      1608-3.77856E+01-1.14325E+01 9.52500E+00
 -1      1609-3.24939E+01-1.14325E+01 9.52500E+00
 -1      1610 3.88937E+01-2.78178E+01 9.52500E+00
 -1      1611 3.88937E+01-3.31095E+01 9.52500E+00
 -1      1612 3.41312E+01-2.78178E+01 9.52500E+00
 -1      1613 2.63588E+01-2.93850E+01 9.52500E+00
 -1      1614 3.11213E+01-2.93850E+01 9.52500E+00
 -1      1615 1.84245E+01-1.89486E+01 9.52500E+00
 -1      1616 1.84245E+01-2.33142E+01 9.52500E+00
 -1      1617 1.45593E+01-2.56865E+01 9.52500E+00
 -1      1618 1.83598E+01-2.77722E+01 9.52500E+00
 -1      1619 1.85590E+01-3.25911E+01 9.52500E+00
 -1      1620 2.24242E+01-3.02189E+01 9.52500E+00
 -1      1621 2.65580E+01-3.42039E+01 9.52500E+00
 -1      1622 1.89115E+01-1.09296E+01 9.52500E+00
 -1      1623 1.89115E+01-1.52952E+01 9.52500E+00
 -1      1624 1.36198E+01-1.09296E+01 9.52500E+00
 -1      1625-1.74133E+01-5.95464E+01 9.52500E+00
 -1      1626-2.24026E+01-5.95464E+01 9.52500E+00
 -1      1627-2.47367E+01-5.65845E+01 9.52500E+00
 -1      1628-7.48393E+00-5.91792E+01 9.52500E+00
 -1      1629-1.24732E+01-5.91792E+01 9.52500E+00
 -1      1630-1.49187E+01-5.52255E+01 9.52500E+00
 -1      1631 2.54769E+00-5.92098E+01 9.52500E+00
 -1      1632-2.44160E+00-5.92098E+01 9.52500E+00
 -1      1633-4.93624E+00-5.48889E+01 9.52500E+00
 -1      1634 1.24732E+01-5.91792E+01 9.52500E+00
 -1      1635 7.48393E+00-5.91792E+01 9.52500E+00
 -1      1636 5.04233E+00-5.48889E+01 9.52500E+00
 -1      1637 2.29373E+01-5.89326E+01 9.52500E+00
 -1      1638 1.79480E+01-5.89326E+01 9.52500E+00
 -1      1639 1.54534E+01-5.46118E+01 9.52500E+00
 -1      1640 2.54319E+01-5.56920E+01 9.52500E+00
 -1      1641-3.73329E+01-4.50674E+01 9.52500E+00
 -1      1642-3.73329E+01-4.01462E+01 9.52500E+00
 -1      1643-3.40686E+01-4.75178E+01 9.52500E+00
 -1      1644-3.73134E+01-3.50712E+01 9.52500E+00
 -1      1645-3.73134E+01-3.01499E+01 9.52500E+00
 -1      1646-3.33713E+01-3.77524E+01 9.52500E+00
 -1      1647-3.75569E+01-2.53282E+01 9.52500E+00
 -1      1648-3.75569E+01-2.04069E+01 9.52500E+00
 -1      1649-3.35954E+01-2.78556E+01 9.52500E+00
 -1      1650-3.40675E+01-1.89807E+01 9.52500E+00
 -1      1651 3.65817E+01-3.89879E+01 9.52500E+00
 -1      1652 3.65817E+01-4.42796E+01 9.52500E+00
 -1      1653 3.36078E+01-4.68814E+01 9.52500E+00
 -1      1654 3.58838E+01-3.46767E+01 9.52500E+00
 -1      1655 3.11905E+01-3.76812E+01 9.52500E+00
 -1      1656 3.35025E+01-3.18028E+01 9.52500E+00
 -1      1657 1.51110E+01-1.75751E+01 9.52500E+00
 -1      1658-2.82143E+01-1.28351E+01 9.52500E+00
 -1      1659-2.29226E+01-1.28351E+01 9.52500E+00
 -1      1660-3.00165E+01-1.63301E+01 9.52500E+00
 -1      1661-1.75860E+01-1.24208E+01 9.52500E+00
 -1      1662-1.22943E+01-1.24208E+01 9.52500E+00
 -1      1663-2.04002E+01-1.73185E+01 9.52500E+00
 -1      1664-7.03427E+00-1.20958E+01 9.52500E+00
 -1      1665-1.74260E+00-1.20958E+01 9.52500E+00
 -1      1666-9.80358E+00-1.65791E+01 9.52500E+00
 -1      1667 3.84240E+00-1.20383E+01 9.52500E+00
 -1      1668 9.13407E+00-1.20383E+01 9.52500E+00
 -1      1669 1.04147E+00-1.61966E+01 9.52500E+00
 -1      1670 1.11122E+01-1.50304E+01 9.52500E+00
 -1      1671-3.85927E+00-5.06960E+01 9.52500E+00
 -1      1672-8.90160E+00-5.06653E+01 9.52500E+00
 -1      1673-1.81656E+01-5.02801E+01 9.52500E+00
 -1      1674-1.32255E+01-4.99129E+01 9.52500E+00
 -1      1675-1.21485E+01-4.57199E+01 9.52500E+00
 -1      1676-2.95318E+01-4.06088E+01 9.52500E+00
 -1      1677-2.95123E+01-3.55338E+01 9.52500E+00
 -1      1678-2.60293E+01-3.31688E+01 9.52500E+00
 -1      1679-2.98689E+01-3.03123E+01 9.52500E+00
 -1      1680-3.01124E+01-2.54906E+01 9.52500E+00
 -1      1681-1.24258E+01-2.14041E+01 9.52500E+00
 -1      1682-7.16574E+00-2.10791E+01 9.52500E+00
 -1      1683-2.43744E+00-1.96843E+01 9.52500E+00
 -1      1684 3.14757E+00-1.96268E+01 9.52500E+00
 -1      1685-5.05964E+00-2.45093E+01 9.52500E+00
 -1      1686 1.80320E+01-5.11957E+01 9.52500E+00
 -1      1687 1.25572E+01-5.14422E+01 9.52500E+00
 -1      1688 8.17105E+00-5.02761E+01 9.52500E+00
 -1      1689 3.23481E+00-5.03067E+01 9.52500E+00
 -1      1690 1.07497E+01-4.68600E+01 9.52500E+00
 -1      1691-3.01180E+01-5.08259E+01 9.52500E+00
 -1      1692-2.94402E+01-4.61355E+01 9.52500E+00
 -1      1693-3.21805E+01-5.48922E+01 9.52500E+00
 -1      1694-2.75521E+01-5.35099E+01 9.52500E+00
 -1      1695 2.90054E+01-5.34991E+01 9.52500E+00
 -1      1696 2.45016E+01-5.21723E+01 9.52500E+00
 -1      1697 3.26314E+01-5.43946E+01 9.52500E+00
 -1      1698 3.17011E+01-5.08749E+01 9.52500E+00
 -1      1699 2.24598E+01-3.98939E+01 9.52500E+00
 -1      1700 2.70923E+01-4.33713E+01 9.52500E+00
 -1      1701 2.72560E+01-3.85151E+01 9.52500E+00
 -1      1702 2.51856E+01-4.73647E+01 9.52500E+00
 -1      1703 2.99818E+01-4.59859E+01 9.52500E+00
 -1      1704 1.06245E+01-2.35677E+01 9.52500E+00
 -1      1705 1.05599E+01-2.80257E+01 9.52500E+00
 -1      1706 1.06252E+01-1.86838E+01 9.52500E+00
 -1      1707 6.62579E+00-2.10230E+01 9.52500E+00
 -1      1708 6.47608E+00-3.04813E+01 9.52500E+00
 -1      1709 1.04108E+01-3.26000E+01 9.52500E+00
 -1      1710 1.04995E+01-3.72535E+01 9.52500E+00
 -1      1711 1.45832E+01-3.47979E+01 9.52500E+00
 -1      1712 1.86477E+01-3.72445E+01 9.52500E+00
 -1      1713-2.25408E+01-2.09573E+01 9.52500E+00
 -1      1714-1.72041E+01-2.05430E+01 9.52500E+00
 -1      1715-2.60614E+01-2.28400E+01 9.52500E+00
 -1      1716-2.28653E+01-2.60645E+01 9.52500E+00
 -1      1717-2.97879E+01-2.03833E+01 9.52500E+00
 -1      1718 2.42043E+00-2.83232E+01 9.52500E+00
 -1      1719 2.27140E+00-3.28975E+01 9.52500E+00
 -1      1720 3.14689E+00-2.45108E+01 9.52500E+00
 -1      1721-1.05779E+00-2.69270E+01 9.52500E+00
 -1      1722 6.34529E+00-4.03747E+01 9.52500E+00
 -1      1723 1.05177E+01-4.25726E+01 9.52500E+00
 -1      1724-1.57192E+00-3.53230E+01 9.52500E+00
 -1      1725 2.48373E+00-3.74811E+01 9.52500E+00
 -1      1726 2.50197E+00-4.28003E+01 9.52500E+00
 -1      1727 1.84840E+01-4.21007E+01 9.52500E+00
 -1      1728 1.49039E+01-4.37388E+01 9.52500E+00
 -1      1729 1.87160E+01-4.63881E+01 9.52500E+00
 -1      1730-5.54152E+00-3.37509E+01 9.52500E+00
 -1      1731-5.32919E+00-3.83345E+01 9.52500E+00
 -1      1732-5.78609E+00-2.83218E+01 9.52500E+00
 -1      1733-9.54336E+00-3.13333E+01 9.52500E+00
 -1      1734-8.56172E+00-4.16174E+01 9.52500E+00
 -1      1735-4.59211E+00-4.31895E+01 9.52500E+00
 -1      1736-9.19991E-01-4.37151E+01 9.52500E+00
 -1      1737 2.94156E+00-4.66088E+01 9.52500E+00
 -1      1738-4.15252E+00-4.69980E+01 9.52500E+00
 -1      1739-1.28856E+01-4.08649E+01 9.52500E+00
 -1      1740-1.36455E+01-3.48499E+01 9.52500E+00
 -1      1741-1.72323E+01-3.89524E+01 9.52500E+00
 -1      1742-1.38901E+01-2.94207E+01 9.52500E+00
 -1      1743 2.16122E+01-4.95576E+01 9.52500E+00
 -1      1744-1.45663E+01-2.50430E+01 9.52500E+00
 -1      1745-1.86684E+01-2.85596E+01 9.52500E+00
 -1      1746-2.21891E+01-3.04423E+01 9.52500E+00
 -1      1747-1.87152E-01-5.12216E+01 9.52500E+00
 -1      1748-2.55812E+01-4.39170E+01 9.52500E+00
 -1      1749-2.09810E+01-4.72055E+01 9.52500E+00
 -1      1750-2.10726E+01-4.16788E+01 9.52500E+00
 -1      1751-2.26742E+01-5.25182E+01 9.52500E+00
 -1      1752-2.18325E+01-3.56638E+01 9.52500E+00
 -1      1753 3.23750E+01 1.66792E+01 5.16164E+01
 -1      1754 4.11545E+01 1.66792E+01 5.80469E+01
 -1      1755 2.60011E+01 1.66583E+01 4.27958E+01
 -1      1756 4.88275E+01 1.57159E+01 6.09191E+01
 -1      1757 2.31783E+01 1.76216E+01 3.51044E+01
 -1      1758 2.24641E+01 1.27795E+01 3.10802E+01
 -1      1759 2.24641E+01 1.71452E+01 3.10802E+01
 -1      1760 2.35234E+01 1.27795E+01 3.64344E+01
 -1      1761 2.24641E+01 2.15108E+01 3.10802E+01
 -1      1762 2.35234E+01 2.15108E+01 3.64344E+01
 -1      1763 5.28472E+01 1.18263E+01 6.16591E+01
 -1      1764 4.74999E+01 1.18269E+01 6.05655E+01
 -1      1765 5.28470E+01 1.61923E+01 6.16591E+01
 -1      1766 5.28470E+01 2.05580E+01 6.16591E+01
 -1      1767 4.74997E+01 2.05580E+01 6.05655E+01
 -1      1768 2.73306E+01 1.22979E+01 4.51814E+01
 -1      1769 2.48621E+01 1.22979E+01 4.03135E+01
 -1      1770 2.43634E+01 1.71400E+01 3.90331E+01
 -1      1771 3.43743E+01 1.23083E+01 5.34770E+01
 -1      1772 3.05273E+01 1.23083E+01 4.96052E+01
 -1      1773 2.88424E+01 1.66688E+01 4.74559E+01
 -1      1774 4.36296E+01 1.23079E+01 5.92020E+01
 -1      1775 3.87774E+01 1.23083E+01 5.67021E+01
 -1      1776 3.65128E+01 1.66792E+01 5.51757E+01
 -1      1777 4.49065E+01 1.61975E+01 5.97088E+01
 -1      1778 2.48621E+01 2.10292E+01 4.03135E+01
 -1      1779 2.73306E+01 2.10292E+01 4.51814E+01
 -1      1780 3.05273E+01 2.10396E+01 4.96052E+01
 -1      1781 3.43743E+01 2.10396E+01 5.34770E+01
 -1      1782 3.87774E+01 2.10396E+01 5.67021E+01
 -1      1783 4.36293E+01 2.10396E+01 5.92019E+01
 -1      1784 3.23750E+01-1.66792E+01 5.16164E+01
 -1      1785 2.60011E+01-1.66792E+01 4.27958E+01
 -1      1786 4.11545E+01-1.66583E+01 5.80469E+01
 -1      1787 4.88275E+01-1.76216E+01 6.09191E+01
 -1      1788 2.31783E+01-1.57159E+01 3.51044E+01
 -1      1789 2.24641E+01-1.18267E+01 3.10802E+01
 -1      1790 2.35234E+01-1.18267E+01 3.64344E+01
 -1      1791 2.24641E+01-1.61923E+01 3.10802E+01
 -1      1792 4.75004E+01-1.27789E+01 6.05657E+01
 -1      1793 5.28472E+01-1.27792E+01 6.16591E+01
 -1      1794 5.28470E+01-1.71452E+01 6.16591E+01
 -1      1795 2.24641E+01-2.05580E+01 3.10802E+01
 -1      1796 2.35234E+01-2.05580E+01 3.64344E+01
 -1      1797 5.28470E+01-2.15108E+01 6.16591E+01
 -1      1798 4.74997E+01-2.15108E+01 6.05655E+01
 -1      1799 2.48621E+01-1.23083E+01 4.03135E+01
 -1      1800 2.73306E+01-1.23083E+01 4.51814E+01
 -1      1801 2.43634E+01-1.61975E+01 3.90331E+01
 -1      1802 3.05273E+01-1.23083E+01 4.96052E+01
 -1      1803 3.43743E+01-1.23083E+01 5.34770E+01
 -1      1804 2.88424E+01-1.66792E+01 4.74559E+01
 -1      1805 3.87774E+01-1.22979E+01 5.67021E+01
 -1      1806 4.36291E+01-1.22981E+01 5.92018E+01
 -1      1807 3.65128E+01-1.66688E+01 5.51757E+01
 -1      1808 4.49065E+01-1.71400E+01 5.97088E+01
 -1      1809 2.73306E+01-2.10396E+01 4.51814E+01
 -1      1810 2.48621E+01-2.10396E+01 4.03135E+01
 -1      1811 3.43743E+01-2.10396E+01 5.34770E+01
 -1      1812 3.05273E+01-2.10396E+01 4.96052E+01
 -1      1813 4.36293E+01-2.10292E+01 5.92019E+01
 -1      1814 3.87774E+01-2.10292E+01 5.67021E+01
 -1      1815 2.22250E+01 1.30687E+01 1.46575E+01
 -1      1816 2.22250E+01 1.44907E+01 2.04454E+01
 -1      1817 2.22250E+01 1.92535E+01 1.57510E+01
 -1      1818 2.22250E+01 2.04928E+01 2.20903E+01
 -1      1819 2.22250E+01 1.05031E+01 1.20913E+01
 -1      1820 2.22250E+01 1.48687E+01 1.20913E+01
 -1      1821 2.22250E+01 1.05031E+01 1.64601E+01
 -1      1822 2.22250E+01 1.79611E+01 1.26380E+01
 -1      1823 2.22250E+01 2.23267E+01 1.26380E+01
 -1      1824 2.22250E+01 2.23267E+01 1.70068E+01
 -1      1825 2.22250E+01 1.55797E+01 2.37228E+01
 -1      1826 2.22250E+01 1.12141E+01 2.37228E+01
 -1      1827 2.22250E+01 1.12141E+01 1.93540E+01
 -1      1828 2.22250E+01 2.29464E+01 2.45452E+01
 -1      1829 2.22250E+01 1.85808E+01 2.45452E+01
 -1      1830 2.22250E+01 2.29464E+01 2.01764E+01
 -1      1831 2.22250E+01 1.61611E+01 1.52042E+01
 -1      1832 2.22250E+01 1.74918E+01 2.12678E+01
 -1      1833 2.22250E+01 1.37797E+01 1.75515E+01
 -1      1834 2.22250E+01 1.98732E+01 1.89206E+01
 -1      1835 2.22250E+01 1.68721E+01 1.80982E+01
 -1      1836 2.22250E+01-1.30687E+01 1.46575E+01
 -1      1837 2.22250E+01-1.44907E+01 2.04454E+01
 -1      1838 2.22250E+01-1.92535E+01 1.57510E+01
 -1      1839 2.22250E+01-2.04928E+01 2.20903E+01
 -1      1840 2.22250E+01-2.23267E+01 1.26380E+01
 -1      1841 2.22250E+01-1.79611E+01 1.26380E+01
 -1      1842 2.22250E+01-2.23267E+01 1.70068E+01
 -1      1843 2.22250E+01-1.48687E+01 1.20913E+01
 -1      1844 2.22250E+01-1.05031E+01 1.20913E+01
 -1      1845 2.22250E+01-1.05031E+01 1.64601E+01
 -1      1846 2.22250E+01-1.12141E+01 2.37228E+01
 -1      1847 2.22250E+01-1.55797E+01 2.37228E+01
 -1      1848 2.22250E+01-1.12141E+01 1.93540E+01
 -1      1849 2.22250E+01-1.85808E+01 2.45452E+01
 -1      1850 2.22250E+01-2.29464E+01 2.45452E+01
 -1      1851 2.22250E+01-2.29464E+01 2.01764E+01
 -1      1852 2.22250E+01-1.61611E+01 1.52042E+01
 -1      1853 2.22250E+01-1.74918E+01 2.12678E+01
 -1      1854 2.22250E+01-1.37797E+01 1.75515E+01
 -1      1855 2.22250E+01-1.98732E+01 1.89206E+01
 -1      1856 2.22250E+01-1.68721E+01 1.80982E+01
 -1      1857 7.30250E+01-9.22709E+00 3.81000E+01
 -1      1858 9.79277E+01 1.35920E+01 3.81000E+01
 -1      1859 9.65240E+01-1.20251E+01 3.81000E+01
 -1      1860 7.25344E+01 9.32717E+00 3.81000E+01
 -1      1861 8.39972E+01-1.65785E+01 3.81000E+01
 -1      1862 8.40841E+01 1.56121E+01 3.81000E+01
 -1      1863 1.01423E+02-9.12669E-14 3.81000E+01
 -1      1864 6.73614E+01 3.65324E+00 3.81000E+01
 -1      1865 7.60231E+01-7.99361E-15 3.81000E+01
 -1      1866 8.12732E+01 7.17238E+00 3.81000E+01
 -1      1867 8.52237E+01-1.52733E+00 3.81000E+01
 -1      1868 9.23316E+01 7.11322E+00 3.81000E+01
 -1      1869 8.08825E+01-8.38740E+00 3.81000E+01
 -1      1870 1.02093E+02 8.05080E+00 3.81000E+01
 -1      1871 9.20469E+01 1.70967E+01 3.81000E+01
 -1      1872 9.15901E+01-1.80509E+01 3.81000E+01
 -1      1873 7.62351E+01 1.64370E+01 3.81000E+01
 -1      1874 1.03064E+02-7.71980E+00 3.81000E+01
 -1      1875 9.40670E+01-3.71410E+00 3.81000E+01
 -1      1876 6.71599E+01-3.94613E+00 3.81000E+01
 -1      1877 7.62351E+01-1.64370E+01 3.81000E+01
 -1      1878 8.87141E+01-1.00472E+01 3.81000E+01
 -1      1879 6.49411E+01 6.99217E+00 3.81000E+01
 -1      1880 6.38432E+01 1.82662E+00 3.81000E+01
 -1      1881 6.37425E+01-1.97307E+00 3.81000E+01
 -1      1882 6.48404E+01-7.13862E+00 3.81000E+01
 -1      1883 6.72606E+01-1.46447E-01 3.81000E+01
 -1      1884 7.06318E+01 1.41015E+01 3.81000E+01
 -1      1885 6.75277E+01 9.82914E+00 3.81000E+01
 -1      1886 6.99479E+01 6.49020E+00 3.81000E+01
 -1      1887 7.70538E+01 2.02993E+01 3.81000E+01
 -1      1888 7.24821E+01 1.76565E+01 3.81000E+01
 -1      1889 7.43848E+01 1.28821E+01 3.81000E+01
 -1      1890 8.62319E+01 2.04375E+01 3.81000E+01
 -1      1891 8.09799E+01 1.98864E+01 3.81000E+01
 -1      1892 8.01596E+01 1.60246E+01 3.81000E+01
 -1      1893 9.52360E+01 1.95469E+01 3.81000E+01
 -1      1894 9.02135E+01 2.11788E+01 3.81000E+01
 -1      1895 8.80653E+01 1.63544E+01 3.81000E+01
 -1      1896 1.02101E+02 1.42609E+01 3.81000E+01
 -1      1897 9.81763E+01 1.77945E+01 3.81000E+01
 -1      1898 9.49873E+01 1.53444E+01 3.81000E+01
 -1      1899 1.06332E+02 6.66588E+00 3.81000E+01
 -1      1900 1.04184E+02 1.14903E+01 3.81000E+01
 -1      1901 1.00011E+02 1.08214E+01 3.81000E+01
 -1      1902 1.05997E+02-2.64048E+00 3.81000E+01
 -1      1903 1.05997E+02 2.64048E+00 3.81000E+01
 -1      1904 1.01758E+02 4.02540E+00 3.81000E+01
 -1      1905 1.04669E+02-1.13248E+01 3.81000E+01
 -1      1906 1.06817E+02-6.50038E+00 3.81000E+01
 -1      1907 1.02244E+02-3.85990E+00 3.81000E+01
 -1      1908 9.74745E+01-1.70111E+01 3.81000E+01
 -1      1909 1.01399E+02-1.34774E+01 3.81000E+01
 -1      1910 9.97940E+01-9.87246E+00 3.81000E+01
 -1      1911 8.99851E+01-2.16559E+01 3.81000E+01
 -1      1912 9.50075E+01-2.00240E+01 3.81000E+01
 -1      1913 9.40571E+01-1.50380E+01 3.81000E+01
 -1      1914 8.09364E+01-2.03701E+01 3.81000E+01
 -1      1915 8.61883E+01-2.09210E+01 3.81000E+01
 -1      1916 8.77936E+01-1.73147E+01 3.81000E+01
 -1      1917 7.24805E+01-1.76600E+01 3.81000E+01
 -1      1918 7.70537E+01-2.02994E+01 3.81000E+01
 -1      1919 8.01161E+01-1.65078E+01 3.81000E+01
 -1      1920 6.77730E+01-9.77910E+00 3.81000E+01
 -1      1921 7.08770E+01-1.40515E+01 3.81000E+01
 -1      1922 7.46300E+01-1.28321E+01 3.81000E+01
 -1      1923 7.00925E+01-6.58661E+00 3.81000E+01
 -1      1924 7.45240E+01-4.61354E+00 3.81000E+01
 -1      1925 7.84528E+01-4.19370E+00 3.81000E+01
 -1      1926 7.69538E+01-8.80724E+00 3.81000E+01
 -1      1927 7.15915E+01-1.97307E+00 3.81000E+01
 -1      1928 7.85588E+01-1.24122E+01 3.81000E+01
 -1      1929 9.51296E+01 1.03526E+01 3.81000E+01
 -1      1930 9.72125E+01 7.58201E+00 3.81000E+01
 -1      1931 9.21893E+01 1.21050E+01 3.81000E+01
 -1      1932 9.01521E+01-1.40491E+01 3.81000E+01
 -1      1933 9.26191E+01-1.10362E+01 3.81000E+01
 -1      1934 9.52955E+01-7.86960E+00 3.81000E+01
 -1      1935 9.85655E+01-5.71695E+00 3.81000E+01
 -1      1936 9.13905E+01-6.88066E+00 3.81000E+01
 -1      1937 7.42787E+01 4.66358E+00 3.81000E+01
 -1      1938 7.16922E+01 1.82662E+00 3.81000E+01
 -1      1939 7.69038E+01 8.24977E+00 3.81000E+01
 -1      1940 7.86481E+01 3.58619E+00 3.81000E+01
 -1      1941 7.87541E+01 1.18047E+01 3.81000E+01
 -1      1942 8.24399E+01-1.24830E+01 3.81000E+01
 -1      1943 8.47983E+01-9.21731E+00 3.81000E+01
 -1      1944 8.63556E+01-1.33129E+01 3.81000E+01
 -1      1945 8.26787E+01 1.13922E+01 3.81000E+01
 -1      1946 8.82079E+01 1.13626E+01 3.81000E+01
 -1      1947 8.68024E+01 7.14280E+00 3.81000E+01
 -1      1948 9.68773E+01 3.55661E+00 3.81000E+01
 -1      1949 9.77450E+01-1.85705E+00 3.81000E+01
 -1      1950 9.31993E+01 1.69956E+00 3.81000E+01
 -1      1951 8.32484E+01 2.82253E+00 3.81000E+01
 -1      1952 8.06234E+01-7.63663E-01 3.81000E+01
 -1      1953 8.30531E+01-4.95736E+00 3.81000E+01
 -1      1954 8.87776E+01 2.79295E+00 3.81000E+01
 -1      1955 8.96453E+01-2.62071E+00 3.81000E+01
 -1      1956 8.69689E+01-5.78728E+00 3.81000E+01
 -1      1957 7.25344E+01-9.32717E+00 6.66750E+01
 -1      1958 9.65240E+01 1.20251E+01 6.66750E+01
 -1      1959 9.79277E+01-1.35920E+01 6.66750E+01
 -1      1960 7.30250E+01 9.22709E+00 6.66750E+01
 -1      1961 8.40841E+01-1.56121E+01 6.66750E+01
 -1      1962 1.01423E+02-9.73318E-14 6.66750E+01
 -1      1963 8.39972E+01 1.65785E+01 6.66750E+01
 -1      1964 6.71599E+01 3.94613E+00 6.66750E+01
 -1      1965 7.60231E+01-8.88178E-15 6.66750E+01
 -1      1966 8.12732E+01-7.17238E+00 6.66750E+01
 -1      1967 8.52237E+01 1.52733E+00 6.66750E+01
 -1      1968 9.23316E+01-7.11322E+00 6.66750E+01
 -1      1969 8.08825E+01 8.38740E+00 6.66750E+01
 -1      1970 1.03064E+02 7.71980E+00 6.66750E+01
 -1      1971 9.40670E+01 3.71410E+00 6.66750E+01
 -1      1972 1.02093E+02-8.05080E+00 6.66750E+01
 -1      1973 9.15901E+01 1.80509E+01 6.66750E+01
 -1      1974 7.62351E+01-1.64370E+01 6.66750E+01
 -1      1975 7.62351E+01 1.64370E+01 6.66750E+01
 -1      1976 9.20469E+01-1.70967E+01 6.66750E+01
 -1      1977 6.73614E+01-3.65324E+00 6.66750E+01
 -1      1978 8.87141E+01 1.00472E+01 6.66750E+01
 -1      1979 6.37425E+01 1.97307E+00 6.66750E+01
 -1      1980 6.48404E+01 7.13862E+00 6.66750E+01
 -1      1981 6.49411E+01-6.99217E+00 6.66750E+01
 -1      1982 6.38432E+01-1.82662E+00 6.66750E+01
 -1      1983 6.72606E+01 1.46447E-01 6.66750E+01
 -1      1984 6.77730E+01 9.77910E+00 6.66750E+01
 -1      1985 7.08770E+01 1.40515E+01 6.66750E+01
 -1      1986 7.00925E+01 6.58661E+00 6.66750E+01
 -1      1987 7.24821E+01 1.76565E+01 6.66750E+01
 -1      1988 7.70537E+01 2.02993E+01 6.66750E+01
 -1      1989 7.46300E+01 1.28321E+01 6.66750E+01
 -1      1990 8.09365E+01 2.03702E+01 6.66750E+01
 -1      1991 8.61881E+01 2.09216E+01 6.66750E+01
 -1      1992 8.01161E+01 1.65078E+01 6.66750E+01
 -1      1993 8.99851E+01 2.16559E+01 6.66750E+01
 -1      1994 9.50075E+01 2.00240E+01 6.66750E+01
 -1      1995 8.77935E+01 1.73144E+01 6.66750E+01
 -1      1996 9.74745E+01 1.70111E+01 6.66750E+01
 -1      1997 1.01399E+02 1.34774E+01 6.66750E+01
 -1      1998 9.40571E+01 1.50380E+01 6.66750E+01
 -1      1999 1.04669E+02 1.13248E+01 6.66750E+01
 -1      2000 1.06817E+02 6.50038E+00 6.66750E+01
 -1      2001 9.97940E+01 9.87246E+00 6.66750E+01
 -1      2002 1.05997E+02 2.64048E+00 6.66750E+01
 -1      2003 1.05997E+02-2.64048E+00 6.66750E+01
 -1      2004 1.02244E+02 3.85990E+00 6.66750E+01
 -1      2005 1.06332E+02-6.66588E+00 6.66750E+01
 -1      2006 1.04184E+02-1.14903E+01 6.66750E+01
 -1      2007 1.01758E+02-4.02540E+00 6.66750E+01
 -1      2008 1.02101E+02-1.42609E+01 6.66750E+01
 -1      2009 9.81763E+01-1.77945E+01 6.66750E+01
 -1      2010 1.00011E+02-1.08214E+01 6.66750E+01
 -1      2011 9.52360E+01-1.95469E+01 6.66750E+01
 -1      2012 9.02135E+01-2.11788E+01 6.66750E+01
 -1      2013 9.49873E+01-1.53444E+01 6.66750E+01
 -1      2014 8.62321E+01-2.04365E+01 6.66750E+01
 -1      2015 8.09800E+01-1.98864E+01 6.66750E+01
 -1      2016 8.80655E+01-1.63544E+01 6.66750E+01
 -1      2017 7.70538E+01-2.02994E+01 6.66750E+01
 -1      2018 7.24821E+01-1.76565E+01 6.66750E+01
 -1      2019 8.01597E+01-1.60247E+01 6.66750E+01
 -1      2020 7.06318E+01-1.41015E+01 6.66750E+01
 -1      2021 6.75277E+01-9.82914E+00 6.66750E+01
 -1      2022 7.43848E+01-1.28821E+01 6.66750E+01
 -1      2023 6.99479E+01-6.49020E+00 6.66750E+01
 -1      2024 7.69038E+01-8.24977E+00 6.66750E+01
 -1      2025 7.86481E+01-3.58619E+00 6.66750E+01
 -1      2026 7.42787E+01-4.66358E+00 6.66750E+01
 -1      2027 7.16922E+01-1.82662E+00 6.66750E+01
 -1      2028 7.87542E+01-1.18046E+01 6.66750E+01
 -1      2029 9.52955E+01 7.86960E+00 6.66750E+01
 -1      2030 9.85655E+01 5.71695E+00 6.66750E+01
 -1      2031 9.26191E+01 1.10362E+01 6.66750E+01
 -1      2032 9.13905E+01 6.88066E+00 6.66750E+01
 -1      2033 9.01521E+01 1.40490E+01 6.66750E+01
 -1      2034 9.72125E+01-7.58201E+00 6.66750E+01
 -1      2035 9.51296E+01-1.03526E+01 6.66750E+01
 -1      2036 9.21893E+01-1.21050E+01 6.66750E+01
 -1      2037 7.15916E+01 1.97304E+00 6.66750E+01
 -1      2038 7.45240E+01 4.61354E+00 6.66750E+01
 -1      2039 7.84528E+01 4.19370E+00 6.66750E+01
 -1      2040 7.69538E+01 8.80724E+00 6.66750E+01
 -1      2041 7.85588E+01 1.24122E+01 6.66750E+01
 -1      2042 8.82078E+01-1.13626E+01 6.66750E+01
 -1      2043 8.68024E+01-7.14280E+00 6.66750E+01
 -1      2044 8.26787E+01-1.13922E+01 6.66750E+01
 -1      2045 9.77450E+01 1.85705E+00 6.66750E+01
 -1      2046 9.31993E+01-1.69956E+00 6.66750E+01
 -1      2047 9.68773E+01-3.55661E+00 6.66750E+01
 -1      2048 8.24399E+01 1.24830E+01 6.66750E+01
 -1      2049 8.47983E+01 9.21731E+00 6.66750E+01
 -1      2050 8.63557E+01 1.33128E+01 6.66750E+01
 -1      2051 8.32484E+01-2.82253E+00 6.66750E+01
 -1      2052 8.06234E+01 7.63663E-01 6.66750E+01
 -1      2053 8.30531E+01 4.95736E+00 6.66750E+01
 -1      2054 8.87776E+01-2.79295E+00 6.66750E+01
 -1      2055 8.96453E+01 2.62071E+00 6.66750E+01
 -1      2056 8.69689E+01 5.78728E+00 6.66750E+01
 -1      2057 1.02721E+02-1.88759E+01 5.75450E+01
 -1      2058 1.02721E+02 1.88759E+01 5.75450E+01
 -1      2059 1.11125E+02-1.49749E-13 4.72300E+01
 -1      2060 9.41199E+01 2.39726E+01 4.75457E+01
 -1      2061 9.21628E+01-2.45706E+01 4.76377E+01
 -1      2062 9.59660E+01-2.32440E+01 5.68253E+01
 -1      2063 9.19333E+01 2.46296E+01 5.67799E+01
 -1      2064 1.05362E+02-1.61102E+01 4.70199E+01
 -1      2065 1.02721E+02 1.88759E+01 4.70777E+01
 -1      2066 1.11125E+02-1.49749E-13 5.76973E+01
 -1      2067 1.08898E+02 1.04003E+01 5.74726E+01
 -1      2068 1.09053E+02-1.00471E+01 5.27642E+01
 -1      2069 1.08883E+02 1.04344E+01 4.70303E+01
 -1      2070 9.13499E+01-2.47694E+01 6.18522E+01
 -1      2071 9.08552E+01 2.48765E+01 6.21493E+01
 -1      2072 9.78468E+01 2.23209E+01 5.34149E+01
 -1      2073 1.08926E+02-1.03376E+01 4.43708E+01
 -1      2074 1.08929E+02-1.03311E+01 6.05168E+01
 -1      2075 9.00017E+01-2.50374E+01 4.25676E+01
 -1      2076 9.08689E+01 2.48737E+01 4.26348E+01
 -1      2077 9.93362E+01-2.14452E+01 4.97196E+01
 -1      2078 9.61108E+01 2.31796E+01 6.08143E+01
 -1      2079 6.08801E+01 5.28096E+00 3.92938E+01
 -1      2080 6.08801E+01-5.28096E+00 3.92938E+01
 -1      2081 6.08801E+01 5.28096E+00 6.54875E+01
 -1      2082 6.08801E+01-5.28096E+00 6.54875E+01
 -1      2083 6.08131E+01 4.95529E+00 4.16814E+01
 -1      2084 6.08131E+01-4.95529E+00 4.16814E+01
 -1      2085 8.17516E+01 2.50873E+01 4.04855E+01
 -1      2086 8.70537E+01 2.53652E+01 4.04849E+01
 -1      2087 7.69334E+01 2.38300E+01 4.04846E+01
 -1      2088 8.83114E+01 2.52680E+01 4.27579E+01
 -1      2089 8.96293E+01 2.50981E+01 4.03674E+01
 -1      2090 8.99827E+01 2.50406E+01 4.99729E+01
 -1      2091 8.99841E+01 2.50404E+01 4.52073E+01
 -1      2092 9.25094E+01 2.44772E+01 4.50902E+01
 -1      2093 8.70535E+01 2.53652E+01 6.43010E+01
 -1      2094 8.17517E+01 2.50873E+01 6.43024E+01
 -1      2095 7.69335E+01 2.38300E+01 6.43032E+01
 -1      2096 8.96224E+01 2.50992E+01 6.44121E+01
 -1      2097 8.82994E+01 2.52692E+01 6.20356E+01
 -1      2098 8.88523E+01 2.52067E+01 5.93511E+01
 -1      2099 8.88530E+01 2.52067E+01 5.45901E+01
 -1      2100 9.13956E+01 2.47589E+01 5.94646E+01
 -1      2101 6.08130E+01 4.95488E+00 6.31124E+01
 -1      2102 6.08130E+01-4.95481E+00 6.31125E+01
 -1      2103 8.17516E+01-2.50873E+01 6.43021E+01
 -1      2104 8.70537E+01-2.53652E+01 6.43027E+01
 -1      2105 8.85539E+01-2.52420E+01 6.18882E+01
 -1      2106 8.98722E+01-2.50591E+01 6.42636E+01
 -1      2107 7.69334E+01-2.38300E+01 6.43030E+01
 -1      2108 8.85556E+01-2.52418E+01 5.71241E+01
 -1      2109 8.17516E+01-2.50873E+01 4.04850E+01
 -1      2110 8.70537E+01-2.53652E+01 4.04844E+01
 -1      2111 8.91926E+01-2.51622E+01 4.03338E+01
 -1      2112 8.78705E+01-2.53092E+01 4.27243E+01
 -1      2113 7.69335E+01-2.38300E+01 4.04846E+01
 -1      2114 8.89688E+01-2.51920E+01 4.52558E+01
 -1      2115 8.89688E+01-2.51920E+01 5.00199E+01
 -1      2116 9.10873E+01-2.48275E+01 4.51027E+01
 -1      2117 6.47922E+01 1.43867E+01 4.04876E+01
 -1      2118 6.82408E+01 1.84245E+01 4.04876E+01
 -1      2119 6.23877E+01 1.00265E+01 4.04876E+01
 -1      2120 7.21711E+01 2.14814E+01 4.04836E+01
 -1      2121 9.47622E+01 2.37379E+01 4.03674E+01
 -1      2122 1.00655E+02 2.05490E+01 4.25888E+01
 -1      2123 1.04601E+02 1.69959E+01 4.25888E+01
 -1      2124 9.86736E+01 2.18516E+01 4.73117E+01
 -1      2125 9.63186E+01 2.30854E+01 4.28228E+01
 -1      2126 1.07694E+02 1.27490E+01 4.25652E+01
 -1      2127 1.09864E+02 7.90282E+00 4.25652E+01
 -1      2128 1.06241E+02 1.49755E+01 4.70540E+01
 -1      2129 1.10986E+02 2.65502E+00 4.26650E+01
 -1      2130 1.10986E+02-2.65502E+00 4.26650E+01
 -1      2131 1.10558E+02 5.33629E+00 4.71302E+01
 -1      2132 1.09881E+02-7.85240E+00 4.12354E+01
 -1      2133 1.07720E+02-1.27031E+01 4.12354E+01
 -1      2134 1.10569E+02-5.28442E+00 4.58004E+01
 -1      2135 1.05827E+02-1.55267E+01 4.25599E+01
 -1      2136 1.02159E+02-1.93668E+01 4.25599E+01
 -1      2137 1.07338E+02-1.33434E+01 4.56954E+01
 -1      2138 9.43484E+01-2.38914E+01 4.03338E+01
 -1      2139 9.53801E+01-2.34934E+01 4.28689E+01
 -1      2140 9.88835E+01-2.17259E+01 4.39098E+01
 -1      2141 9.58708E+01-2.32857E+01 4.86794E+01
 -1      2142 1.02562E+02-1.90179E+01 4.83697E+01
 -1      2143 7.21711E+01-2.14814E+01 4.04836E+01
 -1      2144 6.82408E+01-1.84245E+01 4.04876E+01
 -1      2145 6.47922E+01-1.43867E+01 4.04876E+01
 -1      2146 6.23877E+01-1.00265E+01 4.04876E+01
 -1      2147 6.82408E+01 1.84245E+01 6.43001E+01
 -1      2148 6.47922E+01 1.43867E+01 6.43001E+01
 -1      2149 6.23877E+01 1.00265E+01 6.43001E+01
 -1      2150 7.21711E+01 2.14814E+01 6.43041E+01
 -1      2151 9.47556E+01 2.37404E+01 6.44121E+01
 -1      2152 1.04601E+02 1.69959E+01 6.21100E+01
 -1      2153 1.00655E+02 2.05490E+01 6.21100E+01
 -1      2154 9.95839E+01 2.12859E+01 5.91796E+01
 -1      2155 9.72830E+01 2.26180E+01 6.37447E+01
 -1      2156 9.35293E+01 2.41713E+01 6.14818E+01
 -1      2157 1.09870E+02 7.88506E+00 6.20738E+01
 -1      2158 1.07703E+02 1.27328E+01 6.20738E+01
 -1      2159 1.06252E+02 1.49604E+01 5.75088E+01
 -1      2160 1.10986E+02-2.65502E+00 6.21862E+01
 -1      2161 1.10986E+02 2.65502E+00 6.21862E+01
 -1      2162 1.10562E+02 5.31801E+00 5.75850E+01
 -1      2163 1.07722E+02-1.27000E+01 6.35959E+01
 -1      2164 1.09882E+02-7.84903E+00 6.35959E+01
 -1      2165 1.10570E+02-5.28096E+00 5.91071E+01
 -1      2166 1.00655E+02-2.05490E+01 6.21100E+01
 -1      2167 1.04601E+02-1.69959E+01 6.21100E+01
 -1      2168 1.06274E+02-1.49297E+01 5.90309E+01
 -1      2169 9.49917E+01-2.36493E+01 6.42636E+01
 -1      2170 9.72124E+01-2.26539E+01 6.17502E+01
 -1      2171 9.95175E+01-2.13290E+01 5.71852E+01
 -1      2172 9.36945E+01-2.41174E+01 5.93388E+01
 -1      2173 7.21711E+01-2.14814E+01 6.43042E+01
 -1      2174 6.47922E+01-1.43867E+01 6.43001E+01
 -1      2175 6.82408E+01-1.84245E+01 6.43001E+01
 -1      2176 6.23877E+01-1.00265E+01 6.43001E+01
 -1      2177 9.30340E+01 2.43257E+01 5.21628E+01
 -1      2178 9.40916E+01-2.39825E+01 5.22308E+01
 -1      2179 9.09544E+01-2.48559E+01 5.46137E+01
 -1      2180 9.76849E+01-2.24080E+01 5.32725E+01
 -1      2181 1.01082E+02-2.02314E+01 5.36323E+01
 -1      2182 1.07421E+02-1.32082E+01 4.98920E+01
 -1      2183 1.06365E+02-1.48040E+01 5.51546E+01
 -1      2184 1.04094E+02-1.75428E+01 5.22824E+01
 -1      2185 1.08992E+02-1.01893E+01 5.66405E+01
 -1      2186 1.06252E+02 1.49604E+01 5.22751E+01
 -1      2187 1.02721E+02 1.88759E+01 5.23113E+01
 -1      2188 1.00385E+02 2.07420E+01 5.02463E+01
 -1      2189 1.00385E+02 2.07420E+01 5.54799E+01
 -1      2190 9.69862E+01 2.27672E+01 5.71142E+01
 -1      2191 1.10562E+02 5.31801E+00 5.23513E+01
 -1      2192 1.11125E+02-1.49749E-13 5.24637E+01
 -1      2193 1.10602E+02-5.12921E+00 5.52308E+01
 -1      2194 1.10602E+02-5.12921E+00 4.99971E+01
 -1      2195 1.08890E+02 1.04173E+01 5.22514E+01
 -1      2196 1.08990E+02-1.01925E+01 4.85675E+01
 -1      2197 9.49630E+01 2.36605E+01 5.50977E+01
 -1      2198 9.60165E+01 2.32216E+01 5.04803E+01
 -1      2199 9.40537E+01 2.39957E+01 5.87971E+01
 -1      2200-3.74618E+00-7.93750E+00 4.21612E+01
 -1      2201-1.95782E+01-7.93750E+00 3.28200E+01
 -1      2202 6.99424E+00-7.93750E+00 1.87638E+01
 -1      2203 1.42085E+01-7.93750E+00 3.28796E+01
 -1      2204-2.40971E+01-7.93750E+00 1.86158E+01
 -1      2205 1.39324E+01-7.93750E+00 4.79249E+01
 -1      2206-4.02170E+00-7.93750E+00 1.85682E+01
 -1      2207 4.52497E-01-7.93750E+00 2.71240E+01
 -1      2208-1.01758E+01-7.93750E+00 2.75987E+01
 -1      2209-1.45951E+01-7.93750E+00 1.80929E+01
 -1      2210 1.50441E+01-7.93750E+00 2.34157E+01
 -1      2211 4.65644E+00-7.93750E+00 4.56860E+01
 -1      2212 4.43517E+00-7.93750E+00 3.57346E+01
 -1      2213-1.17203E+01-7.93750E+00 3.76834E+01
 -1      2214-2.66999E+01-7.93750E+00 2.74114E+01
 -1      2215 8.42481E+00-7.93750E+00 2.77445E+01
 -1      2216 1.21754E+01-7.93750E+00 4.00079E+01
 -1      2217 2.18634E+01-7.93750E+00 5.09014E+01
 -1      2218-4.13863E+00-7.93750E+00 3.40567E+01
 -1      2219 1.56298E+01-7.93750E+00 1.59014E+01
 -1      2220-3.13533E+01-7.93750E+00 2.07342E+01
 -1      2221-1.90292E+01-7.93750E+00 2.49078E+01
 -1      2222 2.99630E+01-7.93750E+00 5.48808E+01
 -1      2223-3.52777E+01-7.93750E+00 1.45241E+01
 -1      2224 1.89274E+01-7.93750E+00 1.27132E+01
 -1      2225 1.36357E+01-7.93750E+00 1.27132E+01
 -1      2226 1.89280E+01-7.93750E+00 1.70824E+01
 -1      2227 1.89318E+01-7.93750E+00 3.53952E+01
 -1      2228 1.81268E+01-7.93750E+00 2.99116E+01
 -1      2229 1.86265E+01-7.93750E+00 2.52142E+01
 -1      2230 1.86421E+01-7.93750E+00 2.08479E+01
 -1      2231 1.46222E+01-7.93750E+00 2.81224E+01
 -1      2232 4.64479E+01-7.93750E+00 6.08933E+01
 -1      2233-2.21027E+01-7.93750E+00 1.40704E+01
 -1      2234-2.73944E+01-7.93750E+00 1.40704E+01
 -1      2235-3.10225E+01-7.93750E+00 1.51296E+01
 -1      2236-3.56085E+01-7.93750E+00 2.01287E+01
 -1      2237-2.77252E+01-7.93750E+00 1.96750E+01
 -1      2238-1.20601E+01-7.93750E+00 1.38090E+01
 -1      2239-1.73517E+01-7.93750E+00 1.38090E+01
 -1      2240-1.93461E+01-7.93750E+00 1.83544E+01
 -1      2241-1.48168E+00-7.93750E+00 1.40466E+01
 -1      2242-6.77335E+00-7.93750E+00 1.40466E+01
 -1      2243-9.30842E+00-7.93750E+00 1.83306E+01
 -1      2244 9.31795E+00-7.93750E+00 1.41444E+01
 -1      2245 4.02629E+00-7.93750E+00 1.41444E+01
 -1      2246 1.48627E+00-7.93750E+00 1.86660E+01
 -1      2247 1.13120E+01-7.93750E+00 1.73326E+01
 -1      2248 2.53200E+01-7.93750E+00 4.91820E+01
 -1      2249 2.26571E+01-7.93750E+00 4.43969E+01
 -1      2250 1.79895E+01-7.93750E+00 3.89114E+01
 -1      2251 1.31990E+01-7.93750E+00 3.64545E+01
 -1      2252 1.30509E+01-7.93750E+00 4.39587E+01
 -1      2253 1.88138E+01-7.93750E+00 4.28365E+01
 -1      2254 1.78783E+01-7.93750E+00 4.94119E+01
 -1      2255 3.32129E+01-7.93750E+00 5.51227E+01
 -1      2256 2.92515E+01-7.93750E+00 5.12181E+01
 -1      2257 2.58947E+01-7.93750E+00 5.28492E+01
 -1      2258 4.13843E+01-7.93750E+00 6.05869E+01
 -1      2259 3.64892E+01-7.93750E+00 5.79958E+01
 -1      2260 3.33251E+01-7.93750E+00 5.78590E+01
 -1      2261 1.53453E+01-7.93750E+00 1.96607E+01
 -1      2262 2.82993E+01-7.93750E+00 5.71443E+01
 -1      2263 1.92620E+01-7.93750E+00 5.41883E+01
 -1      2264 2.41991E+01-7.93750E+00 5.51830E+01
 -1      2265 1.04070E+01-7.93750E+00 5.14236E+01
 -1      2266 1.52900E+01-7.93750E+00 5.27126E+01
 -1      2267 9.63183E-01-7.93750E+00 4.86682E+01
 -1      2268 5.73655E+00-7.93750E+00 5.03033E+01
 -1      2269 9.29990E+00-7.93750E+00 4.67962E+01
 -1      2270-7.87076E+00-7.93750E+00 4.48385E+01
 -1      2271-3.29348E+00-7.93750E+00 4.69130E+01
 -1      2272 4.41874E-01-7.93750E+00 4.39405E+01
 -1      2273-1.62506E+01-7.93750E+00 4.00722E+01
 -1      2274-1.18578E+01-7.93750E+00 4.25996E+01
 -1      2275-7.73325E+00-7.93750E+00 3.99223E+01
 -1      2276-2.41731E+01-7.93750E+00 3.45244E+01
 -1      2277-2.01796E+01-7.93750E+00 3.76405E+01
 -1      2278-1.56493E+01-7.93750E+00 3.52517E+01
 -1      2279-3.10569E+01-7.93750E+00 2.80036E+01
 -1      2280-2.77340E+01-7.93750E+00 3.18201E+01
 -1      2281-2.31390E+01-7.93750E+00 3.01157E+01
 -1      2282-3.33836E+01-7.93750E+00 2.46650E+01
 -1      2283-2.90266E+01-7.93750E+00 2.40728E+01
 -1      2284 3.43157E-01-7.93750E+00 3.89574E+01
 -1      2285 4.54081E+00-7.93750E+00 4.07131E+01
 -1      2286-3.94240E+00-7.93750E+00 3.81089E+01
 -1      2287 1.53445E-01-7.93750E+00 3.48941E+01
 -1      2288-7.92948E+00-7.93750E+00 3.58700E+01
 -1      2289-1.09481E+01-7.93750E+00 3.26410E+01
 -1      2290-1.48770E+01-7.93750E+00 3.02094E+01
 -1      2291-1.93037E+01-7.93750E+00 2.88639E+01
 -1      2292-1.46025E+01-7.93750E+00 2.62532E+01
 -1      2293-2.28646E+01-7.93750E+00 2.61596E+01
 -1      2294 3.72337E+00-7.93750E+00 2.29439E+01
 -1      2295-1.78460E+00-7.93750E+00 2.28461E+01
 -1      2296 7.71895E+00-7.93750E+00 2.32492E+01
 -1      2297 4.44040E+00-7.93750E+00 2.74359E+01
 -1      2298 1.17223E+01-7.93750E+00 2.55719E+01
 -1      2299 1.10208E+01-7.93750E+00 2.10887E+01
 -1      2300 1.13298E+01-7.93750E+00 3.03018E+01
 -1      2301 6.42550E+00-7.93750E+00 3.17403E+01
 -1      2302 9.33242E+00-7.93750E+00 3.43093E+01
 -1      2303 8.30237E+00-7.93750E+00 3.78710E+01
 -1      2304-1.68122E+01-7.93750E+00 2.15003E+01
 -1      2305-2.15632E+01-7.93750E+00 2.17618E+01
 -1      2306-2.53985E+01-7.93750E+00 2.30136E+01
 -1      2307 8.41804E+00-7.93750E+00 4.28451E+01
 -1      2308-4.86168E+00-7.93750E+00 2.73613E+01
 -1      2309-7.09877E+00-7.93750E+00 2.30835E+01
 -1      2310-1.23855E+01-7.93750E+00 2.28458E+01
 -1      2311-1.84307E+00-7.93750E+00 3.05903E+01
 -1      2312-7.15724E+00-7.93750E+00 3.08277E+01
 -1      2313 2.44555E+00-7.93750E+00 3.14247E+01
 -1      2314-3.74618E+00 7.93750E+00 4.21612E+01
 -1      2315-1.95782E+01 7.93750E+00 3.28200E+01
 -1      2316 6.99424E+00 7.93750E+00 1.87638E+01
 -1      2317 1.42085E+01 7.93750E+00 3.28796E+01
 -1      2318-2.40971E+01 7.93750E+00 1.86158E+01
 -1      2319 1.39324E+01 7.93750E+00 4.79249E+01
 -1      2320-4.02170E+00 7.93750E+00 1.85682E+01
 -1      2321 4.52497E-01 7.93750E+00 2.71240E+01
 -1      2322-1.01758E+01 7.93750E+00 2.75987E+01
 -1      2323-1.45951E+01 7.93750E+00 1.80929E+01
 -1      2324 1.50441E+01 7.93750E+00 2.34157E+01
 -1      2325 4.65644E+00 7.93750E+00 4.56860E+01
 -1      2326 4.43517E+00 7.93750E+00 3.57346E+01
 -1      2327-1.17203E+01 7.93750E+00 3.76834E+01
 -1      2328-2.66999E+01 7.93750E+00 2.74114E+01
 -1      2329 8.42481E+00 7.93750E+00 2.77445E+01
 -1      2330 1.21754E+01 7.93750E+00 4.00079E+01
 -1      2331 2.18634E+01 7.93750E+00 5.09014E+01
 -1      2332-4.13863E+00 7.93750E+00 3.40567E+01
 -1      2333 1.56298E+01 7.93750E+00 1.59014E+01
 -1      2334-3.13533E+01 7.93750E+00 2.07342E+01
 -1      2335-1.90292E+01 7.93750E+00 2.49078E+01
 -1      2336 2.99630E+01 7.93750E+00 5.48808E+01
 -1      2337-3.52777E+01 7.93750E+00 1.45241E+01
 -1      2338 1.36357E+01 7.93750E+00 1.27132E+01
 -1      2339 1.89274E+01 7.93750E+00 1.27132E+01
 -1      2340 1.89280E+01 7.93750E+00 1.70824E+01
 -1      2341 1.81268E+01 7.93750E+00 2.99116E+01
 -1      2342 1.89318E+01 7.93750E+00 3.53952E+01
 -1      2343 1.86421E+01 7.93750E+00 2.08479E+01
 -1      2344 1.86265E+01 7.93750E+00 2.52142E+01
 -1      2345 1.46222E+01 7.93750E+00 2.81224E+01
 -1      2346 4.64478E+01 7.93750E+00 6.08970E+01
 -1      2347-2.73944E+01 7.93750E+00 1.40704E+01
 -1      2348-2.21027E+01 7.93750E+00 1.40704E+01
 -1      2349-3.56085E+01 7.93750E+00 2.01287E+01
 -1      2350-3.10225E+01 7.93750E+00 1.51296E+01
 -1      2351-2.77252E+01 7.93750E+00 1.96750E+01
 -1      2352-1.73517E+01 7.93750E+00 1.38090E+01
 -1      2353-1.20601E+01 7.93750E+00 1.38090E+01
 -1      2354-1.93461E+01 7.93750E+00 1.83544E+01
 -1      2355-6.77335E+00 7.93750E+00 1.40466E+01
 -1      2356-1.48168E+00 7.93750E+00 1.40466E+01
 -1      2357-9.30842E+00 7.93750E+00 1.83306E+01
 -1      2358 4.02629E+00 7.93750E+00 1.41444E+01
 -1      2359 9.31795E+00 7.93750E+00 1.41444E+01
 -1      2360 1.48627E+00 7.93750E+00 1.86660E+01
 -1      2361 1.13120E+01 7.93750E+00 1.73326E+01
 -1      2362 2.26571E+01 7.93750E+00 4.43969E+01
 -1      2363 2.53200E+01 7.93750E+00 4.91820E+01
 -1      2364 1.31990E+01 7.93750E+00 3.64545E+01
 -1      2365 1.79895E+01 7.93750E+00 3.89114E+01
 -1      2366 1.88138E+01 7.93750E+00 4.28365E+01
 -1      2367 1.30509E+01 7.93750E+00 4.39587E+01
 -1      2368 1.78783E+01 7.93750E+00 4.94119E+01
 -1      2369 2.92515E+01 7.93750E+00 5.12181E+01
 -1      2370 3.32129E+01 7.93750E+00 5.51227E+01
 -1      2371 2.58947E+01 7.93750E+00 5.28492E+01
 -1      2372 3.64892E+01 7.93750E+00 5.79958E+01
 -1      2373 4.13843E+01 7.93750E+00 6.05891E+01
 -1      2374 3.33251E+01 7.93750E+00 5.78590E+01
 -1      2375 1.53453E+01 7.93750E+00 1.96607E+01
 -1      2376 2.82993E+01 7.93750E+00 5.71443E+01
 -1      2377 2.41991E+01 7.93750E+00 5.51830E+01
 -1      2378 1.92620E+01 7.93750E+00 5.41883E+01
 -1      2379 1.52900E+01 7.93750E+00 5.27126E+01
 -1      2380 1.04070E+01 7.93750E+00 5.14236E+01
 -1      2381 5.73655E+00 7.93750E+00 5.03033E+01
 -1      2382 9.63183E-01 7.93750E+00 4.86682E+01
 -1      2383 9.29990E+00 7.93750E+00 4.67962E+01
 -1      2384-3.29348E+00 7.93750E+00 4.69130E+01
 -1      2385-7.87076E+00 7.93750E+00 4.48385E+01
 -1      2386 4.41874E-01 7.93750E+00 4.39405E+01
 -1      2387-1.18578E+01 7.93750E+00 4.25996E+01
 -1      2388-1.62506E+01 7.93750E+00 4.00722E+01
 -1      2389-7.73325E+00 7.93750E+00 3.99223E+01
 -1      2390-2.01796E+01 7.93750E+00 3.76405E+01
 -1      2391-2.41731E+01 7.93750E+00 3.45244E+01
 -1      2392-1.56493E+01 7.93750E+00 3.52517E+01
 -1      2393-2.77340E+01 7.93750E+00 3.18201E+01
 -1      2394-3.10569E+01 7.93750E+00 2.80036E+01
 -1      2395-2.31390E+01 7.93750E+00 3.01157E+01
 -1      2396-3.33836E+01 7.93750E+00 2.46650E+01
 -1      2397-2.90266E+01 7.93750E+00 2.40728E+01
 -1      2398 4.54081E+00 7.93750E+00 4.07131E+01
 -1      2399 3.43157E-01 7.93750E+00 3.89574E+01
 -1      2400 1.53445E-01 7.93750E+00 3.48941E+01
 -1      2401-3.94240E+00 7.93750E+00 3.81089E+01
 -1      2402-7.92948E+00 7.93750E+00 3.58700E+01
 -1      2403-1.48770E+01 7.93750E+00 3.02094E+01
 -1      2404-1.09481E+01 7.93750E+00 3.26410E+01
 -1      2405-1.46025E+01 7.93750E+00 2.62532E+01
 -1      2406-1.93037E+01 7.93750E+00 2.88639E+01
 -1      2407-2.28646E+01 7.93750E+00 2.61596E+01
 -1      2408-1.78460E+00 7.93750E+00 2.28461E+01
 -1      2409 3.72337E+00 7.93750E+00 2.29439E+01
 -1      2410 4.44040E+00 7.93750E+00 2.74359E+01
 -1      2411 7.71895E+00 7.93750E+00 2.32492E+01
 -1      2412 1.10208E+01 7.93750E+00 2.10887E+01
 -1      2413 1.17223E+01 7.93750E+00 2.55719E+01
 -1      2414 1.13298E+01 7.93750E+00 3.03018E+01
 -1      2415 9.33242E+00 7.93750E+00 3.43093E+01
 -1      2416 6.42550E+00 7.93750E+00 3.17403E+01
 -1      2417 8.30237E+00 7.93750E+00 3.78710E+01
 -1      2418-2.15632E+01 7.93750E+00 2.17618E+01
 -1      2419-1.68122E+01 7.93750E+00 2.15003E+01
 -1      2420-2.53985E+01 7.93750E+00 2.30136E+01
 -1      2421 8.41804E+00 7.93750E+00 4.28451E+01
 -1      2422-7.09877E+00 7.93750E+00 2.30835E+01
 -1      2423-4.86168E+00 7.93750E+00 2.73613E+01
 -1      2424-1.23855E+01 7.93750E+00 2.28458E+01
 -1      2425-7.15724E+00 7.93750E+00 3.08277E+01
 -1      2426-1.84307E+00 7.93750E+00 3.05903E+01
 -1      2427 2.44555E+00 7.93750E+00 3.14247E+01
 -1      2428 6.05486E+01-2.54000E+01 5.73309E+01
 -1      2429 2.89242E+01-2.54000E+01 2.16288E+01
 -1      2430 4.11286E+01-2.54000E+01 4.46348E+01
 -1      2431 5.36132E+01-2.54000E+01 5.43649E+01
 -1      2432 3.66690E+01-2.54000E+01 3.10156E+01
 -1      2433 7.11524E+01-2.54000E+01 5.16989E+01
 -1      2434 4.54167E+01-2.54000E+01 5.19757E+01
 -1      2435 6.14527E+01-2.54000E+01 4.86768E+01
 -1      2436 3.36960E+01-2.54000E+01 3.84866E+01
 -1      2437 2.96088E+01-2.54000E+01 2.97779E+01
 -1      2438 7.83323E+01-2.54000E+01 5.45391E+01
 -1      2439 5.13290E+01-2.54000E+01 4.72126E+01
 -1      2440 2.87087E+01-2.54000E+01 1.57701E+01
 -1      2441 3.61345E+01-2.54000E+01 2.29872E+01
 -1      2442 3.46779E+01-2.54000E+01 1.62831E+01
 -1      2443 7.97285E+01-2.54000E+01 4.86537E+01
 -1      2444 3.87048E+01-2.54000E+01 2.49937E+01
 -1      2445 3.87048E+01-2.54000E+01 2.06249E+01
 -1      2446 4.00354E+01-2.54000E+01 3.29766E+01
 -1      2447 3.89720E+01-2.54000E+01 2.90079E+01
 -1      2448 3.64018E+01-2.54000E+01 2.70014E+01
 -1      2449 3.79765E+01-2.54000E+01 1.72729E+01
 -1      2450 3.79765E+01-2.54000E+01 1.29041E+01
 -1      2451 3.32140E+01-2.54000E+01 1.29041E+01
 -1      2452 3.02293E+01-2.54000E+01 1.26476E+01
 -1      2453 2.54668E+01-2.54000E+01 1.26476E+01
 -1      2454 2.54668E+01-2.54000E+01 1.70164E+01
 -1      2455 2.59169E+01-2.54000E+01 2.83890E+01
 -1      2456 2.67646E+01-2.54000E+01 3.37639E+01
 -1      2457 2.55746E+01-2.54000E+01 1.99457E+01
 -1      2458 2.55746E+01-2.54000E+01 2.43145E+01
 -1      2459 2.92665E+01-2.54000E+01 2.57033E+01
 -1      2460 4.98999E+01-2.54000E+01 5.72645E+01
 -1      2461 5.52693E+01-2.54000E+01 5.81447E+01
 -1      2462 5.87478E+01-2.54000E+01 5.96361E+01
 -1      2463 5.87932E+01-2.54000E+01 5.96279E+01
 -1      2464 5.70809E+01-2.54000E+01 5.58479E+01
 -1      2465 8.20294E+01-2.54000E+01 5.82111E+01
 -1      2466 8.20293E+01-2.54000E+01 5.34670E+01
 -1      2467 7.72667E+01-2.54000E+01 5.82269E+01
 -1      2468 8.27269E+01-2.54000E+01 5.05296E+01
 -1      2469 8.27273E+01-2.54000E+01 4.57905E+01
 -1      2470 7.79642E+01-2.54000E+01 4.57699E+01
 -1      2471 5.42395E+01-2.54000E+01 4.50439E+01
 -1      2472 5.02707E+01-2.54000E+01 4.39805E+01
 -1      2473 6.40638E+01-2.54000E+01 4.57760E+01
 -1      2474 5.93013E+01-2.54000E+01 4.57760E+01
 -1      2475 5.63908E+01-2.54000E+01 4.79447E+01
 -1      2476 5.88493E+01-2.54000E+01 5.96281E+01
 -1      2477 6.36118E+01-2.54000E+01 5.96281E+01
 -1      2478 3.54062E+01-2.54000E+01 1.96351E+01
 -1      2479 3.16933E+01-2.54000E+01 1.60266E+01
 -1      2480 2.88083E+01-2.54000E+01 3.81183E+01
 -1      2481 3.12692E+01-2.54000E+01 4.29712E+01
 -1      2482 3.16524E+01-2.54000E+01 3.41323E+01
 -1      2483 3.49855E+01-2.54000E+01 4.60453E+01
 -1      2484 3.88207E+01-2.54000E+01 4.99053E+01
 -1      2485 3.74123E+01-2.54000E+01 4.15607E+01
 -1      2486 4.09647E+01-2.54000E+01 5.35757E+01
 -1      2487 4.58018E+01-2.54000E+01 5.60678E+01
 -1      2488 4.32727E+01-2.54000E+01 4.83052E+01
 -1      2489 4.95150E+01-2.54000E+01 5.31703E+01
 -1      2490 2.88165E+01-2.54000E+01 1.86994E+01
 -1      2491 7.90315E+01-2.54000E+01 5.15965E+01
 -1      2492 4.51706E+01-2.54000E+01 4.26916E+01
 -1      2493 4.22652E+01-2.54000E+01 3.97862E+01
 -1      2494 3.85489E+01-2.54000E+01 3.67122E+01
 -1      2495 3.51825E+01-2.54000E+01 3.47511E+01
 -1      2496 4.62288E+01-2.54000E+01 4.59237E+01
 -1      2497 7.36766E+01-2.54000E+01 4.72879E+01
 -1      2498 6.89137E+01-2.54000E+01 4.72871E+01
 -1      2499 6.63025E+01-2.54000E+01 5.01879E+01
 -1      2500 7.54414E+01-2.54000E+01 5.01783E+01
 -1      2501 6.89137E+01-2.54000E+01 5.68121E+01
 -1      2502 7.36767E+01-2.54000E+01 5.68112E+01
 -1      2503 6.58505E+01-2.54000E+01 5.45149E+01
 -1      2504 7.47438E+01-2.54000E+01 5.31172E+01
 -1      2505 5.75330E+01-2.54000E+01 5.15208E+01
 -1      2506 6.10006E+01-2.54000E+01 5.30038E+01
 -1      2507 3.25294E+01-2.54000E+01 2.23080E+01
 -1      2508 3.28717E+01-2.54000E+01 2.63825E+01
 -1      2509 3.18011E+01-2.54000E+01 1.89559E+01
 -1      2510 4.83728E+01-2.54000E+01 4.95942E+01
 -1      2511 5.24711E+01-2.54000E+01 5.07888E+01
 -1      2512 3.31389E+01-2.54000E+01 3.03967E+01
 -1      2513 6.05425E+01 2.54000E+01 5.05873E+01
 -1      2514 2.89242E+01 2.54000E+01 2.16288E+01
 -1      2515 5.27934E+01 2.54000E+01 5.46403E+01
 -1      2516 4.11286E+01 2.54000E+01 4.46348E+01
 -1      2517 3.66690E+01 2.54000E+01 3.10156E+01
 -1      2518 7.10465E+01 2.54000E+01 5.29767E+01
 -1      2519 5.79517E+01 2.54000E+01 5.79461E+01
 -1      2520 4.52996E+01 2.54000E+01 5.20150E+01
 -1      2521 3.36960E+01 2.54000E+01 3.84866E+01
 -1      2522 7.88801E+01 2.54000E+01 5.00046E+01
 -1      2523 2.96088E+01 2.54000E+01 2.97779E+01
 -1      2524 5.10211E+01 2.54000E+01 4.75835E+01
 -1      2525 6.26731E+01 2.54000E+01 5.70721E+01
 -1      2526 2.87087E+01 2.54000E+01 1.57701E+01
 -1      2527 3.61345E+01 2.54000E+01 2.29872E+01
 -1      2528 3.46779E+01 2.54000E+01 1.62831E+01
 -1      2529 7.97917E+01 2.54000E+01 5.60922E+01
 -1      2530 3.79765E+01 2.54000E+01 1.29041E+01
 -1      2531 3.79765E+01 2.54000E+01 1.72729E+01
 -1      2532 3.32140E+01 2.54000E+01 1.29041E+01
 -1      2533 3.87048E+01 2.54000E+01 2.06249E+01
 -1      2534 3.87048E+01 2.54000E+01 2.49937E+01
 -1      2535 3.89720E+01 2.54000E+01 2.90079E+01
 -1      2536 4.00354E+01 2.54000E+01 3.29766E+01
 -1      2537 3.64018E+01 2.54000E+01 2.70014E+01
 -1      2538 2.54668E+01 2.54000E+01 1.26476E+01
 -1      2539 3.02293E+01 2.54000E+01 1.26476E+01
 -1      2540 2.54668E+01 2.54000E+01 1.70164E+01
 -1      2541 2.67646E+01 2.54000E+01 3.37639E+01
 -1      2542 2.59169E+01 2.54000E+01 2.83890E+01
 -1      2543 2.55746E+01 2.54000E+01 2.43145E+01
 -1      2544 2.55746E+01 2.54000E+01 1.99457E+01
 -1      2545 2.92665E+01 2.54000E+01 2.57033E+01
 -1      2546 5.48594E+01 2.54000E+01 5.82824E+01
 -1      2547 4.94900E+01 2.54000E+01 5.74022E+01
 -1      2548 5.74947E+01 2.54000E+01 5.99355E+01
 -1      2549 5.74386E+01 2.54000E+01 5.99353E+01
 -1      2550 5.53725E+01 2.54000E+01 5.62932E+01
 -1      2551 8.23029E+01 2.54000E+01 4.64618E+01
 -1      2552 8.23029E+01 2.54000E+01 5.12051E+01
 -1      2553 7.75406E+01 2.54000E+01 4.64454E+01
 -1      2554 8.27584E+01 2.54000E+01 5.42435E+01
 -1      2555 8.27588E+01 2.54000E+01 5.89831E+01
 -1      2556 7.79958E+01 2.54000E+01 5.90032E+01
 -1      2557 5.75508E+01 2.54000E+01 5.99356E+01
 -1      2558 6.46741E+01 2.54000E+01 5.94986E+01
 -1      2559 5.99116E+01 2.54000E+01 5.94986E+01
 -1      2560 6.03124E+01 2.54000E+01 5.75091E+01
 -1      2561 5.88463E+01 2.54000E+01 4.67312E+01
 -1      2562 6.36088E+01 2.54000E+01 4.67312E+01
 -1      2563 5.01168E+01 2.54000E+01 4.41659E+01
 -1      2564 5.40856E+01 2.54000E+01 4.52293E+01
 -1      2565 5.57818E+01 2.54000E+01 4.90854E+01
 -1      2566 3.54062E+01 2.54000E+01 1.96351E+01
 -1      2567 3.16933E+01 2.54000E+01 1.60266E+01
 -1      2568 3.12692E+01 2.54000E+01 4.29712E+01
 -1      2569 2.88083E+01 2.54000E+01 3.81183E+01
 -1      2570 3.16524E+01 2.54000E+01 3.41323E+01
 -1      2571 3.88207E+01 2.54000E+01 4.99053E+01
 -1      2572 3.49855E+01 2.54000E+01 4.60453E+01
 -1      2573 3.74123E+01 2.54000E+01 4.15607E+01
 -1      2574 4.57432E+01 2.54000E+01 5.60875E+01
 -1      2575 4.09062E+01 2.54000E+01 5.35954E+01
 -1      2576 4.32141E+01 2.54000E+01 4.83249E+01
 -1      2577 4.90465E+01 2.54000E+01 5.33277E+01
 -1      2578 2.88165E+01 2.54000E+01 1.86994E+01
 -1      2579 7.93369E+01 2.54000E+01 5.30483E+01
 -1      2580 7.36236E+01 2.54000E+01 5.74501E+01
 -1      2581 6.88607E+01 2.54000E+01 5.74491E+01
 -1      2582 6.68598E+01 2.54000E+01 5.50242E+01
 -1      2583 7.54199E+01 2.54000E+01 5.45325E+01
 -1      2584 6.88607E+01 2.54000E+01 4.79259E+01
 -1      2585 7.36238E+01 2.54000E+01 4.79268E+01
 -1      2586 6.57945E+01 2.54000E+01 5.17820E+01
 -1      2587 7.49647E+01 2.54000E+01 5.14924E+01
 -1      2588 4.22652E+01 2.54000E+01 3.97862E+01
 -1      2589 4.51706E+01 2.54000E+01 4.26916E+01
 -1      2590 3.85489E+01 2.54000E+01 3.67122E+01
 -1      2591 3.51825E+01 2.54000E+01 3.47511E+01
 -1      2592 4.60749E+01 2.54000E+01 4.61091E+01
 -1      2593 5.66680E+01 2.54000E+01 5.26138E+01
 -1      2594 5.92471E+01 2.54000E+01 5.42667E+01
 -1      2595 5.19072E+01 2.54000E+01 5.11119E+01
 -1      2596 6.16078E+01 2.54000E+01 5.38297E+01
 -1      2597 3.28717E+01 2.54000E+01 2.63825E+01
 -1      2598 3.25294E+01 2.54000E+01 2.23080E+01
 -1      2599 3.18011E+01 2.54000E+01 1.89559E+01
 -1      2600 4.81603E+01 2.54000E+01 4.97993E+01
 -1      2601 3.31389E+01 2.54000E+01 3.03967E+01
 -1      2602 1.22419E+01 8.40580E-02 5.63763E+01
 -1      2603-2.49010E+01-8.29347E-01 3.95070E+01
 -1      2604 4.17302E+01 8.44459E-01 6.12720E+01
 -1      2605-4.05593E+01-1.38148E-01 1.69079E+01
 -1      2606-7.40482E+00-8.40642E-01 4.96693E+01
 -1      2607 5.27515E+01-1.99219E-04 6.18639E+01
 -1      2608 5.12101E-01-1.18317E-01 5.28004E+01
 -1      2609-1.78410E+01-1.01378E-01 4.43142E+01
 -1      2610 3.37721E+01 4.83924E-01 6.04472E+01
 -1      2611 2.53262E+01-5.62413E-01 5.91880E+01
 -1      2612-3.27706E+01 5.27429E-01 3.20585E+01
 -1      2613-3.84117E+01-2.03727E-01 2.33056E+01
 -1      2614 1.83668E+01-1.08818E+00 5.78314E+01
 -1      2615 4.57443E+01-1.90113E+00 6.15605E+01
 -1      2616 6.25687E+00-5.06454E-01 5.46923E+01
 -1      2617-1.26269E+01 1.67539E+00 4.71966E+01
 -1      2618 3.12372E+01-3.35182E+00 6.01119E+01
 -1      2619 3.78961E+01-2.79234E+00 6.09171E+01
 -1      2620 2.97443E+01 3.07150E+00 5.98976E+01
 -1      2621 4.79904E+01 2.47491E+00 6.16853E+01
 -1      2622 5.31075E+01 4.85760E+00 6.18725E+01
 -1      2623-4.11371E+01-6.90738E-02 1.32376E+01
 -1      2624-4.11371E+01 3.89968E+00 1.32376E+01
 -1      2625-4.02400E+01 3.89968E+00 1.82231E+01
 -1      2626-4.11371E+01-4.03782E+00 1.32376E+01
 -1      2627-4.02400E+01-4.03782E+00 1.82231E+01
 -1      2628 5.70377E+01 1.59544E+01 6.19249E+01
 -1      2629 5.70351E+01 1.15887E+01 6.19249E+01
 -1      2630 4.99482E+01 6.38678E+00 6.17729E+01
 -1      2631 5.50180E+01 6.34844E+00 6.19079E+01
 -1      2632 5.70382E+01 6.50862E+00 6.19249E+01
 -1      2633 5.51311E+01 4.96152E+00 6.19094E+01
 -1      2634 5.69816E+01 2.10344E+01 6.19247E+01
 -1      2635 5.70358E+01-1.15889E+01 6.19249E+01
 -1      2636 5.70377E+01-1.59544E+01 6.19249E+01
 -1      2637 5.70354E+01-6.46083E+00 6.19249E+01
 -1      2638 5.19668E+01-6.50219E+00 6.18425E+01
 -1      2639 5.69816E+01-2.10344E+01 6.19247E+01
 -1      2640 5.70377E+01-2.10344E+01 6.19249E+01
 -1      2641 5.70377E+01 2.10344E+01 6.19249E+01
 -1      2642 4.23395E+01-5.36531E+00 6.13212E+01
 -1      2643 3.72892E+01-5.36492E+00 6.08538E+01
 -1      2644 5.49504E+01-2.54022E+00 6.19070E+01
 -1      2645 4.97692E+01-3.96855E+00 6.17657E+01
 -1      2646 4.92456E+01-9.49751E-01 6.17437E+01
 -1      2647 4.62656E+01-4.91720E+00 6.15918E+01
 -1      2648 4.18165E+01-2.34463E+00 6.12791E+01
 -1      2649 3.39573E+01-5.64466E+00 6.04703E+01
 -1      2650 2.89342E+01-5.64466E+00 5.97760E+01
 -1      2651 3.45630E+01-3.07208E+00 6.05445E+01
 -1      2652 2.24916E+01-4.51284E+00 5.86718E+01
 -1      2653 1.75255E+01-4.51284E+00 5.76466E+01
 -1      2654 2.59808E+01-4.24996E+00 5.93004E+01
 -1      2655 2.18395E+01-8.25297E-01 5.85460E+01
 -1      2656 2.82779E+01-1.95712E+00 5.96746E+01
 -1      2657 1.44595E+01-3.92672E+00 5.69330E+01
 -1      2658 9.55281E+00-3.92672E+00 5.56536E+01
 -1      2659 1.52972E+01-5.02061E-01 5.71343E+01
 -1      2660 3.68202E+00-4.02791E+00 5.38800E+01
 -1      2661-1.10688E+00-4.02791E+00 5.22130E+01
 -1      2662 9.24045E+00-2.11198E-01 5.55661E+01
 -1      2663 6.56726E+00-4.22198E+00 5.47865E+01
 -1      2664 3.37377E+00-3.12386E-01 5.37789E+01
 -1      2665-5.07198E+00-4.38907E+00 5.06624E+01
 -1      2666-9.71355E+00-4.38907E+00 4.86212E+01
 -1      2667-3.47482E+00-4.79480E-01 5.13069E+01
 -1      2668-1.49485E+01-4.01944E+00 4.59705E+01
 -1      2669-1.93214E+01-4.01944E+00 4.34043E+01
 -1      2670-1.00336E+01 4.17376E-01 4.84705E+01
 -1      2671-1.23114E+01-3.13105E+00 4.73568E+01
 -1      2672-1.52586E+01 7.87007E-01 4.58000E+01
 -1      2673-2.28686E+01-4.38342E+00 4.10227E+01
 -1      2674-2.68704E+01-4.38342E+00 3.79104E+01
 -1      2675-2.14430E+01-4.65363E-01 4.20167E+01
 -1      2676-3.08313E+01-3.70504E+00 3.42033E+01
 -1      2677-3.41378E+01-3.70504E+00 3.03619E+01
 -1      2678-2.90274E+01-1.50959E-01 3.59865E+01
 -1      2679-3.70252E+01-4.07061E+00 2.60145E+01
 -1      2680-3.91971E+01-4.07061E+00 2.14372E+01
 -1      2681-3.58920E+01 1.61851E-01 2.78773E+01
 -1      2682-3.96557E+01-1.70937E-01 2.01640E+01
 -1      2683 3.92047E+01 4.39098E+00 6.10471E+01
 -1      2684 4.42582E+01 4.39030E+00 6.14635E+01
 -1      2685 4.48587E+01 1.65989E+00 6.15041E+01
 -1      2686 4.73897E+01 5.20628E+00 6.16545E+01
 -1      2687 5.05503E+01 3.66053E+00 6.17958E+01
 -1      2688 2.81890E+01 5.50450E+00 5.96607E+01
 -1      2689 3.32092E+01 5.50450E+00 6.03758E+01
 -1      2690 3.52266E+01 4.21071E+00 6.06235E+01
 -1      2691 3.77468E+01 6.64191E-01 6.09017E+01
 -1      2692 3.17567E+01 1.77771E+00 6.01835E+01
 -1      2693 2.09943E+01 3.68754E+00 5.83792E+01
 -1      2694 2.59808E+01 3.68754E+00 5.93004E+01
 -1      2695 2.75330E+01 1.25455E+00 5.95567E+01
 -1      2696 9.55281E+00 4.01078E+00 5.56536E+01
 -1      2697 1.44595E+01 4.01078E+00 5.69330E+01
 -1      2698 1.75255E+01 3.42466E+00 5.76466E+01
 -1      2699-1.10688E+00 3.90959E+00 5.22130E+01
 -1      2700 3.68202E+00 3.90959E+00 5.38800E+01
 -1      2701 6.56726E+00 3.71552E+00 5.47865E+01
 -1      2702-9.71355E+00 3.54843E+00 4.86212E+01
 -1      2703-5.07198E+00 3.54843E+00 5.06624E+01
 -1      2704-1.93214E+01 3.91806E+00 4.34043E+01
 -1      2705-1.49485E+01 3.91806E+00 4.59705E+01
 -1      2706-1.23114E+01 4.80645E+00 4.73568E+01
 -1      2707-2.68704E+01 3.55408E+00 3.79104E+01
 -1      2708-2.28686E+01 3.55408E+00 4.10227E+01
 -1      2709-3.41378E+01 4.23246E+00 3.03619E+01
 -1      2710-3.08313E+01 4.23246E+00 3.42033E+01
 -1      2711-3.91971E+01 3.86689E+00 2.14372E+01
 -1      2712-3.70252E+01 3.86689E+00 2.60145E+01
 -1      2713 5.49501E+01 2.54011E+00 6.19070E+01
 -1      2714 5.29303E+01 2.42208E+00 6.18683E+01
 -1      2715 3.58328E+01-1.15421E+00 6.06936E+01
 -1      2716 3.98123E+01-9.73940E-01 6.11043E+01
 -1      2717 4.37361E+01-5.27674E-01 6.14267E+01
 -1      2718 4.68668E+01 2.88023E-01 6.16262E+01
 -1      2719 5.03705E+01 1.23755E+00 6.17892E+01
 -1      2720 3.25041E+01-1.43395E+00 6.02840E+01
 -1      2721 3.04905E+01-1.40158E-01 6.00063E+01
 -1      2722 6.14428E+01-2.04080E+01 4.28752E+01
 -1      2723 6.14428E+01 2.04080E+01 4.28752E+01
 -1      2724 5.86454E+01 2.49985E+00 4.28752E+01
 -1      2725 5.95526E+01 7.54491E+00 4.28752E+01
 -1      2726 5.86454E+01-2.49985E+00 4.28752E+01
 -1      2727 5.95526E+01-7.54491E+00 4.28752E+01
 -1      2728 7.60342E+01 2.44440E+01 4.28752E+01
 -1      2729 7.60339E+01-2.44441E+01 4.28752E+01
 -1      2730 5.93030E+01-2.28959E+01 4.28752E+01
 -1      2731 6.40233E+01-2.29079E+01 4.28752E+01
 -1      2732 5.92459E+01-1.78536E+01 4.28752E+01
 -1      2733 6.40233E+01 2.29079E+01 4.28752E+01
 -1      2734 5.93030E+01 2.28959E+01 4.28752E+01
 -1      2735 5.92459E+01 1.78536E+01 4.28752E+01
 -1      2736 6.70693E+01 2.17143E+01 4.28752E+01
 -1      2737 7.12696E+01 2.44993E+01 4.28752E+01
 -1      2738 6.16632E+01 1.51659E+01 4.28752E+01
 -1      2739 6.45776E+01 1.92275E+01 4.28752E+01
 -1      2740 5.96740E+01 1.25010E+01 4.28752E+01
 -1      2741 6.45776E+01-1.92275E+01 4.28752E+01
 -1      2742 6.16632E+01-1.51659E+01 4.28752E+01
 -1      2743 5.96740E+01-1.25010E+01 4.28752E+01
 -1      2744 6.70693E+01-2.17143E+01 4.28752E+01
 -1      2745 7.12696E+01-2.44992E+01 4.28752E+01
 -1      2746 6.14428E+01-2.04080E+01 6.19252E+01
 -1      2747 6.14428E+01 2.04080E+01 6.19252E+01
 -1      2748 7.60340E+01 2.44441E+01 6.19252E+01
 -1      2749 5.95526E+01 7.54491E+00 6.19252E+01
 -1      2750 5.86454E+01 2.49985E+00 6.19252E+01
 -1      2751 5.86462E+01-2.49882E+00 6.19252E+01
 -1      2752 5.95552E+01-7.54622E+00 6.19252E+01
 -1      2753 7.60342E+01-2.44437E+01 6.19252E+01
 -1      2754 6.40233E+01-2.29079E+01 6.19252E+01
 -1      2755 5.93030E+01-2.28959E+01 6.19252E+01
 -1      2756 5.92459E+01-1.78536E+01 6.19252E+01
 -1      2757 5.93030E+01 2.28959E+01 6.19252E+01
 -1      2758 6.40233E+01 2.29079E+01 6.19252E+01
 -1      2759 5.92459E+01 1.78536E+01 6.19252E+01
 -1      2760 7.12696E+01 2.44992E+01 6.19252E+01
 -1      2761 6.70693E+01 2.17143E+01 6.19252E+01
 -1      2762 6.45776E+01 1.92275E+01 6.19252E+01
 -1      2763 6.16632E+01 1.51659E+01 6.19252E+01
 -1      2764 5.96740E+01 1.25010E+01 6.19252E+01
 -1      2765 6.16632E+01-1.51659E+01 6.19252E+01
 -1      2766 6.45776E+01-1.92275E+01 6.19252E+01
 -1      2767 5.96744E+01-1.25007E+01 6.19252E+01
 -1      2768 6.70693E+01-2.17143E+01 6.19252E+01
 -1      2769 7.12696E+01-2.44993E+01 6.19252E+01
 -1      2770 4.59247E+01-1.83040E+01 3.82255E+01
 -1      2771 4.59247E+01 1.83040E+01 3.82255E+01
 -1      2772 4.86958E+01-2.13163E-14 4.04368E+01
 -1      2773 4.90023E+01 9.55966E+00 4.06248E+01
 -1      2774 4.90023E+01-9.55966E+00 4.06248E+01
 -1      2775 4.30060E+01-1.01600E+01 3.42088E+01
 -1      2776 4.30060E+01 1.01600E+01 3.42088E+01
 -1      2777 4.29100E+01-2.13163E-14 3.40173E+01
 -1      2778 4.22009E+01 1.98408E+01 3.23426E+01
 -1      2779 5.17637E+01 1.98047E+01 4.19335E+01
 -1      2780 4.22009E+01-1.98408E+01 3.23426E+01
 -1      2781 5.17495E+01-1.97831E+01 4.19284E+01
 -1      2782 4.15082E+01 2.26204E+01 2.97112E+01
 -1      2783 4.15082E+01 1.75404E+01 2.97112E+01
 -1      2784 4.27428E+01 2.26204E+01 3.36672E+01
 -1      2785 4.15082E+01-1.75404E+01 2.97112E+01
 -1      2786 4.15082E+01-2.26204E+01 2.97112E+01
 -1      2787 4.27428E+01-2.26204E+01 3.36672E+01
 -1      2788 5.04549E+01-2.25916E+01 4.13944E+01
 -1      2789 5.44085E+01-2.25916E+01 4.26367E+01
 -1      2790 5.44085E+01-1.75116E+01 4.26367E+01
 -1      2791 5.44160E+01 2.26023E+01 4.26380E+01
 -1      2792 5.04618E+01 2.26023E+01 4.13976E+01
 -1      2793 5.44160E+01 1.75223E+01 4.26380E+01
 -1      2794 4.17138E+01-7.62000E+00 3.07070E+01
 -1      2795 4.17138E+01-1.27000E+01 3.07070E+01
 -1      2796 4.25736E+01-1.50004E+01 3.32886E+01
 -1      2797 4.16892E+01 2.54000E+00 3.06027E+01
 -1      2798 4.16892E+01-2.54000E+00 3.06027E+01
 -1      2799 4.29577E+01-5.08000E+00 3.41132E+01
 -1      2800 4.17138E+01 1.27000E+01 3.07070E+01
 -1      2801 4.17138E+01 7.62000E+00 3.07070E+01
 -1      2802 4.29577E+01 5.08000E+00 3.41132E+01
 -1      2803 4.25736E+01 1.50004E+01 3.32886E+01
 -1      2804 4.45555E+01-2.18520E+01 3.66643E+01
 -1      2805 4.74859E+01-2.18520E+01 3.95947E+01
 -1      2806 4.37363E+01-1.90724E+01 3.54907E+01
 -1      2807 4.86334E+01-1.90436E+01 4.03973E+01
 -1      2808 4.74859E+01 2.18520E+01 3.95947E+01
 -1      2809 4.45555E+01 2.18520E+01 3.66643E+01
 -1      2810 4.37363E+01 1.90724E+01 3.54907E+01
 -1      2811 4.86398E+01 1.90543E+01 4.04014E+01
 -1      2812 5.29236E+01-1.23998E+01 4.23023E+01
 -1      2813 5.29236E+01-7.31983E+00 4.23023E+01
 -1      2814 5.03446E+01-1.46714E+01 4.13425E+01
 -1      2815 5.27506E+01-2.54000E+00 4.22534E+01
 -1      2816 5.27506E+01 2.54000E+00 4.22534E+01
 -1      2817 4.88485E+01-4.77983E+00 4.05317E+01
 -1      2818 5.29236E+01 7.31983E+00 4.23023E+01
 -1      2819 5.29236E+01 1.23998E+01 4.23023E+01
 -1      2820 4.88485E+01 4.77983E+00 4.05317E+01
 -1      2821 5.03515E+01 1.46822E+01 4.13458E+01
 -1      2822 4.73895E+01-1.39318E+01 3.95201E+01
 -1      2823 4.43073E+01-1.42320E+01 3.63320E+01
 -1      2824 4.55517E+01-9.85983E+00 3.78397E+01
 -1      2825 4.73895E+01 1.39318E+01 3.95201E+01
 -1      2826 4.55517E+01 9.85983E+00 3.78397E+01
 -1      2827 4.43073E+01 1.42320E+01 3.63320E+01
 -1      2828 4.53577E+01-2.13163E-14 3.76283E+01
 -1      2829 4.54788E+01 4.77983E+00 3.77612E+01
 -1      2830 4.54788E+01-4.77983E+00 3.77612E+01
 -1      2831 7.17292E+01-2.39519E+00 5.23375E+01
 -1      2832 8.87573E+01 1.14654E+01 5.24228E+01
 -1      2833 8.47226E+01-9.92178E+00 5.24264E+01
 -1      2834 9.69698E+01-1.13949E+00 5.25564E+01
 -1      2835 7.48562E+01 1.10436E+01 5.23959E+01
 -1      2836 4.55059E+01 1.20990E+00 5.11019E+01
 -1      2837 3.00111E+01 6.94575E-05 1.39099E+01
 -1      2838-3.17258E+01-8.44476E-03 1.02141E+00
 -1      2839 3.17880E+01 1.56464E+01 1.71087E+01
 -1      2840 3.17904E+01-1.56454E+01 1.71077E+01
 -1      2841 2.95140E+01-1.82810E+01 7.04871E-01
 -1      2842-4.23822E+00 3.08165E-05 1.81023E+00
 -1      2843 1.69340E+01 9.46002E-05 1.73147E+00
 -1      2844 8.27135E+01 1.52500E+00 4.93790E+01
 -1      2845 3.02237E+01 1.75064E+01 1.28073E+00
 -1      2846 5.39481E+01 1.09010E+01 5.24341E+01
 -1      2847 3.04772E+01 5.54652E+00 1.20627E+00
 -1      2848 1.78181E+01 1.79379E+01-1.31768E-01
 -1      2849 1.18424E+01-2.56500E+01 9.37689E-02
 -1      2850 7.36566E+01-1.39596E+01 5.26060E+01
 -1      2851 3.11156E+01-5.31623E+01 1.11745E-01
 -1      2852 3.19231E+01-6.33981E+00 2.21791E+01
 -1      2853 3.19235E+01 6.34148E+00 2.21800E+01
 -1      2854 5.79846E-02-5.08351E+01-3.54836E-01
 -1      2855 1.06493E+00 3.51749E+01 2.36579E-01
 -1      2856 3.10226E+01 5.31286E+01 7.24752E-02
 -1      2857 6.32923E+01 4.50340E+00 5.23927E+01
 -1      2858 2.01035E+01-4.93606E+01-5.36215E-02
 -1      2859-3.11412E+01 4.81130E+01 3.62985E-01
 -1      2860-7.19191E+00-3.16985E+01-8.59864E-02
 -1      2861 9.89558E+00 2.92431E+01-3.44911E-02
 -1      2862 3.01222E+01-6.52534E+00 9.14288E-01
 -1      2863-1.58957E+01-1.64013E-04 2.11332E+00
 -1      2864 1.01849E+01 4.03951E+01 9.21709E-02
 -1      2865 2.01340E+00-4.05449E+01-3.72538E-01
 -1      2866-3.10183E+01-4.80774E+01 2.95765E-01
 -1      2867 9.49701E+01-1.13188E+01 5.63605E+01
 -1      2868 6.26022E+01-1.33318E+01 5.24973E+01
 -1      2869 5.31190E+01-1.04023E+01 5.24493E+01
 -1      2870 3.63708E+01-7.26863E-04 4.38817E+01
 -1      2871 3.63831E+01-1.43007E+01 4.19850E+01
 -1      2872 3.63661E+01 1.43001E+01 4.20146E+01
 -1      2873 1.78183E+01-1.79377E+01 8.78907E-01
 -1      2874-3.07335E+01-2.64383E+01-2.46460E-01
 -1      2875 2.63374E+01-4.07185E+01 4.96044E-01
 -1      2876-1.18759E+01-2.12275E+01-1.61654E-01
 -1      2877-2.01154E+01-1.39782E+01 2.25470E-01
 -1      2878 1.95172E+01 4.88890E+01-3.16916E-01
 -1      2879-1.56372E+01 5.24974E+01-8.35877E-02
 -1      2880 6.34859E+00 3.83942E+00 3.70714E-01
 -1      2881 9.21339E+01-1.34673E+01 4.68271E+01
 -1      2882 9.86763E+00-4.73662E+01-1.25360E-01
 -1      2883-1.05620E+01 1.34920E+01 1.19391E-01
 -1      2884-1.93222E+01 1.97868E+01-3.34599E-01
 -1      2885 1.94729E+00-2.75019E+01 7.32731E-01
 -1      2886 3.08849E+01 1.48388E-03 3.23059E+01
 -1      2887 9.84318E+01 8.74322E+00 4.82299E+01
 -1      2888 6.30436E+01 1.62214E+01 5.26942E+01
 -1      2889 3.13605E+01 1.28993E+01 3.05652E+01
 -1      2890-2.51939E+01 1.04294E+01 3.99238E-02
 -1      2891-3.16213E+01-3.72220E+01-1.28737E-01
 -1      2892 4.43989E+01 1.59443E+01 4.82505E+01
 -1      2893 2.81888E+01 2.78853E+01-2.29759E-01
 -1      2894-1.62907E+00 1.94614E+01-5.12260E-01
 -1      2895 1.16697E+01-3.62279E+01-8.77750E-02
 -1      2896-3.05777E+01-1.57952E+01-4.05060E-01
 -1      2897 4.43830E+01-1.59619E+01 4.82283E+01
 -1      2898 3.15954E+01-1.48355E+01 2.67100E+01
 -1      2899-6.30156E+00-1.16554E+01-1.38567E-01
 -1      2900-4.82900E+00 5.13012E+01 2.75248E-01
 -1      2901-1.30194E+01-4.08694E+01 9.21318E-02
 -1      2902-2.03787E+01-2.71913E+01-3.61920E-01
 -1      2903 1.79196E+01 5.66452E-04 1.98560E+01
 -1      2904 3.02488E+01-2.86992E+01-3.17137E-01
 -1      2905-2.90792E+01 2.39273E+01 8.83215E-02
 -1      2906 1.32128E+01 3.11549E-04 2.78310E+01
 -1      2907 6.34948E+00-1.03364E+01 1.34385E-01
 -1      2908 3.14608E+01-1.39104E-01 5.26081E+01
 -1      2909-4.17597E+00 2.69664E-03 3.40601E+01
 -1      2910-3.98558E+00 1.82160E-04 3.81170E+01
 -1      2911 1.30351E-01 1.98586E-03 3.48931E+01
 -1      2912-2.90489E+01 3.99211E+01 1.20840E-03
 -1      2913-3.28795E+01 3.70564E+01 8.10420E-04
 -1      2914-3.22327E+01 4.03780E+01 4.94415E+00
 -1      2915-3.17680E+01 4.47507E+01-4.57593E+00
 -1      2916-2.84070E+01 4.32408E+01 4.94073E+00
 -1      2917 7.26132E+00 5.06259E+01 2.34710E-04
 -1      2918 7.93277E+00 4.38970E+01-4.71572E+00
 -1      2919 9.51010E+00 4.71227E+01 4.80812E+00
 -1      2920 2.00251E+00 5.25742E+01 4.89932E+00
 -1      2921 2.67987E+00 4.58475E+01 1.83641E-01
 -1      2922 4.27415E-01 4.93497E+01-4.62391E+00
 -1      2923-7.18836E+00 2.12843E-03 3.08324E+01
 -1      2924-7.96470E+00 5.20430E-04 3.58788E+01
 -1      2925-4.11702E+00 3.59656E+01 4.88003E+00
 -1      2926-4.88245E+00 3.78137E+01-4.64359E+00
 -1      2927-1.00678E+01 3.86085E+01-4.77567E-04
 -1      2928-7.06378E+00 4.40301E+01 4.89964E+00
 -1      2929-7.83071E+00 4.58779E+01-4.62424E+00
 -1      2930-1.88106E+00 4.32385E+01 2.55851E-01
 -1      2931-1.12178E+01 2.83550E+01-1.77721E-04
 -1      2932-1.09736E+01 3.37829E+01-3.17586E-04
 -1      2933-5.79052E+00 3.29884E+01-4.64367E+00
 -1      2934-4.36240E+00 3.05393E+01 4.88032E+00
 -1      2935-1.87707E+00 5.07932E-04 3.05885E+01
 -1      2936-1.00470E+01-5.96762E+01-4.82179E+00
 -1      2937-1.50438E+01-5.91794E+01-4.82237E+00
 -1      2938-1.00486E+01-5.91795E+01 4.70098E+00
 -1      2939-1.49957E+01-5.48668E+01 9.06831E-04
 -1      2940-9.99411E+00-5.53580E+01 2.13134E-03
 -1      2941 8.42331E+00-3.11316E-03 2.77396E+01
 -1      2942 6.41915E+00-4.18622E-04 3.17335E+01
 -1      2943 1.08134E+01-3.96537E+00 2.77899E+01
 -1      2944 8.80742E+00 3.96411E+00 3.17920E+01
 -1      2945 1.08113E+01 3.96433E+00 2.77914E+01
 -1      2946 3.14399E+01 4.74334E+01 4.79171E+00
 -1      2947 3.18915E+01 4.77346E+01-4.71834E+00
 -1      2948 3.24036E+01 4.20931E+01 1.11137E-03
 -1      2949 2.57385E+01 4.53419E+01 4.59998E+00
 -1      2950 2.61887E+01 4.56413E+01-4.91683E+00
 -1      2951 2.52585E+01 5.09817E+01-1.22092E-01
 -1      2952-1.17463E+01 2.32012E+01 1.01297E-04
 -1      2953-1.45553E+01 2.28454E+01 4.59487E+00
 -1      2954-1.65123E+01 2.01412E+01-4.92946E+00
 -1      2955-7.66577E+00 1.99782E+01-5.01835E+00
 -1      2956-1.04761E+01 1.96239E+01-4.23369E-01
 -1      2957-5.70871E+00 2.26826E+01 4.50609E+00
 -1      2958 7.54179E+01 5.53286E+00 5.95351E+01
 -1      2959 7.78636E+01 9.73704E+00 5.95286E+01
 -1      2960 8.17961E+01 4.96990E+00 5.80084E+01
 -1      2961 7.87842E+01 6.28837E+00 5.08866E+01
 -1      2962 7.93453E+01 7.60229E-01 5.80104E+01
 -1      2963 8.42631E+01 1.84259E+01 5.42609E+01
 -1      2964 8.63693E+01 1.40385E+01 5.95501E+01
 -1      2965 8.18809E+01 2.11403E+01 6.14570E+01
 -1      2966 7.73414E+01 1.82013E+01 5.42481E+01
 -1      2967 7.94322E+01 1.38441E+01 5.95504E+01
 -1      2968 8.18039E+01 1.12525E+01 5.24113E+01
 -1      2969-3.22772E+01 4.54826E+01 4.94053E+00
 -1      2970 9.41586E+00 5.43556E+01 2.24000E-04
 -1      2971 2.57935E+00 5.30792E+01-4.62399E+00
 -1      2972-1.09744E+01-5.09022E+01 2.63301E-03
 -1      2973-3.73135E+01 3.24551E+01 4.88864E+00
 -1      2974-3.68361E+01 3.68136E+01-4.63603E+00
 -1      2975-3.61885E+01 4.01429E+01 3.11583E-01
 -1      2976-3.33869E+01 6.16024E+01-4.73433E+00
 -1      2977-3.53877E+01 6.08475E+01-4.62447E+00
 -1      2978-3.18102E+01 5.95972E+01-4.75339E+00
 -1      2979 8.70741E+00 4.21694E+01 4.80786E+00
 -1      2980 1.20283E+00 4.76222E+01 4.89928E+00
 -1      2981-2.67806E+01-2.43882E-03 2.74710E+01
 -1      2982-2.29254E+01-2.27062E-03 2.61942E+01
 -1      2983-2.32092E+01 6.92633E-03 3.01593E+01
 -1      2984-2.96941E+00 2.20771E+01-5.01829E+00
 -1      2985-7.13631E+00 2.51313E+01-5.01828E+00
 -1      2986-1.90722E+01-6.39275E-03 2.49284E+01
 -1      2987-1.93550E+01-3.84708E-03 2.88912E+01
 -1      2988 9.92240E+00 1.41006E+01 2.55357E-05
 -1      2989 1.55181E+01 1.49991E+01-4.82824E+00
 -1      2990 1.22223E+01 1.70386E+01 4.69638E+00
 -1      2991 6.48758E+00 9.98933E+00 4.94782E+00
 -1      2992 1.20838E+01 1.08882E+01 1.19511E-01
 -1      2993 9.78377E+00 7.95004E+00-4.57688E+00
 -1      2994 5.44153E+01 2.85309E+00 5.18344E+01
 -1      2995 5.79456E+01 2.24975E+00 5.71451E+01
 -1      2996 4.91376E+01 6.22479E-01 5.64846E+01
 -1      2997 4.92832E+01-4.61137E+00 5.18427E+01
 -1      2998 5.29148E+01-5.21539E+00 5.71804E+01
 -1      2999 5.81704E+01-2.97012E+00 5.24165E+01
 -1      3000 2.70089E+01-1.61571E+01 1.33147E+01
 -1      3001 3.06533E+01-1.69628E+01 8.90375E+00
 -1      3002 2.58705E+01-1.74750E+01 5.11602E+00
 -1      3003 2.61748E+01-1.15972E+01 5.22115E+00
 -1      3004 2.98181E+01-1.24028E+01 8.09616E-01
 -1      3005 3.09576E+01-1.10855E+01 9.01003E+00
 -1      3006-3.73122E+01 3.79417E+01 5.01790E+00
 -1      3007-3.73437E+01 4.30349E+01 5.01496E+00
 -1      3008-3.61965E+01 4.56533E+01 4.39644E-01
 -1      3009-1.46372E+01 4.72687E-06 2.62658E+01
 -1      3010-1.68433E+01-9.93753E-04 2.15126E+01
 -1      3011 7.32943E+01 4.32101E+00 5.23658E+01
 -1      3012 7.38546E+01-1.20123E+00 5.94960E+01
 -1      3013 7.72186E+01-4.39291E-01 5.08545E+01
 -1      3014-3.28217E+01 3.19323E+01 1.41048E-03
 -1      3015-2.89869E+01 3.47939E+01 1.09509E-03
 -1      3016-2.54674E+01 3.82633E-03 2.30547E+01
 -1      3017-2.16118E+01 2.84259E-04 2.17868E+01
 -1      3018-1.59835E+01 2.52954E+01-4.92925E+00
 -1      3019 1.22028E+01 3.11779E+01-4.77919E+00
 -1      3020 1.62534E+01 3.21457E+01 4.74450E+00
 -1      3021 1.85650E+01 3.40867E+01 1.24037E-04
 -1      3022 1.23470E+01 3.67548E+01-4.71576E+00
 -1      3023 1.63999E+01 3.77231E+01 4.80806E+00
 -1      3024 1.00399E+01 3.48193E+01 2.88798E-02
 -1      3025 7.99918E+01 2.01331E+01 6.43157E+01
 -1      3026 7.79080E+01 2.43860E+01 5.90288E+01
 -1      3027 7.54084E+01 1.72580E+01 5.72188E+01
 -1      3028 4.53573E+00 1.76861E-03 4.06998E+01
 -1      3029 4.35499E-01 2.20800E-04 4.39248E+01
 -1      3030 4.66432E+00 8.53007E-04 4.56631E+01
 -1      3031-3.38180E+00 4.08247E+01 4.88000E+00
 -1      3032-6.32877E+00 4.88884E+01 4.89951E+00
 -1      3033 7.64990E+01-4.80485E+00 5.95064E+01
 -1      3034 8.19956E+01-2.83714E+00 5.80092E+01
 -1      3035-1.24814E+01-4.39022E+01-4.71480E+00
 -1      3036-1.15061E+01-4.78668E+01 4.80756E+00
 -1      3037-1.64995E+01-4.78682E+01-4.71417E+00
 -1      3038 1.71492E+01-3.56372E+01 4.71796E+00
 -1      3039 1.17554E+01-3.09388E+01 2.99822E-03
 -1      3040 1.72349E+01-3.03472E+01 4.80869E+00
 -1      3041 2.64384E+01-3.18728E+01 4.60307E+00
 -1      3042 2.10466E+01-2.71744E+01-1.11613E-01
 -1      3043 2.09606E+01-3.24657E+01-2.02523E-01
 -1      3044 2.79253E+01 3.95676E+01 1.13524E-04
 -1      3045 2.16995E+01 4.31139E+01-4.91969E+00
 -1      3046 6.01063E+01-2.82969E-01 4.76605E+01
 -1      3047 5.12962E+01-1.94806E+00 4.72353E+01
 -1      3048 5.51290E+01-7.73704E+00 4.77100E+01
 -1      3049-1.44167E+01 3.67018E+01-1.99803E-04
 -1      3050-1.36612E+01 4.27186E+01-4.89788E-04
 -1      3051-1.49940E+01-5.95476E+01 4.70158E+00
 -1      3052-1.99604E+01-5.52411E+01-5.32395E-03
 -1      3053 6.01327E+01 4.80800E+00 5.71491E+01
 -1      3054 6.01369E+01-2.87364E-01 5.71419E+01
 -1      3055 6.18197E+01 2.26279E+00 5.71730E+01
 -1      3056 9.98824E+00 5.91795E+01-4.61495E+00
 -1      3057 4.99383E+00 5.91789E+01-4.73574E+00
 -1      3058-2.41192E+00 5.73992E+01 1.63593E-01
 -1      3059 2.58321E+00 5.73992E+01 2.83791E-01
 -1      3060-2.73793E+01 3.11636E+01 4.80576E+00
 -1      3061-3.06835E+01 2.75454E+01-4.71760E+00
 -1      3062-3.12159E+01 2.83063E+01 4.80589E+00
 -1      3063 3.18186E-01 6.40714E-04 3.89542E+01
 -1      3064 4.42120E+00 1.42144E-04 3.57291E+01
 -1      3065-3.78597E+00-4.59938E-03 4.21770E+01
 -1      3066 5.98084E+01-9.27067E+00 4.77157E+01
 -1      3067 6.28890E+01-4.47191E+00 5.24517E+01
 -1      3068 5.78363E+01-1.18987E+01 5.24429E+01
 -1      3069-2.83417E+01 4.79995E+01-4.57261E+00
 -1      3070-2.64336E+01 4.29821E+01-4.57416E+00
 -1      3071-2.05882E+01 5.02006E+01-4.79813E+00
 -1      3072-1.86862E+01 4.52034E+01-4.80414E+00
 -1      3073-2.33938E+01 5.02848E+01 1.40559E-01
 -1      3074 2.70091E+01-1.17913E+01 1.33162E+01
 -1      3075 2.61749E+01-7.23138E+00 5.22154E+00
 -1      3076 4.97229E+01 6.06739E+00 5.17879E+01
 -1      3077 5.33197E+01 5.46596E+00 5.71637E+01
 -1      3078 5.86160E+01 7.68937E+00 5.24152E+01
 -1      3079-1.17586E+01-1.42478E-03 3.76992E+01
 -1      3080-1.09829E+01 8.24661E-04 3.26511E+01
 -1      3081 8.29914E+01-8.55094E+00 5.95412E+01
 -1      3082 7.82213E+01-6.15199E+00 5.23806E+01
 -1      3083 8.37176E+01-4.19659E+00 5.09030E+01
 -1      3084-1.53221E+01 3.18745E+01 1.13746E-04
 -1      3085-3.59492E-01 3.29552E+01 4.88029E+00
 -1      3086-1.70631E+00 2.50990E+01 4.50592E+00
 -1      3087-2.82092E-01 2.73183E+01-1.37924E-01
 -1      3088-1.37720E-01 3.75202E+01 4.87998E+00
 -1      3089-3.08336E+00 4.55839E+01 4.89936E+00
 -1      3090 2.54001E+01 3.14682E+01 4.64633E+00
 -1      3091 2.13498E+01 3.04995E+01-4.87677E+00
 -1      3092 1.90433E+01 2.85649E+01-1.32067E-01
 -1      3093-2.38143E+01 4.65155E+01 4.94329E+00
 -1      3094-1.91126E+01 4.14464E+01-7.59964E-04
 -1      3095-1.60594E+01 4.87382E+01 4.71969E+00
 -1      3096 8.80566E+00-3.96522E+00 3.17880E+01
 -1      3097 6.26255E+01-2.66682E+00 4.76621E+01
 -1      3098 6.24415E+01-1.15094E+01 4.76988E+01
 -1      3099 1.86059E+01-3.33305E+01-4.80587E+00
 -1      3100 1.86924E+01-2.80409E+01-4.71488E+00
 -1      3101 2.78952E+01-2.95646E+01-4.92025E+00
 -1      3102-4.64964E-01 3.95661E+01-4.64364E+00
 -1      3103-3.41133E+00 4.76293E+01-4.62404E+00
 -1      3104 2.60380E+01 3.26104E+01-4.87595E+00
 -1      3105 3.00660E+01 3.48252E+01 4.64637E+00
 -1      3106 3.05143E+01 3.51230E+01-4.87578E+00
 -1      3107 7.60021E+01 2.00762E+01 6.43255E+01
 -1      3108 7.55131E+01 1.38125E+01 5.95676E+01
 -1      3109 6.74620E+01 1.01929E+00 5.23673E+01
 -1      3110 6.69835E+01-6.04728E+00 4.75656E+01
 -1      3111 6.71701E+01-7.88780E+00 5.24135E+01
 -1      3112 6.26486E+01-2.66433E+00 5.71470E+01
 -1      3113 6.70013E+01-6.04673E+00 5.71842E+01
 -1      3114 6.24530E+01-1.15070E+01 5.72035E+01
 -1      3115 2.70083E+01 1.17916E+01 1.33164E+01
 -1      3116 3.09003E+01 7.82223E+00 1.55101E+01
 -1      3117 2.61190E+01 3.96862E+00 1.17173E+01
 -1      3118 2.63523E+01 6.74196E+00 5.36767E+00
 -1      3119 3.02452E+01 2.77311E+00 7.55707E+00
 -1      3120 3.11348E+01 1.05965E+01 9.15657E+00
 -1      3121 3.65318E+01 1.01966E+01 1.27973E+01
 -1      3122 3.56429E+01 2.37314E+00 1.11991E+01
 -1      3123 3.58756E+01 5.14694E+00 4.84556E+00
 -1      3124 2.70084E+01 1.61575E+01 1.33145E+01
 -1      3125 2.62258E+01 1.27215E+01 5.40518E+00
 -1      3126 3.10078E+01 1.65758E+01 9.19226E+00
 -1      3127 2.62257E+01 1.70878E+01 5.40422E+00
 -1      3128 3.09010E+01-7.82146E+00 1.55097E+01
 -1      3129 2.61188E+01-3.96850E+00 1.17172E+01
 -1      3130 3.00678E+01-3.26233E+00 7.41069E+00
 -1      3131 2.84374E+01 5.05274E+01-4.71616E+00
 -1      3132 2.27146E+01 4.84398E+01-4.91687E+00
 -1      3133-2.03674E+01-5.91792E+01-4.98109E+00
 -1      3134-2.03152E+01-5.95456E+01 4.53437E+00
 -1      3135-2.35371E+01 2.84342E+01 4.80576E+00
 -1      3136-2.77333E+01 2.59390E+01 4.80587E+00
 -1      3137 5.55026E+01 2.88289E+00 4.77375E+01
 -1      3138 3.65323E+01-1.01235E+01 1.27651E+01
 -1      3139 3.56430E+01-2.30060E+00 1.11673E+01
 -1      3140 3.56983E+01-5.56387E+00 4.66767E+00
 -1      3141-2.97282E+01 5.58265E+01-9.55381E-01
 -1      3142-2.98524E+01 5.18866E+01-4.55140E+00
 -1      3143-2.82512E+01 5.95603E+01-5.89622E+00
 -1      3144-2.18417E+01 5.80029E+01-1.17417E+00
 -1      3145-2.20630E+01 5.40565E+01-4.80062E+00
 -1      3146 9.10918E+01 2.00792E-01 5.95888E+01
 -1      3147 9.08296E+01-5.53100E+00 5.24889E+01
 -1      3148 8.49835E+01-4.18388E+00 5.95336E+01
 -1      3149 8.39881E+01 1.52924E+00 5.80062E+01
 -1      3150 8.98343E+01 1.95853E-01 5.09672E+01
 -1      3151 7.78758E+01-2.43867E+01 4.57410E+01
 -1      3152 8.18558E+01-2.11417E+01 4.33014E+01
 -1      3153 7.99954E+01-2.01284E+01 4.04774E+01
 -1      3154 7.47964E+01-1.87270E+01 4.76863E+01
 -1      3155 7.88156E+01-1.53282E+01 4.53302E+01
 -1      3156 7.66971E+01-1.96679E+01 5.06352E+01
 -1      3157 5.98277E+01-9.26363E+00 5.71876E+01
 -1      3158 5.50829E+01-7.77303E+00 5.72440E+01
 -1      3159 8.43508E+01-1.32719E+01 4.52630E+01
 -1      3160 8.22196E+01-1.76613E+01 5.05386E+01
 -1      3161 8.80494E+01-1.50241E+01 4.24718E+01
 -1      3162 8.59185E+01-1.94365E+01 4.77325E+01
 -1      3163 8.84339E+01-1.16963E+01 4.96258E+01
 -1      3164-7.76994E+00-1.64145E-03 3.99358E+01
 -1      3165 9.38690E+01 2.07146E+01 6.37680E+01
 -1      3166 9.63578E+01 1.76430E+01 6.37240E+01
 -1      3167 9.27031E+01 1.17676E+01 5.95292E+01
 -1      3168 9.24625E+01 1.73450E+01 5.66296E+01
 -1      3169 9.01919E+01 1.47859E+01 5.95392E+01
 -1      3170-1.09983E+00 3.50592E+01-4.64357E+00
 -1      3171 9.14696E+01 7.58898E+00 5.95245E+01
 -1      3172 9.63442E+01 6.23394E+00 5.74164E+01
 -1      3173 9.75672E+01 1.04288E+01 5.74227E+01
 -1      3174 9.36017E+01 1.01113E+01 5.03202E+01
 -1      3175 4.09422E+00 4.21753E+01-4.71584E+00
 -1      3176 9.41286E+00 5.86744E+01 4.90745E+00
 -1      3177 8.48174E+01-2.11202E+01 4.04322E+01
 -1      3178 8.89427E+01-1.94807E+01 4.48471E+01
 -1      3179 1.70388E+01 3.88662E+01-4.71552E+00
 -1      3180 2.32559E+01 3.62003E+01-2.44800E-04
 -1      3181 2.10603E+01 4.19713E+01 4.60239E+00
 -1      3182 1.48467E+01 4.46405E+01-1.12390E-01
 -1      3183-2.37121E+01 3.81600E+01 5.85349E-04
 -1      3184 4.24977E-01 3.72665E-04 2.71185E+01
 -1      3185-4.88783E+00 4.00612E-05 2.73622E+01
 -1      3186 5.62435E+00 3.77846E+01 1.64316E-01
 -1      3187 1.09795E+01 1.81350E+01-4.82823E+00
 -1      3188 1.38566E+01 2.35907E+01-8.31991E-02
 -1      3189 7.01739E+00 2.37869E+01-4.77933E+00
 -1      3190 1.25595E+00 1.88967E+01-5.01845E+00
 -1      3191 4.13276E+00 2.43517E+01-2.73277E-01
 -1      3192 8.09476E+00 1.86995E+01-3.22124E-01
 -1      3193 6.94698E+01 6.12235E-01 4.52110E+01
 -1      3194 7.20858E+01 3.47582E+00 4.52176E+01
 -1      3195 7.10509E+01 7.37856E+00 4.52237E+01
 -1      3196 7.36424E+01 1.02225E+01 4.52317E+01
 -1      3197 7.38470E+01-1.20075E+00 4.52332E+01
 -1      3198 4.41850E+00 5.86737E+01 4.78772E+00
 -1      3199 2.55681E+01 2.29485E+01 2.18654E+01
 -1      3200 2.55599E+01 2.10407E+01 2.43285E+01
 -1      3201 2.69989E+01 1.61563E+01 2.20595E+01
 -1      3202 3.03503E+01 2.05221E+01 1.93732E+01
 -1      3203 2.70036E+01 1.80702E+01 1.96011E+01
 -1      3204 7.91867E+01-1.19507E+01 5.25110E+01
 -1      3205 8.26020E+00 2.26906E+01 4.74503E+00
 -1      3206 2.49879E+00 1.78004E+01 4.50613E+00
 -1      3207-2.04796E+01-4.60783E+01-5.77473E-04
 -1      3208-1.82491E+01-4.99325E+01-1.81920E-04
 -1      3209-1.47522E+01-4.29244E+01 4.80723E+00
 -1      3210-1.87282E+01-4.40099E+01-4.71480E+00
 -1      3211-1.61858E+01 4.99168E+01-4.80169E+00
 -1      3212 2.42683E+00 1.40301E-04 3.14203E+01
 -1      3213 8.72618E+01 1.85066E+01 4.76554E+01
 -1      3214 8.38056E+01 1.84256E+01 5.12136E+01
 -1      3215 8.72694E+01 1.84692E+01 5.24116E+01
 -1      3216-1.02057E+01 1.96367E-03 2.76047E+01
 -1      3217-1.49168E+01 1.21991E-03 3.02253E+01
 -1      3218-1.56915E+01-3.80234E-03 3.52752E+01
 -1      3219 6.51694E+01 4.08796E+00 4.51796E+01
 -1      3220 6.90795E+01 7.74642E+00 5.23984E+01
 -1      3221 8.48090E+01 9.92536E+00 5.95368E+01
 -1      3222 8.57383E+01 6.49074E+00 5.09029E+01
 -1      3223-1.98666E+01 3.54255E+01 1.86780E-04
 -1      3224 1.24337E+01 3.98731E+01 4.80756E+00
 -1      3225 1.70935E+01 4.41174E+01 4.60263E+00
 -1      3226-2.40121E+01 5.94596E+01-5.89693E+00
 -1      3227-1.78337E+01 5.39592E+01-4.79838E+00
 -1      3228 2.44807E+01-3.78774E+01 5.00862E+00
 -1      3229 1.90040E+01-3.84704E+01 2.03553E-01
 -1      3230 2.82899E+01-3.47073E+01 8.88291E-02
 -1      3231-9.32618E+00 8.79338E-04 1.83354E+01
 -1      3232-7.12004E+00 2.89927E-04 2.30865E+01
 -1      3233-1.24115E+01 2.18593E-04 2.28544E+01
 -1      3234-1.46174E+01-1.82197E-04 1.81020E+01
 -1      3235-3.67804E+01 3.16936E+01-4.63542E+00
 -1      3236 3.03505E+01 1.15261E+01 1.24384E+00
 -1      3237-6.78526E+00 1.80908E-04 1.40490E+01
 -1      3238-1.20768E+01-8.07870E-04 1.38161E+01
 -1      3239-1.96332E+01-3.41061E-03 3.28533E+01
 -1      3240-9.53580E+00-1.47167E-03 9.52968E+00
 -1      3241 9.31201E+00-1.49631E-04 1.41385E+01
 -1      3242 4.01879E+00 4.75241E-04 1.41403E+01
 -1      3243 6.34610E+00 3.70079E-04 9.52180E+00
 -1      3244 1.16391E+01 3.95893E-04 9.52159E+00
 -1      3245-2.63172E+00 4.93620E+01 4.89928E+00
 -1      3246 7.09620E+01 7.52584E+00 5.95658E+01
 -1      3247 6.93801E+01 7.58694E-01 5.95191E+01
 -1      3248 6.50810E+01 4.23460E+00 5.96108E+01
 -1      3249 8.70037E+01 6.48745E+00 5.95291E+01
 -1      3250 9.28693E+01 5.16623E+00 5.24824E+01
 -1      3251 8.48363E+01 2.10815E+01 6.43441E+01
 -1      3252 8.72466E+01 1.84832E+01 5.71909E+01
 -1      3253 3.70573E+01 4.24773E+01-4.54192E+00
 -1      3254 3.66137E+01 4.21803E+01 4.97621E+00
 -1      3255 3.47325E+01 3.52337E+01 1.04147E-01
 -1      3256-1.86582E+01 2.63634E+01 4.59464E+00
 -1      3257 1.39239E+01-2.99383E+01-4.71493E+00
 -1      3258 1.38376E+01-3.52274E+01-4.80554E+00
 -1      3259-2.54053E+01 3.09154E+01-4.71716E+00
 -1      3260-2.80916E+00 5.25846E+01-4.62396E+00
 -1      3261-5.02855E+00-5.71664E+01-2.37363E-01
 -1      3262-4.96341E+00-5.28468E+01 4.58474E+00
 -1      3263-4.96533E+00-5.33434E+01-4.93884E+00
 -1      3264 7.54101E+01 5.53702E+00 4.52492E+01
 -1      3265 7.23429E+01 3.42472E+00 5.95081E+01
 -1      3266 7.38974E+01 1.01732E+01 5.95575E+01
 -1      3267-4.24085E+00-1.25063E-05 9.52583E+00
 -1      3268 1.75494E+01-2.12362E+01-4.32272E+00
 -1      3269 1.48303E+01-2.17940E+01 4.86274E-01
 -1      3270 1.45617E+01-2.50925E+01-4.71504E+00
 -1      3271 2.37650E+01-2.66154E+01-4.92051E+00
 -1      3272 2.40337E+01-2.33170E+01 2.81118E-01
 -1      3273 8.27891E+01-9.15931E+00 4.52722E+01
 -1      3274 7.62935E+01-5.41581E+00 4.52201E+01
 -1      3275 7.72380E+01-1.12231E+01 4.53417E+01
 -1      3276 7.26939E+01-8.19392E+00 5.24714E+01
 -1      3277 8.17884E+01-3.44341E+00 4.37541E+01
 -1      3278 1.21886E+01 2.96830E+01 4.74470E+00
 -1      3279 2.13359E+01 2.90040E+01 4.64679E+00
 -1      3280 8.14810E+01 2.06447E+01 4.39869E+01
 -1      3281 8.64267E+01 1.35672E+01 4.52687E+01
 -1      3282 7.68827E+01 1.82027E+01 5.11964E+01
 -1      3283 7.94753E+01 1.33648E+01 4.52352E+01
 -1      3284 2.59365E+01-3.55708E+01-4.51345E+00
 -1      3285-4.03602E+00 6.61009E-04 1.85674E+01
 -1      3286 7.59977E+01-2.00763E+01 4.04605E+01
 -1      3287 7.48954E+01-1.53053E+01 4.53190E+01
 -1      3288-1.80392E+00-1.84548E-04 2.28442E+01
 -1      3289-3.93697E-01 5.86839E+01-4.73546E+00
 -1      3290 1.05261E+00 1.70058E-04 9.52373E+00
 -1      3291-2.01279E+01 2.97345E+01 4.34477E-04
 -1      3292-2.07894E+01 2.31535E+01-4.92934E+00
 -1      3293 3.70048E+00 1.10658E-03 2.29354E+01
 -1      3294 6.97999E+00 5.15882E-04 1.87549E+01
 -1      3295 1.96028E+01 2.87305E+00-3.89606E+00
 -1      3296 1.95800E+01 3.96880E+00 5.62850E+00
 -1      3297 2.22492E+01 6.84199E+00 1.56060E-03
 -1      3298 2.00445E+01 1.18416E+01-4.82785E+00
 -1      3299 2.00218E+01 1.29377E+01 4.69652E+00
 -1      3300 1.73761E+01 8.96855E+00 8.00056E-01
 -1      3301 1.47827E+01-3.96903E+00 1.46892E+01
 -1      3302 1.24540E+01 3.96885E+00 1.93042E+01
 -1      3303 1.47836E+01 3.96910E+00 1.46894E+01
 -1      3304-1.73754E+01-2.08130E-05 1.38222E+01
 -1      3305-1.48331E+01-6.35065E-04 9.53404E+00
 -1      3306 7.74582E+01 2.43680E+01 4.64221E+01
 -1      3307 8.00387E+01 1.96414E+01 4.04784E+01
 -1      3308 7.54030E+01 1.72643E+01 4.75763E+01
 -1      3309-3.88683E+00-4.86549E+01 4.58439E+00
 -1      3310-1.04244E+01-4.36722E+01 4.80725E+00
 -1      3311-6.48234E+00-4.58511E+01-1.31434E-01
 -1      3312-1.49096E+00 2.19035E-04 1.40451E+01
 -1      3313 1.23330E+01 3.52594E+01 4.80782E+00
 -1      3314-3.68364E+01 4.23098E+01-4.50331E+00
 -1      3315 1.62814E+01-3.96875E+00 8.81546E+00
 -1      3316 1.42873E+01-3.96868E+00 5.62744E+00
 -1      3317 1.74318E+01 1.98172E-05 1.07948E+01
 -1      3318 1.67743E+01-3.96843E+00 1.78773E+01
 -1      3319 1.42874E+01 3.96885E+00 5.62743E+00
 -1      3320 1.62817E+01 3.96879E+00 8.81547E+00
 -1      3321 1.67750E+01 3.96891E+00 1.78775E+01
 -1      3322 1.47256E+00-4.20497E-06 1.86615E+01
 -1      3323 9.58100E+01 1.52139E+01 5.49721E+01
 -1      3324 9.33414E+01 1.69286E+01 5.29131E+01
 -1      3325 2.63741E+01 5.64639E+00-4.15998E+00
 -1      3326 2.41481E+01 1.17419E+01 5.36976E-01
 -1      3327 8.07786E-01-2.53085E+01 5.12865E+00
 -1      3328-2.17692E+00-1.95788E+01 2.96943E-01
 -1      3329-3.31615E+00-1.73858E+01 4.69292E+00
 -1      3330 3.00914E+00-1.67259E+01 4.82949E+00
 -1      3331 2.39375E-02-1.09960E+01-2.15722E-03
 -1      3332 4.14859E+00-1.89190E+01 4.33542E-01
 -1      3333-2.42008E+01 2.18569E+01-1.23094E-01
 -1      3334-2.56685E+01 2.52240E+01-4.71754E+00
 -1      3335 1.95799E+01-3.96868E+00 5.62841E+00
 -1      3336 2.00757E+01-3.96822E+00 1.46926E+01
 -1      3337 2.00761E+01 3.96841E+00 1.46927E+01
 -1      3338 8.42750E+00 1.48092E-03 4.28240E+01
 -1      3339 1.31696E+01-2.78990E+01 4.80874E+00
 -1      3340 1.30824E+01-3.31876E+01 4.71784E+00
 -1      3341 6.17959E+01 2.26677E+00 4.76342E+01
 -1      3342 1.70346E+01-2.55269E+01 4.80883E+00
 -1      3343 2.62376E+01-2.70501E+01 4.60347E+00
 -1      3344 9.55618E+01 1.30238E+00 5.95817E+01
 -1      3345 9.77390E+01 3.80321E+00 5.03775E+01
 -1      3346 7.93413E+01 7.64146E-01 4.37514E+01
 -1      3347-2.41501E+01 1.01583E-02 1.86447E+01
 -1      3348 8.79780E+01 2.07265E+01 6.17522E+01
 -1      3349 9.17833E+01 2.14192E+01 6.17545E+01
 -1      3350 9.03597E+01 1.80667E+01 5.46113E+01
 -1      3351 1.24526E+01-3.96890E+00 1.93035E+01
 -1      3352-2.58757E+01 3.53048E+00 3.35025E+01
 -1      3353-2.58683E+01-4.35849E+00 3.35097E+01
 -1      3354-2.22643E+01-4.39385E+00 3.61892E+01
 -1      3355-2.10713E+00 8.66550E+00 2.45451E-01
 -1      3356-4.75230E+00 1.07147E+01 4.82216E+00
 -1      3357 3.70250E+00 5.88849E+00 4.94758E+00
 -1      3358 2.35991E+00 1.16501E+01-7.06032E-02
 -1      3359-2.85810E-01 1.36992E+01 4.50621E+00
 -1      3360-6.09551E+00 1.64769E+01-1.96553E-01
 -1      3361-2.91207E+01 5.08947E-03 2.41243E+01
 -1      3362-3.76083E+00 1.08855E+01-4.70261E+00
 -1      3363 4.69452E+00 6.05910E+00-4.57684E+00
 -1      3364 7.05569E-01 1.38698E+01-5.01836E+00
 -1      3365 2.70060E+01 1.17924E+01 1.76884E+01
 -1      3366 2.70075E+01 1.43576E+01 1.58830E+01
 -1      3367 2.70076E+01-1.17921E+01 1.76881E+01
 -1      3368 2.70086E+01-1.43572E+01 1.58830E+01
 -1      3369 7.23320E+01-5.82760E+00 4.52043E+01
 -1      3370 7.32794E+01-1.16630E+01 4.53171E+01
 -1      3371 9.97188E+01 1.55411E+01 6.21427E+01
 -1      3372 1.00718E+02 1.38636E+01 5.28784E+01
 -1      3373-1.59168E+00 3.96862E+00 5.66757E+00
 -1      3374-6.88472E+00 3.96799E+00 5.66897E+00
 -1      3375-6.88428E+00-3.96829E+00 5.66817E+00
 -1      3376-2.23260E+01-3.90473E+01-1.84320E-02
 -1      3377-1.91509E+01-3.85684E+01-4.71508E+00
 -1      3378-2.84518E+01-3.67420E+01-4.82528E+00
 -1      3379-2.60000E+01-3.22024E+01-2.44868E-01
 -1      3380-2.28303E+01-3.17287E+01-4.94241E+00
 -1      3381-1.66987E+01-3.40319E+01-1.35027E-01
 -1      3382 9.45430E+01-7.29852E+00 4.96946E+01
 -1      3383 8.74276E+01-5.96016E+00 4.81082E+01
 -1      3384 2.35289E+01-3.26271E+00 1.32314E+00
 -1      3385 1.73761E+01-8.96842E+00 1.30531E+00
 -1      3386 2.00217E+01-1.29374E+01 5.20205E+00
 -1      3387 2.39706E+01-1.22314E+01 8.96115E-01
 -1      3388 8.03391E+01-1.67260E+01 5.72054E+01
 -1      3389 8.15207E+01-1.76637E+01 5.34908E+01
 -1      3390 7.71960E+01-2.43722E+01 5.82437E+01
 -1      3391 7.47923E+01-1.87345E+01 5.73127E+01
 -1      3392 7.59944E+01-1.96779E+01 5.35798E+01
 -1      3393 3.67755E+01 3.11123E+01-4.68202E+00
 -1      3394 3.70565E+01 3.67040E+01-4.68220E+00
 -1      3395 3.02325E+01 2.95318E+01-4.87617E+00
 -1      3396 3.47302E+01 2.94668E+01-3.62424E-02
 -1      3397-2.01335E+01 1.33007E-03 9.54307E+00
 -1      3398 3.79122E+01-2.26120E+01 3.54376E+01
 -1      3399 3.93140E+01-2.25894E+01 3.17133E+01
 -1      3400 3.40737E+01-2.01126E+01 2.88770E+01
 -1      3401 3.67848E+01-1.73460E+01 2.95876E+01
 -1      3402 3.25488E+01-2.01179E+01 3.26319E+01
 -1      3403-3.33353E+01 5.31240E+01-4.55143E+00
 -1      3404-3.33519E+01 5.59873E+01 1.89672E-01
 -1      3405-1.62275E+00 2.99336E+01-4.64377E+00
 -1      3406-1.27135E+01 3.96720E+00 5.82006E+00
 -1      3407-1.80072E+01 3.96638E+00 5.82315E+00
 -1      3408-1.27141E+01-3.96718E+00 5.82137E+00
 -1      3409 2.11704E+01-3.74673E+01-4.51366E+00
 -1      3410 8.85675E+01-8.52525E+00 5.95285E+01
 -1      3411 9.46748E+01-4.13922E+00 5.95867E+01
 -1      3412 8.30659E+00 8.52776E-04 3.78584E+01
 -1      3413 6.59266E+01-1.24052E+00 4.75764E+01
 -1      3414-8.20413E+00-3.13077E+00 4.46945E+01
 -1      3415-1.21944E+01 4.80799E+00 4.24511E+01
 -1      3416-1.22050E+01-3.13263E+00 4.24584E+01
 -1      3417 6.59457E+01-1.24077E+00 5.71728E+01
 -1      3418-1.93527E+01-3.96381E+01 4.80748E+00
 -1      3419-2.86516E+01-3.78130E+01 4.69709E+00
 -1      3420-2.30292E+01-3.27966E+01 4.58059E+00
 -1      3421 8.48698E+01 2.06233E+01 4.04318E+01
 -1      3422 3.96501E+01-1.22294E+01 3.80925E+01
 -1      3423 3.35865E+01-7.15281E+00 3.72007E+01
 -1      3424 3.68477E+01-5.08348E+00 3.33715E+01
 -1      3425 3.71371E+01-1.24944E+01 3.05266E+01
 -1      3426 3.11867E+01-7.42046E+00 2.95271E+01
 -1      3427 3.39492E+01-1.45614E+01 3.43692E+01
 -1      3428 1.05527E+00 1.91967E+00 1.09004E+00
 -1      3429-5.98141E-01 4.13937E+00-3.85770E+00
 -1      3430-7.40030E+00 6.74543E+00 9.65401E-01
 -1      3431 3.63877E+01-3.99492E+00 4.95611E+01
 -1      3432 4.09594E+01 6.04551E-01 4.75092E+01
 -1      3433 4.10131E+01-3.40425E+00 5.31626E+01
 -1      3434 4.04193E+01-1.19532E+01 5.17506E+01
 -1      3435 4.49600E+01-7.41694E+00 4.97289E+01
 -1      3436 4.03670E+01-8.00670E+00 4.61093E+01
 -1      3437-1.93783E+01 4.89515E-04 1.83719E+01
 -1      3438-1.59113E+00-3.96862E+00 5.66709E+00
 -1      3439 2.37065E+01 2.77331E+00 1.46932E+00
 -1      3440 9.55567E+01-2.43159E+00 4.53545E+01
 -1      3441 8.84340E+01-1.09885E+00 4.37590E+01
 -1      3442 9.31233E+01-8.57673E+00 4.24827E+01
 -1      3443 2.57627E+00 3.91318E+00 4.92496E+01
 -1      3444 2.57546E+00-4.03190E+00 4.92516E+01
 -1      3445-1.66283E+00-4.02639E+00 4.75063E+01
 -1      3446 8.39779E+01-4.63493E-03 4.37590E+01
 -1      3447 8.49812E+01-5.71672E+00 4.52830E+01
 -1      3448 8.86728E+01-7.47287E+00 4.24795E+01
 -1      3449-3.33188E+00-1.70609E+01-4.83168E+00
 -1      3450 7.92140E-01-2.49838E+01-4.39591E+00
 -1      3451 2.99345E+00-1.64011E+01-4.69508E+00
 -1      3452-1.49420E+01 1.66392E+01-1.07633E-01
 -1      3453-1.21319E+01 1.69939E+01-4.70257E+00
 -1      3454-8.19934E+00 4.80566E+00 4.46917E+01
 -1      3455 2.08942E+01 4.67987E+01 4.60017E+00
 -1      3456-2.59562E+01-5.57677E+01-7.66703E-02
 -1      3457-2.55194E+01-5.14541E+01-4.60569E+00
 -1      3458-2.54684E+01-5.18249E+01 4.90448E+00
 -1      3459-1.01747E+01 1.96983E+01 4.82171E+00
 -1      3460 6.85299E+01 1.04165E+01 4.75730E+01
 -1      3461 6.46308E+01 6.66296E+00 4.04621E+01
 -1      3462 6.27091E+01 7.10483E+00 4.76352E+01
 -1      3463 7.74467E+01-1.06150E+01 5.96434E+01
 -1      3464-2.53849E+01 5.17953E+01 4.93642E+00
 -1      3465-3.02381E+01 5.25526E+01 4.92519E+00
 -1      3466-1.76137E+01 5.40107E+01 4.71287E+00
 -1      3467-2.24505E+01 5.47378E+01 4.70989E+00
 -1      3468-2.97801E+01 4.24715E+00 2.97744E+01
 -1      3469-2.97786E+01-3.71413E+00 2.97744E+01
 -1      3470 1.47297E+01 1.29374E+01 4.69643E+00
 -1      3471 8.99505E+00 5.88870E+00 4.94747E+00
 -1      3472 1.16413E+01 1.91977E+00 1.05046E+00
 -1      3473 2.58546E+01-5.47107E+00-4.30601E+00
 -1      3474 1.92608E+01-2.20826E+00-3.89613E+00
 -1      3475 1.97026E+01-1.11768E+01-4.32249E+00
 -1      3476 3.57492E+01 1.53102E+01 4.24199E+00
 -1      3477 3.65322E+01 1.43802E+01 1.21554E+01
 -1      3478 3.58756E+01 9.33057E+00 4.20566E+00
 -1      3479 1.62660E+01 6.96107E+00 5.62795E+00
 -1      3480 1.67081E+01 1.59300E+01 4.69636E+00
 -1      3481 6.73059E+01 9.60129E+00 4.04958E+01
 -1      3482-2.49924E+01 6.02330E+01 5.02134E+00
 -1      3483-2.60362E+01 5.57959E+01 4.46675E-01
 -1      3484-1.82002E+01 5.79982E+01 2.26945E-01
 -1      3485 2.00222E+01-2.16701E+01 5.20183E+00
 -1      3486 1.60610E+01 2.73232E+01 4.74482E+00
 -1      3487 2.52074E+01 2.66432E+01 4.64711E+00
 -1      3488 8.67392E+01-9.99775E+00 4.52836E+01
 -1      3489 9.04263E+01-1.17525E+01 4.24780E+01
 -1      3490 8.00334E+01-1.96308E+01 6.43122E+01
 -1      3491 8.11926E+01-2.06464E+01 6.06652E+01
 -1      3492 8.44117E+01-1.27817E+01 5.95555E+01
 -1      3493 1.50762E+01 6.03048E+00-3.89657E+00
 -1      3494 3.65327E+01-1.44012E+01 1.21434E+01
 -1      3495 3.56981E+01-9.84132E+00 4.04817E+00
 -1      3496-1.80077E+01-3.96614E+00 5.82418E+00
 -1      3497 2.69882E+01-2.10343E+01 9.52754E+00
 -1      3498 3.17710E+01-2.05222E+01 1.33162E+01
 -1      3499 3.06322E+01-2.18412E+01 5.11536E+00
 -1      3500 1.64510E+01 2.81313E+01-4.77901E+00
 -1      3501 2.04118E+01 2.24780E+01-4.82795E+00
 -1      3502 2.55970E+01 2.74513E+01-4.87666E+00
 -1      3503 2.30035E+01 2.29104E+01-1.80628E-01
 -1      3504 3.53943E+01-1.57188E+01 3.94293E+00
 -1      3505 5.33139E+01 1.81479E+01 5.35892E+01
 -1      3506 5.55357E+01 1.30730E+01 4.76865E+01
 -1      3507 5.49228E+01 2.03175E+01 4.88468E+01
 -1      3508 5.78920E+01 2.08175E+01 5.37073E+01
 -1      3509 6.00430E+01 1.57462E+01 4.78271E+01
 -1      3510 5.84961E+01 1.35530E+01 5.25396E+01
 -1      3511 7.20964E+01-5.87644E+00 5.95270E+01
 -1      3512 7.30408E+01-1.17117E+01 5.96750E+01
 -1      3513 6.45345E+01 6.80808E+00 6.43266E+01
 -1      3514 6.85413E+01 1.04161E+01 5.72303E+01
 -1      3515 6.27322E+01 7.10604E+00 5.71822E+01
 -1      3516-1.66802E+00 3.90741E+00 4.75148E+01
 -1      3517 3.70139E+00-2.04933E+00 4.94686E+00
 -1      3518 8.99406E+00-2.04942E+00 4.94624E+00
 -1      3519 8.87613E+01 1.07615E+01 5.95229E+01
 -1      3520 8.52516E+01-1.76741E+01 5.24193E+01
 -1      3521 8.89405E+01-1.94712E+01 4.96269E+01
 -1      3522 7.75828E+01 5.44406E+00 4.37474E+01
 -1      3523 1.62660E+01-6.96097E+00 5.62802E+00
 -1      3524 1.67081E+01-1.59298E+01 5.20175E+00
 -1      3525 2.93025E+01 3.06323E+01 4.64621E+00
 -1      3526 5.40580E+01 2.03128E+01 4.53627E+01
 -1      3527 5.24331E+01 1.81383E+01 5.00738E+01
 -1      3528-2.83406E+01 4.87808E+01 4.93903E+00
 -1      3529 2.70577E+01 7.13916E+00 2.45902E+01
 -1      3530 3.19134E+01-7.27111E-04 2.21849E+01
 -1      3531 2.70267E+01 7.91789E-01 2.46055E+01
 -1      3532 2.00598E+01 3.97126E+00 2.34306E+01
 -1      3533 2.49177E+01-3.16912E+00 2.10185E+01
 -1      3534 2.49191E+01 3.16916E+00 2.10183E+01
 -1      3535 2.22259E+01-4.56189E-05 9.52792E+00
 -1      3536 9.36734E+01-9.22185E+00 6.15017E+01
 -1      3537 9.59718E+01-6.24169E+00 5.44571E+01
 -1      3538 8.98547E+01-1.06420E+01 5.43932E+01
 -1      3539-2.98278E+01 6.15727E+01-5.89711E+00
 -1      3540-5.42262E+00-1.39551E+01 4.69292E+00
 -1      3541 9.02587E-01-1.32953E+01 4.82947E+00
 -1      3542-2.21369E+01 2.30008E-03 1.40909E+01
 -1      3543-1.93340E+01 2.19854E+01 4.59472E+00
 -1      3544-2.42126E+01 2.40551E+01 4.80603E+00
 -1      3545 1.62215E+01 1.95841E+01 4.69611E+00
 -1      3546 1.22598E+01 2.52363E+01 4.74490E+00
 -1      3547-1.48058E+01-4.03220E+00 4.10266E+01
 -1      3548-1.48019E+01 3.92917E+00 4.10243E+01
 -1      3549-1.87416E+01-4.00986E+00 3.85861E+01
 -1      3550-3.21484E+01 4.20110E+00 2.64326E+01
 -1      3551-2.00047E+01-2.62776E+00-3.70572E+00
 -1      3552-2.38126E+01-3.84968E-03 1.56803E+00
 -1      3553-2.79193E+01-2.63180E+00-4.25484E+00
 -1      3554-2.21159E+01-9.61699E+00-4.64813E+00
 -1      3555-2.59208E+01-6.99080E+00 6.21194E-01
 -1      3556-1.80055E+01-6.98691E+00 1.16993E+00
 -1      3557-2.02636E-01 5.91885E+01 4.78745E+00
 -1      3558-2.61829E+00 5.30893E+01 4.89941E+00
 -1      3559 4.28694E+00-2.18205E+01 5.12866E+00
 -1      3560 6.48809E+00-1.32381E+01 4.82951E+00
 -1      3561 3.60969E+01 4.78531E+01 2.53659E-01
 -1      3562 8.52421E+01-1.77035E+01 5.71936E+01
 -1      3563 8.48675E+01-2.06144E+01 6.43476E+01
 -1      3564 5.76585E+01-1.01053E+01 4.76661E+01
 -1      3565-3.24071E+01-6.05791E+01 4.74705E+00
 -1      3566-3.54109E+01-6.09748E+01 4.63074E+00
 -1      3567-3.04128E+01-5.28619E+01 4.87575E+00
 -1      3568-3.32942E+01-5.32328E+01 4.89368E+00
 -1      3569-3.32838E+01-5.59634E+01 1.53560E-01
 -1      3570 2.00225E+01 2.16706E+01 4.69628E+00
 -1      3571-5.30871E+00 2.09053E+00-3.85713E+00
 -1      3572-8.47121E+00 8.83649E+00-4.70219E+00
 -1      3573 9.31119E+00 6.94148E-04 4.67739E+01
 -1      3574 5.43998E+00-4.22338E+00 5.01944E+01
 -1      3575 5.44104E+00 3.71682E+00 5.01954E+01
 -1      3576 1.01008E+01 3.71490E+00 5.13092E+01
 -1      3577 7.88590E+01-1.48554E+01 5.96629E+01
 -1      3578-2.22815E+01 3.56578E+00 3.61939E+01
 -1      3579 3.09715E+01 3.17091E+00 1.80452E+01
 -1      3580 3.09713E+01-3.17052E+00 1.80448E+01
 -1      3581 2.39659E+01 1.95106E-05 1.68844E+01
 -1      3582 1.41423E+01-4.21571E+00-3.89664E+00
 -1      3583 1.45843E+01-1.31842E+01-4.32285E+00
 -1      3584 1.56898E+01 2.02525E+01-4.82799E+00
 -1      3585 1.17282E+01 2.59047E+01-4.77921E+00
 -1      3586 1.21954E+01 1.52320E-03 3.99881E+01
 -1      3587-2.38396E+01-5.95495E+01 5.85214E+00
 -1      3588-2.95599E+01-5.57941E+01 1.23620E+00
 -1      3589 9.03725E+01-1.84566E+01 5.91300E+01
 -1      3590 8.95208E+01-1.35075E+01 6.15043E+01
 -1      3591-7.98707E+00 1.39627E+01-4.70258E+00
 -1      3592-3.52075E+00 1.69471E+01-5.01836E+00
 -1      3593 8.85018E+00-9.38391E+00-4.69517E+00
 -1      3594 1.16415E+01-5.16822E+00 9.32464E-01
 -1      3595 1.20840E+01-1.41369E+01 5.06593E-01
 -1      3596 1.01241E+02-8.66140E+00 4.98109E+01
 -1      3597 1.00107E+02-4.44477E+00 4.53432E+01
 -1      3598 1.04319E+02-1.19401E+01 4.25650E+01
 -1      3599 9.88176E+01-1.48796E+01 4.69032E+01
 -1      3600 9.76410E+01-1.06148E+01 4.24735E+01
 -1      3601 1.24666E+01 4.38226E+01 4.80761E+00
 -1      3602 1.71286E+01 4.80671E+01 4.60191E+00
 -1      3603 1.41728E+01 5.13647E+01 4.60242E+00
 -1      3604 7.60052E+01 2.00784E+01 4.04622E+01
 -1      3605 7.55082E+01 1.38135E+01 4.52203E+01
 -1      3606 5.78874E+00-2.29884E+01-4.39587E+00
 -1      3607 6.89497E+00-2.65759E+01 4.13273E-01
 -1      3608 1.07360E+01-2.20623E+01-4.71540E+00
 -1      3609 7.98983E+00-1.44057E+01-4.69513E+00
 -1      3610 9.09589E+00-1.79928E+01 1.14097E-01
 -1      3611 6.75524E+01 9.54709E+00 6.42935E+01
 -1      3612 4.10123E+01 4.60913E+00 5.31726E+01
 -1      3613 4.09310E+01 7.77126E+00 4.65982E+01
 -1      3614 3.63630E+01 1.11003E+01 4.86554E+01
 -1      3615 4.04157E+01 1.19551E+01 5.17912E+01
 -1      3616 4.03844E+01 1.51322E+01 4.51478E+01
 -1      3617 4.49617E+01 8.59759E+00 4.97182E+01
 -1      3618 5.24498E+00 1.10857E+01-4.57678E+00
 -1      3619 1.26758E+01 3.96483E+00 3.39304E+01
 -1      3620 4.93129E+01 3.05311E+00 5.64988E+01
 -1      3621 4.67460E+01 1.86111E+00 5.63891E+01
 -1      3622-2.01594E+01 5.95058E+01 5.02384E+00
 -1      3623-1.19592E+01 5.03294E+01-4.80354E+00
 -1      3624-1.32302E+01 4.64753E+01-4.80395E+00
 -1      3625-6.56011E+00 4.97340E+01-4.62390E+00
 -1      3626-1.02309E+01 5.18967E+01 9.55493E-02
 -1      3627 3.58461E+01 3.79801E+01 4.98048E+00
 -1      3628 3.65277E+01 1.28881E+01 1.75809E+01
 -1      3629 3.56399E+01 5.06487E+00 1.59841E+01
 -1      3630 3.66028E+01 8.23632E+00 2.01177E+01
 -1      3631 3.18603E+01 1.09937E+01 1.96438E+01
 -1      3632-1.87490E+01 3.90747E+00 3.85904E+01
 -1      3633-3.29356E+01-5.02092E+01 4.89479E+00
 -1      3634 3.65299E+01-1.28840E+01 1.75753E+01
 -1      3635 3.56403E+01-5.06096E+00 1.59801E+01
 -1      3636 3.66033E+01-8.23007E+00 2.01125E+01
 -1      3637 3.18621E+01-1.09928E+01 1.96433E+01
 -1      3638 3.63764E+01 3.99515E+00 4.95782E+01
 -1      3639 3.63119E+01 7.16328E+00 4.29874E+01
 -1      3640-3.36308E+01 5.30660E+01 4.91629E+00
 -1      3641-3.30650E+01 5.02409E+01 4.92433E+00
 -1      3642-1.54620E+01-4.02579E+01-4.71517E+00
 -1      3643-1.91428E+01-3.34204E+01-4.94207E+00
 -1      3644-2.05870E+01 5.09860E+01 4.71451E+00
 -1      3645 1.47582E+01 5.61879E+01-1.23660E-02
 -1      3646 1.47486E+01 5.18700E+01-4.91955E+00
 -1      3647 2.65665E+01 1.09268E+01-4.16016E+00
 -1      3648 2.64399E+01 1.69068E+01-4.12234E+00
 -1      3649 2.02369E+01 1.71224E+01-4.82787E+00
 -1      3650 2.40214E+01 1.77223E+01 5.74347E-01
 -1      3651-2.78043E+01 6.36190E-03 1.97152E+01
 -1      3652-3.14528E+01-1.34714E-03 2.07987E+01
 -1      3653 2.61154E+01 3.96717E+00 1.60885E+01
 -1      3654 2.70765E+01 7.13836E+00 2.02195E+01
 -1      3655 2.61150E+01-3.96726E+00 1.60883E+01
 -1      3656 2.70764E+01-7.13767E+00 2.02191E+01
 -1      3657 8.25899E+00 2.75732E+01 4.74490E+00
 -1      3658 2.49719E+00 2.26829E+01 4.50605E+00
 -1      3659-2.87518E+01-6.05475E+01 5.85571E+00
 -1      3660-3.80799E+01-5.48543E+01 4.73400E+00
 -1      3661-3.85160E+01-5.79657E+01 4.71092E+00
 -1      3662-3.61223E+01-5.27096E+01 1.49260E-01
 -1      3663 1.50402E+01-5.21045E+01 4.73419E+00
 -1      3664 1.51089E+01-5.64235E+01-8.59616E-02
 -1      3665 1.00482E+01-5.91788E+01 4.70131E+00
 -1      3666 9.92704E+00-5.11128E+01 4.69896E+00
 -1      3667 9.99307E+00-5.54329E+01-1.22997E-01
 -1      3668 1.49830E+01-4.83603E+01-8.94445E-02
 -1      3669 2.13640E+01-1.95004E+01-4.32252E+00
 -1      3670 2.75788E+01-2.48794E+01-4.92042E+00
 -1      3671-3.51767E+01 2.80781E+01 1.70746E-01
 -1      3672 3.05536E+01-2.01155E+01 2.82746E+01
 -1      3673 9.43629E+01-1.27601E+01 4.24717E+01
 -1      3674-2.36621E+00-5.02664E+01-4.93905E+00
 -1      3675-1.34308E+00-4.66077E+01-4.93906E+00
 -1      3676-8.90412E+00-4.52829E+01-4.71552E+00
 -1      3677-7.87977E+00-4.16230E+01-4.71601E+00
 -1      3678 2.69883E+01 2.10343E+01 9.52746E+00
 -1      3679 3.17704E+01 2.05225E+01 1.33163E+01
 -1      3680 3.09872E+01 2.14538E+01 5.40343E+00
 -1      3681-2.03838E+01 5.94564E+01-4.49149E+00
 -1      3682-3.26136E+01 4.96652E+01-4.55717E+00
 -1      3683 8.98222E+01 1.82984E+01 4.75360E+01
 -1      3684 9.14478E+01 1.77730E+01 4.99806E+01
 -1      3685-2.59259E+01-3.96858E+00 5.27933E+00
 -1      3686-2.01129E+01-1.09573E+01 4.87502E+00
 -1      3687 3.63500E+01-1.11012E+01 4.86701E+01
 -1      3688 3.63255E+01-7.15869E+00 4.29736E+01
 -1      3689 4.03644E+01-1.51430E+01 4.51502E+01
 -1      3690-6.11940E+00-2.18465E+01-4.84310E+00
 -1      3691-4.96457E+00-2.43646E+01 2.85543E-01
 -1      3692-9.08847E+00-1.64412E+01-1.50181E-01
 -1      3693 4.46962E+01-9.18874E+00 5.39969E+01
 -1      3694 4.87094E+01-1.31927E+01 5.04203E+01
 -1      3695 1.50314E+01-5.22132E+01-4.78765E+00
 -1      3696 1.00383E+01-5.92884E+01-4.82107E+00
 -1      3697 9.91780E+00-5.12221E+01-4.82422E+00
 -1      3698 2.63524E+01-1.19533E+00 5.36867E+00
 -1      3699 4.26147E+01-4.79074E+00 4.24261E+01
 -1      3700 4.71905E+01-4.19181E+00 4.59488E+01
 -1      3701 4.66483E+01-1.27647E+01 4.44218E+01
 -1      3702 7.80576E+01 9.13428E+00 4.52565E+01
 -1      3703 8.50055E+01 9.32469E+00 4.52787E+01
 -1      3704 8.19880E+01 4.36129E+00 4.37551E+01
 -1      3705 8.77286E+01-2.02524E+01 6.42631E+01
 -1      3706 9.31776E+01-1.81325E+01 5.91009E+01
 -1      3707 5.87834E+01 2.03416E+01 4.67669E+01
 -1      3708 6.17728E+01 2.08145E+01 5.16563E+01
 -1      3709 3.49823E+01-1.98443E+01 4.02754E+01
 -1      3710 3.92161E+01-1.70462E+01 3.71689E+01
 -1      3711 3.14303E-01 4.12991E+01 4.87993E+00
 -1      3712 9.31479E+01 2.06292E+01 4.28154E+01
 -1      3713 9.15267E+01 2.10853E+01 4.03297E+01
 -1      3714 9.04247E+01 1.43464E+01 4.52778E+01
 -1      3715 1.06090E+02-9.06949E+00 4.11961E+01
 -1      3716 1.03066E+02-5.73431E+00 4.84674E+01
 -1      3717 6.94454E+01-3.04014E+00 5.95299E+01
 -1      3718-3.22127E+01-6.00026E+01-4.74193E+00
 -1      3719-3.58233E+01-6.09032E+01-4.62562E+00
 -1      3720-3.36772E+01-5.31474E+01-4.58410E+00
 -1      3721-3.01726E+01-5.22541E+01-4.58012E+00
 -1      3722 3.65121E+01-1.92785E+01 8.35482E+00
 -1      3723 5.08489E+00-5.71667E+01-2.37823E-01
 -1      3724 5.02302E+00-5.28467E+01 4.58419E+00
 -1      3725 4.96269E+00-4.90999E+01-2.40032E-01
 -1      3726 1.61501E+01 2.40309E+01 4.69601E+00
 -1      3727 9.23417E+00-2.08944E+01 4.80918E+00
 -1      3728-2.73471E+01-1.05251E+01-4.96345E+00
 -1      3729-3.11496E+01-7.89898E+00 3.06057E-01
 -1      3730-2.53467E+01-1.48866E+01-8.94080E-02
 -1      3731 2.00220E+01 1.73039E+01 4.69646E+00
 -1      3732 2.14393E+01-4.44761E+01-4.78721E+00
 -1      3733 2.32252E+01-4.50459E+01 2.21494E-01
 -1      3734 2.45589E+01-4.01508E+01-4.51238E+00
 -1      3735 1.72258E+01-3.79073E+01-4.80528E+00
 -1      3736 1.58800E+01-4.27917E+01-7.00214E-02
 -1      3737 3.58438E+01 3.22133E+01 4.84023E+00
 -1      3738 8.74778E+01 2.02882E+01 4.03698E+01
 -1      3739 4.76982E+01 2.06695E+01 4.79525E+01
 -1      3740 4.85912E+01 2.06692E+01 5.14889E+01
 -1      3741 4.91496E+01 1.34297E+01 5.03925E+01
 -1      3742 6.35775E+01 2.04642E+00 6.43395E+01
 -1      3743 6.36909E+01-1.88312E+00 6.43229E+01
 -1      3744-3.57160E+01 6.08057E+01 4.64433E+00
 -1      3745-3.87464E+01 5.77261E+01 4.71512E+00
 -1      3746-3.61903E+01 5.27270E+01 1.82593E-01
 -1      3747 3.95475E+01-5.09247E+00 3.91164E+01
 -1      3748 3.36039E+01-7.97739E-04 3.81394E+01
 -1      3749 3.96330E+01 1.22302E+01 3.81057E+01
 -1      3750 3.95383E+01 5.09543E+00 3.91103E+01
 -1      3751 3.68449E+01 5.08465E+00 3.33664E+01
 -1      3752 3.35855E+01 7.15390E+00 3.72033E+01
 -1      3753 2.70536E+01-7.13346E+00 2.45903E+01
 -1      3754 2.21504E+01 4.31827E-03 2.70239E+01
 -1      3755 2.00555E+01-3.97088E+00 2.34293E+01
 -1      3756 2.00694E+01-3.96854E+00 1.90603E+01
 -1      3757 2.00702E+01 3.96895E+00 1.90606E+01
 -1      3758-2.82809E+01-4.87693E+01 4.90289E+00
 -1      3759 1.84835E+01-1.64161E+01-4.32262E+00
 -1      3760-3.32341E+01 1.16439E+01 1.07089E+00
 -1      3761-2.87304E+01 1.04590E+01-4.74240E+00
 -1      3762-3.67715E+01 1.16734E+01-3.71110E+00
 -1      3763-3.51764E+01 1.83919E+01 1.09467E+00
 -1      3764-3.06734E+01 1.72059E+01-4.71776E+00
 -1      3765-2.71355E+01 1.71781E+01 6.29603E-02
 -1      3766 5.09534E+01 6.70728E+00 5.71046E+01
 -1      3767 5.35197E+01 7.89427E+00 5.72243E+01
 -1      3768-3.81634E+01 5.48730E+01 4.73605E+00
 -1      3769-2.74504E+01-1.46442E-03 1.41033E+01
 -1      3770 2.67649E+01 1.47836E+01 2.88055E+01
 -1      3771 3.01619E+01 1.91460E+01 2.61060E+01
 -1      3772 3.16178E+01 1.42721E+01 2.38327E+01
 -1      3773-2.54329E+01 2.64768E-04 9.55120E+00
 -1      3774-3.84449E+01 5.78145E+01-4.71949E+00
 -1      3775 2.70026E+01 1.50680E+01 1.87793E+01
 -1      3776-3.88483E+01-5.78258E+01-4.72823E+00
 -1      3777 1.26698E+01-3.96725E+00 3.39328E+01
 -1      3778-4.99217E+00-5.96757E+01-4.90295E+00
 -1      3779-1.41123E-02-5.96530E+01-4.90299E+00
 -1      3780 1.52648E-02-5.33207E+01-4.93887E+00
 -1      3781 2.83474E-02-5.71660E+01-3.18509E-01
 -1      3782 9.46849E+01 3.00887E+00 4.53444E+01
 -1      3783 8.75610E+01 4.33264E+00 4.37553E+01
 -1      3784 5.01320E+00-5.29557E+01-4.93896E+00
 -1      3785 6.93336E+01-3.18649E+00 4.52027E+01
 -1      3786 9.17494E+01-2.10492E+01 6.42969E+01
 -1      3787 9.35217E+01-1.42519E+01 6.14980E+01
 -1      3788 3.70780E+01 1.15300E+01 3.24648E+01
 -1      3789 3.38681E+01 1.35949E+01 3.62967E+01
 -1      3790 3.10948E+01 6.45367E+00 3.14468E+01
 -1      3791 6.36866E+01 1.89295E+00 4.04507E+01
 -1      3792 6.35799E+01-2.03526E+00 4.04644E+01
 -1      3793 9.81978E+01 1.55992E+01 5.07920E+01
 -1      3794-2.73522E+00-1.19397E+01-4.83162E+00
 -1      3795 3.58999E+00-1.12800E+01-4.69503E+00
 -1      3796 3.39555E+01 2.05215E+01 2.00562E+01
 -1      3797 3.37585E+01 1.91422E+01 2.67737E+01
 -1      3798-1.55070E+01-3.69063E+01 4.80715E+00
 -1      3799-1.91877E+01-3.00674E+01 4.58054E+00
 -1      3800 3.65121E+01 1.92571E+01 8.36623E+00
 -1      3801 3.65121E+01 2.16962E+01 1.18440E+01
 -1      3802 3.65306E+01 1.68194E+01 1.56362E+01
 -1      3803 3.65121E+01-2.16975E+01 1.18431E+01
 -1      3804 3.65316E+01-1.68204E+01 1.56341E+01
 -1      3805-2.59284E+01 3.96043E+00 5.28301E+00
 -1      3806 9.53913E+01 7.94193E+00 4.31804E+01
 -1      3807 9.05866E+01 5.12879E+00 4.88030E+01
 -1      3808 2.53405E+01-9.29808E-03 4.91690E+01
 -1      3809 2.61473E+01-9.45908E-03 4.26802E+01
 -1      3810 2.87585E+01 6.39099E-03 4.74798E+01
 -1      3811-3.64978E+01-4.05607E+00-1.30755E+00
 -1      3812-3.64997E+01-2.14782E+00 1.65129E+00
 -1      3813-3.59260E+01-1.19494E+01-2.01570E+00
 -1      3814-3.59268E+01-1.00405E+01 9.40011E-01
 -1      3815 3.87008E+01 2.21129E+01 2.19472E+01
 -1      3816 3.86968E+01 2.03165E+01 2.50110E+01
 -1      3817 3.65226E+01 1.54400E+01 2.20736E+01
 -1      3818 3.65265E+01 1.72374E+01 1.90106E+01
 -1      3819-5.60258E+00 3.55495E+00 4.59325E+01
 -1      3820-5.59924E+00-4.39704E+00 4.59302E+01
 -1      3821 3.60197E+01-2.54117E+00 2.96775E+01
 -1      3822 3.64079E+01-9.95819E+00 2.68677E+01
 -1      3823-3.11033E+01-4.13081E-03 1.51584E+01
 -1      3824 7.59967E+01-2.00788E+01 6.43281E+01
 -1      3825 7.48966E+01-1.53043E+01 5.96705E+01
 -1      3826 1.03576E+00-4.56903E+01-3.63612E-01
 -1      3827-3.65062E-01-4.14621E+01-4.94821E+00
 -1      3828-5.50231E+00-4.07051E+01-1.40668E-01
 -1      3829 1.06098E+02 9.12117E+00 6.21024E+01
 -1      3830 1.03139E+02 4.69721E+00 5.49821E+01
 -1      3831 1.00114E+02 3.31044E+00 5.95684E+01
 -1      3832 1.00883E+02 8.29372E+00 5.74406E+01
 -1      3833 1.03731E+02 9.63118E+00 5.28453E+01
 -1      3834-3.21749E+01-3.66936E+00 2.64427E+01
 -1      3835 2.46356E+01-1.07101E+01-4.30640E+00
 -1      3836 1.53565E+01-5.91795E+01 4.54072E+00
 -1      3837 2.04320E+01-5.64313E+01-2.49209E-01
 -1      3838 6.75575E+01-9.54356E+00 4.04806E+01
 -1      3839 6.78882E+01-1.19105E+01 4.76821E+01
 -1      3840-3.67754E+01 1.68209E+01-3.71170E+00
 -1      3841-3.06775E+01 2.23545E+01-4.71781E+00
 -1      3842 4.14777E+00 3.95593E+01 4.88019E+00
 -1      3843 9.04081E+01-1.85419E+01 5.43705E+01
 -1      3844 9.35656E+01-1.24156E+01 5.15921E+01
 -1      3845 2.08548E+01-5.89364E+01 4.53414E+00
 -1      3846 2.05303E+01-5.18673E+01 4.73157E+00
 -1      3847 6.73146E+01-9.59536E+00 6.43072E+01
 -1      3848 6.46166E+01-6.68143E+00 6.43093E+01
 -1      3849 3.66649E-01 2.91450E+01 4.88033E+00
 -1      3850 3.84447E+00 3.05394E+01 4.88034E+00
 -1      3851 6.78952E+01-1.19152E+01 5.73279E+01
 -1      3852-3.64999E+01 2.06219E+00 1.85018E+00
 -1      3853-3.64972E+01 6.42285E+00 1.55883E+00
 -1      3854-3.64978E+01 3.89411E+00-1.15266E+00
 -1      3855-3.28100E+01-5.00823E+01-4.58778E+00
 -1      3856 1.05284E+02-5.17798E+00 6.35630E+01
 -1      3857 1.05614E+02-9.23823E+00 6.36298E+01
 -1      3858 9.96101E+01-4.63233E+00 5.95787E+01
 -1      3859 1.03082E+02-5.75713E+00 5.65381E+01
 -1      3860 9.92857E+01-5.68456E-01 5.95854E+01
 -1      3861-9.80254E-01 2.12886E+01 4.50598E+00
 -1      3862 3.02998E+01-4.89318E-01 1.06068E+00
 -1      3863 1.25634E+01 4.26017E+01-4.71525E+00
 -1      3864 1.25927E+01 4.81386E+01-4.91959E+00
 -1      3865 1.72249E+01 4.68449E+01-4.91940E+00
 -1      3866 1.49129E+01-5.92442E+01-4.82203E+00
 -1      3867 1.99147E+01-5.21749E+01-4.78345E+00
 -1      3868 1.30655E+01 1.90762E-03 4.39404E+01
 -1      3869-3.77857E+01 1.38937E+01 5.81293E+00
 -1      3870-2.97445E+01 1.26796E+01 4.78181E+00
 -1      3871-3.16873E+01 1.94264E+01 4.80638E+00
 -1      3872 1.76227E+01-4.72793E+01-4.78720E+00
 -1      3873 1.34110E+01-4.07167E+01-4.80514E+00
 -1      3874 2.43316E+01-1.65878E+01-4.41031E+00
 -1      3875 2.36666E+01-1.81095E+01 7.91915E-01
 -1      3876 5.04023E+00-5.96533E+01-4.82276E+00
 -1      3877 4.25982E+01 1.19548E+01 4.14308E+01
 -1      3878 4.71746E+01 5.40005E+00 4.59095E+01
 -1      3879 4.66485E+01 1.27513E+01 4.44377E+01
 -1      3880 1.02103E+02-1.09713E+01 5.84367E+01
 -1      3881 9.85992E+01-9.72395E+00 6.14832E+01
 -1      3882 1.00269E+02-1.37766E+01 5.17007E+01
 -1      3883 4.58284E+01-3.38394E+00 5.56511E+01
 -1      3884 4.96581E+01-9.17843E+00 5.63479E+01
 -1      3885 9.63694E+01 1.64810E+01 4.78432E+01
 -1      3886 9.52561E+01 1.29837E+01 4.31735E+01
 -1      3887-3.60124E+01-4.02466E+00 1.88694E+01
 -1      3888-3.57234E+01-4.06041E+00 1.32295E+01
 -1      3889-3.59911E+01 3.89068E+00 1.88584E+01
 -1      3890 5.07929E+01 2.06083E+01 5.79372E+01
 -1      3891 5.48031E+01 2.10470E+01 5.83848E+01
 -1      3892 5.13780E+01 1.32967E+01 5.67520E+01
 -1      3893 5.53913E+01 1.37934E+01 5.72074E+01
 -1      3894-2.76536E+01 2.56263E+00-4.25472E+00
 -1      3895-1.97388E+01 2.56725E+00-3.70562E+00
 -1      3896 4.25818E+01 4.79081E+00 4.24270E+01
 -1      3897 2.73721E+01-3.98195E+00 3.50180E+01
 -1      3898 3.00754E+01-1.11056E+01 3.99277E+01
 -1      3899 2.76063E+01-1.13780E+01 3.22248E+01
 -1      3900 6.45171E+01-6.82650E+00 4.04790E+01
 -1      3901 7.49629E+00 2.90633E+01-4.77927E+00
 -1      3902 5.48046E+00 3.22086E+01 1.01067E-01
 -1      3903 3.08164E+00 3.20295E+01-4.64380E+00
 -1      3904 1.73432E+00 2.41728E+01-5.01833E+00
 -1      3905-1.81936E+01-1.23412E+01-4.64912E+00
 -1      3906-1.60819E+01-5.35153E+00-3.70706E+00
 -1      3907-1.10977E+01-5.82679E+00 9.86266E-01
 -1      3908-1.12869E+01-1.11799E+01-4.83114E+00
 -1      3909-1.32089E+01-1.28166E+01 4.36451E-02
 -1      3910-2.11355E-01-4.91801E+01 4.58405E+00
 -1      3911 7.65987E-01-4.40349E+01 4.57520E+00
 -1      3912-2.90840E+00-4.35096E+01 4.57554E+00
 -1      3913 1.01009E+01-3.96806E+00 2.33011E+01
 -1      3914 1.01044E+01 3.96731E+00 2.33015E+01
 -1      3915 1.55677E+01 5.19454E-04 2.38473E+01
 -1      3916 3.58830E+01-3.22136E+01 4.84063E+00
 -1      3917 3.38014E+01-3.58859E+01 3.26886E-01
 -1      3918 2.84135E+01-3.70458E+01 5.00860E+00
 -1      3919 3.03718E+01-3.10391E+01 4.60301E+00
 -1      3920 3.57614E+01-2.98724E+01-7.94896E-02
 -1      3921-3.02834E+01 5.58309E+01 2.07717E+00
 -1      3922 8.16418E+00 3.97750E+01-4.71574E+00
 -1      3923-3.59262E+01-1.43268E+01 7.11317E-01
 -1      3924 3.04477E+01 1.91554E+01 3.01898E+01
 -1      3925 3.26004E+01-3.98669E+00 4.56699E+01
 -1      3926 3.25774E+01 3.98318E+00 4.56771E+01
 -1      3927 3.00038E+01 3.98727E+00 4.08972E+01
 -1      3928 9.05866E+01 9.31287E+00 4.52873E+01
 -1      3929 2.02286E+01-5.92436E+01-4.98114E+00
 -1      3930 3.00999E+01-4.02702E+00 5.00467E+01
 -1      3931 2.66591E+01 3.89097E+00 5.17282E+01
 -1      3932 3.00912E+01 3.88678E+00 5.00501E+01
 -1      3933 3.60502E+00 3.71651E+01-4.64367E+00
 -1      3934 2.58420E+01 2.10322E+01 2.84318E+01
 -1      3935 2.05075E+01-4.00832E+01 5.00884E+00
 -1      3936 1.73841E+01-4.44062E+01 4.73444E+00
 -1      3937 1.31738E+01-3.78428E+01 4.71786E+00
 -1      3938 2.92434E+01-4.06339E+01-4.51165E+00
 -1      3939 3.67092E+01-3.57965E+01-4.68308E+00
 -1      3940 3.11971E+01-3.46219E+01-4.91901E+00
 -1      3941 1.88521E+01-4.71612E-03 4.28162E+01
 -1      3942 1.80097E+01-1.29456E-02 3.88856E+01
 -1      3943 2.96969E+01-1.50101E+01 3.86055E+01
 -1      3944 2.83545E+01-2.05568E+01 3.68475E+01
 -1      3945 2.72897E+01-1.52790E+01 3.08945E+01
 -1      3946-3.21155E+01-5.12363E+00-4.25602E+00
 -1      3947-3.15445E+01-1.30177E+01-4.96416E+00
 -1      3948 2.45825E+01-5.95192E+01-4.97794E+00
 -1      3949 2.87456E+01-5.95233E+01-6.66301E+00
 -1      3950 2.97751E+01-5.43527E+01-4.69305E+00
 -1      3951 3.01754E+01-5.83037E+01-1.84558E+00
 -1      3952 2.59219E+01-5.82755E+01-1.64003E-01
 -1      3953-1.16017E+01-3.15815E+00-3.70743E+00
 -1      3954-6.80653E+00-8.98623E+00-4.83134E+00
 -1      3955 4.25716E+01-1.19593E+01 4.14487E+01
 -1      3956 9.54872E+01-1.72922E+01 5.66119E+01
 -1      3957-1.90060E+01-2.92111E+01-4.94250E+00
 -1      3958 5.53217E+01-2.03243E+01 4.87074E+01
 -1      3959 5.42051E+01-2.03089E+01 4.51713E+01
 -1      3960 5.21544E+01-1.78995E+01 4.99117E+01
 -1      3961 5.51067E+01-1.28345E+01 4.77006E+01
 -1      3962 5.33092E+01-1.79057E+01 5.34625E+01
 -1      3963 5.55177E+01 7.99631E+00 5.71729E+01
 -1      3964-3.12162E+01-3.96727E+00 5.28454E+00
 -1      3965 2.72117E+01-1.96720E+01-4.41015E+00
 -1      3966 2.98808E+01-2.34892E+01 1.93481E-01
 -1      3967 2.65075E+01-3.99587E+00 2.96805E+01
 -1      3968 2.65055E+01 3.99725E+00 2.96860E+01
 -1      3969 1.77077E+01-3.96550E+00 2.74270E+01
 -1      3970 1.77070E+01 3.96579E+00 2.74286E+01
 -1      3971 2.19999E+01 4.77171E-03 3.01029E+01
 -1      3972-3.02047E+01-5.58140E+01-1.75015E+00
 -1      3973 3.14059E+01-3.17392E+00 2.72460E+01
 -1      3974 3.13982E+01 3.17345E+00 2.72496E+01
 -1      3975 1.49828E+01 5.92285E+01-4.61511E+00
 -1      3976 1.97472E+01 5.19250E+01-4.91702E+00
 -1      3977 5.10745E+00-5.92093E+01 4.70165E+00
 -1      3978 8.27942E-02-5.28770E+01 4.58423E+00
 -1      3979-1.53244E+01-3.60499E+01-4.71583E+00
 -1      3980 5.28503E-02-5.92091E+01 4.62052E+00
 -1      3981-2.91820E+01-5.99551E+01-6.66741E+00
 -1      3982 5.09039E+01-9.96558E+00 4.67357E+01
 -1      3983 7.19513E+01 1.73360E+01 6.42737E+01
 -1      3984 7.13364E+01 1.44723E+01 5.72284E+01
 -1      3985-4.99269E+00-5.91790E+01 4.62070E+00
 -1      3986 6.04705E+01 2.08225E+01 5.53295E+01
 -1      3987 4.94657E+01-3.97032E+00 6.10425E+01
 -1      3988 4.59818E+01-4.90772E+00 6.08476E+01
 -1      3989 4.56199E+01-3.37729E-01 5.63407E+01
 -1      3990-3.07434E+01-7.23550E-04 9.56454E+00
 -1      3991 1.06397E+02-5.15133E-03 6.21989E+01
 -1      3992 1.04117E+02-5.69275E-01 5.51341E+01
 -1      3993 3.58854E+01-3.79798E+01 4.98107E+00
 -1      3994 3.38074E+01-4.16629E+01 4.65422E-01
 -1      3995 1.53579E+01 5.89489E+01 4.90702E+00
 -1      3996 2.01240E+01 5.16464E+01 4.59922E+00
 -1      3997 2.03595E+01 5.92263E+01-5.01165E+00
 -1      3998 2.01420E+01 5.61948E+01-4.11029E-01
 -1      3999 1.01057E+02-1.41948E+01 4.25453E+01
 -1      4000 2.07400E+01 5.89470E+01 4.50699E+00
 -1      4001 3.79429E+01-3.11063E+01-4.68208E+00
 -1      4002 3.24302E+01-2.99339E+01-4.91959E+00
 -1      4003 1.84467E+01-3.95466E+00 3.28593E+01
 -1      4004 4.70301E+01 6.09738E-01 4.57971E+01
 -1      4005 5.12791E+01 3.14579E+00 4.72423E+01
 -1      4006 9.40748E+01-1.84145E+01 5.18168E+01
 -1      4007 3.64325E+01-1.50270E+01 2.68626E+01
 -1      4008-3.26582E+01-6.07400E+01-6.65642E+00
 -1      4009 7.35529E+01 2.44228E+01 5.74229E+01
 -1      4010 7.29495E+01 1.82185E+01 5.26886E+01
 -1      4011 2.27222E+01 1.35930E-03 4.43554E+01
 -1      4012 2.18902E+01 7.32563E-04 5.08810E+01
 -1      4013 4.52353E+01-1.19778E+01 5.43109E+01
 -1      4014 3.39697E+01 1.91423E+01 3.08059E+01
 -1      4015 1.22729E+01-4.34123E+01 4.69877E+00
 -1      4016 1.07686E+01-4.17979E+01-1.06452E-01
 -1      4017 6.81166E+01-1.36833E+01 5.25440E+01
 -1      4018-2.84601E+01 5.20834E+00 5.31299E-01
 -1      4019-2.43891E+01 7.78248E+00-4.74155E+00
 -1      4020-2.05461E+01 5.21318E+00 1.07867E+00
 -1      4021-1.11362E+01 2.09029E+00-3.70748E+00
 -1      4022-1.00668E+01-1.96201E-04 1.96113E+00
 -1      4023-1.32277E+01 6.74465E+00 1.11485E+00
 -1      4024 3.62905E+01 1.40612E+01 2.87781E+01
 -1      4025-1.56537E+01-3.03320E-01-3.70624E+00
 -1      4026-3.32336E+01 9.11320E+00-1.63853E+00
 -1      4027 2.62191E+01-2.05834E+01 3.24559E+01
 -1      4028-3.68928E+01-9.17296E+00-6.57638E+00
 -1      4029 2.54675E+01 2.10338E+01 1.26496E+01
 -1      4030 2.54672E+01 2.23264E+01 1.57624E+01
 -1      4031 2.70075E+01 1.74499E+01 1.64290E+01
 -1      4032 3.02487E+01 2.05227E+01 1.64401E+01
 -1      4033 2.54672E+01-2.23260E+01 1.57628E+01
 -1      4034 2.54676E+01-2.10338E+01 1.26499E+01
 -1      4035 3.02499E+01-2.05221E+01 1.64404E+01
 -1      4036 2.70087E+01-1.74495E+01 1.64291E+01
 -1      4037 3.09361E+01 1.41067E+01-4.12192E+00
 -1      4038 3.10627E+01 8.12704E+00-4.15971E+00
 -1      4039 3.67083E+01-4.15722E+01-4.54163E+00
 -1      4040 1.39515E+01 3.45071E-03 4.79025E+01
 -1      4041 1.01008E+01-4.22084E+00 5.13116E+01
 -1      4042-1.48214E+01-1.09576E+01 4.87535E+00
 -1      4043-7.91430E+00-9.79613E+00 4.69311E+00
 -1      4044 2.12074E+01-4.70658E+01 4.73192E+00
 -1      4045 2.43272E+01-4.27423E+01 5.00623E+00
 -1      4046 7.35541E+01 2.44222E+01 4.79509E+01
 -1      4047-1.52132E+01 5.04197E+00-3.70709E+00
 -1      4048-1.25482E+01 1.17885E+01-4.70218E+00
 -1      4049-1.98637E+01 1.02576E+01-4.74246E+00
 -1      4050-1.78781E+01 1.19611E+01 7.90942E-02
 -1      4051 3.93104E+01 2.25775E+01 3.17256E+01
 -1      4052 3.79141E+01 2.26158E+01 3.54383E+01
 -1      4053 3.24652E+01 1.91462E+01 3.45669E+01
 -1      4054 3.67028E+01 1.63773E+01 3.15055E+01
 -1      4055-1.00445E+01 1.07144E+01 4.82210E+00
 -1      4056-3.49402E+01 3.89362E+00 2.20675E+01
 -1      4057-3.49385E+01-4.09376E+00 2.20667E+01
 -1      4058-7.55285E+00 1.48735E+01 4.82182E+00
 -1      4059-3.08671E+00 1.78579E+01 4.50609E+00
 -1      4060 3.88476E+01 2.03084E+01 2.90215E+01
 -1      4061 3.58755E+01 4.71699E-01 4.81461E+00
 -1      4062 4.89903E+01-2.06819E+01 5.13446E+01
 -1      4063 4.78428E+01-2.06789E+01 4.77567E+01
 -1      4064 2.60322E+01 5.65066E-01-4.16000E+00
 -1      4065 6.93707E+01 2.16695E+01 4.79657E+01
 -1      4066 7.13305E+01 1.44741E+01 4.75711E+01
 -1      4067-2.77364E+01-1.56976E+01-4.96447E+00
 -1      4068-2.78988E+01-2.09016E+01-4.96460E+00
 -1      4069-2.26363E+01-2.13946E+01-4.94316E+00
 -1      4070-2.27994E+01-2.65991E+01-4.94275E+00
 -1      4071-2.54777E+01-2.14933E+01-3.83524E-01
 -1      4072 7.00202E+01 1.37030E+01 4.04614E+01
 -1      4073 2.58969E+01 2.29495E+01 2.59472E+01
 -1      4074-3.19939E+01 5.23866E+00-4.25612E+00
 -1      4075-3.67714E+01 9.14297E+00-6.42197E+00
 -1      4076 3.65881E+01-4.23052E+01 4.97411E+00
 -1      4077 2.91183E+01-4.13692E+01 5.00676E+00
 -1      4078 4.36140E+01 1.03414E+00 5.61989E+01
 -1      4079 4.16990E+01-7.91615E-01 5.60170E+01
 -1      4080 3.46719E+01-1.46401E+00 5.67679E+01
 -1      4081 3.85002E+01 5.31910E-01 5.18296E+01
 -1      4082 3.65863E+01 3.51477E-01 5.69504E+01
 -1      4083 1.76206E+01-4.86938E+01 4.73349E+00
 -1      4084 1.25081E+01-4.76992E+01 4.69841E+00
 -1      4085 1.05316E+02 5.21328E+00 6.20401E+01
 -1      4086 3.26046E-01-4.02267E+01 4.57554E+00
 -1      4087 9.92831E+01-5.55567E-01 4.53493E+01
 -1      4088 7.02710E+01-1.36504E+01 4.04637E+01
 -1      4089 7.07340E+01-1.59373E+01 4.76850E+01
 -1      4090 1.37240E+01-1.82065E+01-4.32283E+00
 -1      4091 7.02737E+01 1.36515E+01 6.43262E+01
 -1      4092 3.65780E+01-5.71093E+00 2.46156E+01
 -1      4093 3.17645E+01-1.05894E+01 2.44452E+01
 -1      4094 3.33799E+01-2.94700E+01 4.60284E+00
 -1      4095 3.57604E+01-2.70490E+01 4.60368E+00
 -1      4096 3.09991E+01-2.70501E+01 4.60351E+00
 -1      4097 2.39102E+01 5.68580E-03 3.77331E+01
 -1      4098 3.15779E+01-4.68238E+01-4.70401E+00
 -1      4099 3.61422E+01-4.78638E+01 2.71910E-01
 -1      4100 2.86911E+01-4.69201E+01 3.01786E-01
 -1      4101 5.92448E+01-2.03440E+01 4.58031E+01
 -1      4102 1.22222E+01-1.70385E+01 5.20169E+00
 -1      4103 2.58704E+01-2.18419E+01 5.11470E+00
 -1      4104-2.25051E+01-1.47891E+01-4.64935E+00
 -1      4105-2.02464E+01-2.05844E+01-6.85405E-02
 -1      4106-3.57315E+01 3.92156E+00 1.32433E+01
 -1      4107 5.07489E+01-5.19244E+00 4.67020E+01
 -1      4108 9.82673E+01-5.67279E+00 6.14881E+01
 -1      4109-2.54047E+01-1.09577E+01 4.87542E+00
 -1      4110-3.06352E+01-1.18668E+01 4.55931E+00
 -1      4111 7.19525E+01 1.73362E+01 4.05139E+01
 -1      4112 4.65638E+01 1.58554E+01 5.46495E+01
 -1      4113 1.03134E+02-5.59351E+00 5.26626E+01
 -1      4114 3.88931E+01-3.06407E+01 4.84034E+00
 -1      4115 1.46106E+01 9.29013E-01-3.89661E+00
 -1      4116 9.31819E+00 2.84857E+00-4.57691E+00
 -1      4117 1.90168E+01-1.12044E-02 3.53528E+01
 -1      4118 1.37092E+01 3.96422E+00 3.03541E+01
 -1      4119 1.84133E+01 3.94864E+00 3.28661E+01
 -1      4120 3.82953E+01 4.72181E+01 4.97309E+00
 -1      4121 3.82958E+01 5.16621E+01 6.88946E+00
 -1      4122 3.61291E+01 5.24067E+01 2.15826E+00
 -1      4123 3.31745E+01 5.25276E+01 4.77321E+00
 -1      4124 9.23395E+00-2.57791E+01 4.80900E+00
 -1      4125 4.28659E+00-2.67050E+01 5.12850E+00
 -1      4126 3.39180E+01-6.82466E-02 4.82555E+01
 -1      4127 1.79050E+01 4.80971E-03 4.93908E+01
 -1      4128-2.79771E+01-2.62226E+01-4.88506E+00
 -1      4129-3.06552E+01-2.11162E+01-3.25681E-01
 -1      4130-2.55565E+01-2.68150E+01-3.04318E-01
 -1      4131-2.90025E+01-3.25818E+01 4.69698E+00
 -1      4132-2.33830E+01-2.75720E+01 4.58075E+00
 -1      4133 1.37137E+01-3.96336E+00 3.03563E+01
 -1      4134 3.83069E+01-5.16529E+01 6.89071E+00
 -1      4135 3.83057E+01-4.72086E+01 4.97374E+00
 -1      4136 3.32293E+01-5.25303E+01 4.79340E+00
 -1      4137 3.61695E+01-5.24176E+01 2.17710E+00
 -1      4138-9.53384E+00-2.64632E+01-1.23865E-01
 -1      4139-3.77676E+00-2.70817E+01-4.80524E+00
 -1      4140-2.62204E+00-2.96000E+01 3.23306E-01
 -1      4141 1.07288E+02-3.92483E+00 4.27041E+01
 -1      4142 1.04152E+02-5.77735E-01 4.98936E+01
 -1      4143-4.27629E+00-3.58036E+01 4.71897E+00
 -1      4144-2.58983E+00-3.61216E+01-2.29340E-01
 -1      4145-7.18806E+00-4.03873E+01 4.80731E+00
 -1      4146-1.01043E+01-3.62836E+01 2.81721E-03
 -1      4147-2.26533E+01 9.18226E+00 4.78322E+00
 -1      4148 9.62844E+01 2.49956E+00 4.31792E+01
 -1      4149 6.93648E+01 2.16758E+01 5.74059E+01
 -1      4150 1.02182E+02-1.08263E+01 5.45821E+01
 -1      4151 8.84989E+00-2.29612E+00-4.57696E+00
 -1      4152 6.34874E+00-3.24861E+00 2.52224E-01
 -1      4153-1.02210E+01-1.89104E+01-4.84295E+00
 -1      4154-7.43377E+00-1.41248E+01-4.83153E+00
 -1      4155-3.86098E+01 5.46340E+01 6.65787E+00
 -1      4156-3.80963E+01 5.18652E+01 6.65674E+00
 -1      4157 3.03530E+01-2.05221E+01 1.93733E+01
 -1      4158 2.70050E+01-1.80687E+01 1.96023E+01
 -1      4159 2.55718E+01-2.29460E+01 2.18633E+01
 -1      4160 3.02683E+01-2.01151E+01 2.41792E+01
 -1      4161 2.69176E+01-1.76639E+01 2.44061E+01
 -1      4162 3.17130E+01-1.52384E+01 2.19074E+01
 -1      4163 2.73777E+01 3.98472E+00 3.50191E+01
 -1      4164 3.90599E+01 4.36445E+00 5.82461E+01
 -1      4165 3.39648E+01 3.89666E+00 5.39093E+01
 -1      4166 2.66637E+01-4.03343E+00 5.17242E+01
 -1      4167 2.99940E+01-3.99134E+00 4.08940E+01
 -1      4168 3.00598E+01 1.10979E+01 3.99190E+01
 -1      4169-3.11754E+01-3.18273E+01-1.87291E-01
 -1      4170-2.85605E+01-2.71951E+01 4.63864E+00
 -1      4171 2.60069E+01-5.37196E+01 4.81234E+00
 -1      4172 2.55937E+01-5.12247E+01 2.67198E-02
 -1      4173-1.08323E+01-2.35668E+01 4.68134E+00
 -1      4174-6.10369E+00-2.21714E+01 4.68142E+00
 -1      4175-3.92112E+00-2.67036E+01 5.12859E+00
 -1      4176-3.12168E+01 3.95938E+00 5.28555E+00
 -1      4177 9.13022E+01 2.15734E+01 6.44627E+01
 -1      4178 7.00193E+01-1.37007E+01 6.43255E+01
 -1      4179 7.07404E+01-1.59404E+01 5.73244E+01
 -1      4180-1.28131E+01 1.51985E+01 4.82184E+00
 -1      4181-1.71933E+01 1.83454E+01 4.59492E+00
 -1      4182 4.24075E+01 2.63688E-04 4.23907E+01
 -1      4183 3.66018E+01-3.17305E+00 2.00433E+01
 -1      4184 3.65765E+01-6.31268E-01 2.46146E+01
 -1      4185 3.65829E+01 5.71064E+00 2.46129E+01
 -1      4186 3.65999E+01 3.16773E+00 2.00427E+01
 -1      4187 3.14545E+01-4.75614E+01 4.81379E+00
 -1      4188 3.70334E+00-9.13691E+00 4.82948E+00
 -1      4189 8.99554E+00-9.13701E+00 4.82947E+00
 -1      4190-8.42790E+00-2.90854E+01-4.80506E+00
 -1      4191-1.07699E+01-2.38501E+01-4.84300E+00
 -1      4192-1.24128E+01-3.14651E+01-4.80480E+00
 -1      4193-1.37861E+01-2.94453E+01-2.23866E-01
 -1      4194 2.54216E+01 2.20942E+01-4.87670E+00
 -1      4195 2.92055E+01 2.26949E+01 5.25003E-01
 -1      4196 1.06437E+02-9.10529E-03 4.26398E+01
 -1      4197 3.58753E+01 2.80526E+00 2.66976E-01
 -1      4198 3.56979E+01-3.23061E+00 1.20940E-01
 -1      4199 1.25099E+01-4.62852E+01-4.82380E+00
 -1      4200 2.68289E+01 1.36888E+01 2.55101E+01
 -1      4201 2.43843E+01-5.89397E+01 5.85220E+00
 -1      4202 2.95395E+01-5.82996E+01 1.14564E+00
 -1      4203-5.77434E+00-3.15831E+00-3.85708E+00
 -1      4204-5.27001E+00-5.82736E+00 8.36002E-01
 -1      4205 3.70603E+01 4.61790E+01-5.84949E+00
 -1      4206 3.61226E+01 5.16423E+01-1.04499E+00
 -1      4207-2.02321E+00-6.87300E+00-4.83153E+00
 -1      4208-9.90649E-01-1.04518E+00-3.85749E+00
 -1      4209 1.05604E+00-5.16795E+00 9.71594E-01
 -1      4210 4.30222E+00-6.21337E+00-4.69520E+00
 -1      4211 6.26389E+01 1.29746E+01 5.72939E+01
 -1      4212 6.31709E+01 1.03531E+01 5.25572E+01
 -1      4213 6.89584E+01 1.36235E+01 5.25450E+01
 -1      4214 6.26343E+01 1.29673E+01 4.78160E+01
 -1      4215 2.75440E+01 1.04158E+01 3.41425E+01
 -1      4216 3.00171E+01-1.51195E+01-4.40986E+00
 -1      4217 3.03211E+01-9.24201E+00-4.30573E+00
 -1      4218-3.59834E+01 1.03979E+01 5.81278E+00
 -1      4219-3.59865E+01 6.02933E+00 6.11091E+00
 -1      4220 2.59045E+01-2.29449E+01 2.59457E+01
 -1      4221-2.82352E+01-2.20852E+01 4.63891E+00
 -1      4222-2.81575E+01-1.67652E+01 4.55977E+00
 -1      4223-2.30575E+01-2.24620E+01 4.58115E+00
 -1      4224-3.59861E+01-6.10831E+00 5.90953E+00
 -1      4225 4.30252E+00-3.29725E+01-4.39566E+00
 -1      4226 1.98046E+00-3.40237E+01 1.80060E-01
 -1      4227 4.33579E+00-3.94934E+01-4.94824E+00
 -1      4228 9.16339E+00-3.73348E+01-4.80568E+00
 -1      4229 6.84187E+00-3.83859E+01-2.30091E-01
 -1      4230 6.80759E+00-3.18643E+01 3.22428E-01
 -1      4231-4.96742E+00-3.70393E+01-4.80487E+00
 -1      4232 3.57488E+01 1.88794E+01 4.16389E-01
 -1      4233 3.65120E+01 2.28274E+01 4.53882E+00
 -1      4234 3.47307E+01 2.40681E+01-3.38688E-01
 -1      4235 2.99692E+01 2.66433E+01 4.64718E+00
 -1      4236 2.54772E+01 5.40016E+01-4.72299E+00
 -1      4237 2.58802E+01 5.82688E+01-2.17269E-01
 -1      4238-8.49035E+00-2.88022E+01 4.71906E+00
 -1      4239 2.63668E-01-3.65874E+01-4.94833E+00
 -1      4240 2.31003E-01-3.00662E+01-4.39568E+00
 -1      4241 5.52052E+01-2.10465E+01 5.82343E+01
 -1      4242 5.12099E+01-2.15607E+01 5.77837E+01
 -1      4243 5.49696E+01-1.35453E+01 5.72289E+01
 -1      4244 5.09624E+01-1.40137E+01 5.67412E+01
 -1      4245 3.95017E+01 6.39354E-05 3.89708E+01
 -1      4246 3.67824E+01 4.66472E-04 3.33002E+01
 -1      4247 6.54060E+01 1.71100E+01 5.72939E+01
 -1      4248-3.62076E+01 4.97885E+01 2.08148E+00
 -1      4249 6.53992E+01 1.71032E+01 4.78001E+01
 -1      4250 2.58344E+01-2.10416E+01 2.84240E+01
 -1      4251 2.68890E+01-1.57539E+01 2.68660E+01
 -1      4252 9.99895E+01 4.38103E+00 4.31946E+01
 -1      4253-1.53364E+01 1.07145E+01 4.82229E+00
 -1      4254-2.29261E+01-1.58566E+01 4.87482E+00
 -1      4255 9.86405E+00-2.70677E+01-4.71517E+00
 -1      4256 4.91664E+00-2.79935E+01-4.39570E+00
 -1      4257 1.05069E+02 4.45814E+00 5.29468E+01
 -1      4258 1.04990E+02 4.44987E+00 4.77257E+01
 -1      4259 4.58214E+01 4.62010E+00 5.56431E+01
 -1      4260 4.52367E+01 1.19359E+01 5.42739E+01
 -1      4261 9.77651E+00-3.23559E+01-4.80586E+00
 -1      4262 3.66860E+01 2.06439E+01-4.98621E+00
 -1      4263 3.01427E+01 2.44588E+01-4.87672E+00
 -1      4264 3.47304E+01 2.69316E+01-4.87633E+00
 -1      4265 2.58523E+01 5.37250E+01 4.79458E+00
 -1      4266 7.19516E+01-1.73442E+01 4.05161E+01
 -1      4267-8.24695E+00-3.42325E+01 4.71879E+00
 -1      4268-1.11593E+01-3.88168E+01 4.80733E+00
 -1      4269 8.26005E+00 3.77134E+01 4.80804E+00
 -1      4270 3.60320E+01 2.54110E+00 2.96761E+01
 -1      4271 3.62528E+01 8.98691E+00 2.87925E+01
 -1      4272 1.32335E+01-2.34400E+01 4.80901E+00
 -1      4273 1.62213E+01-1.95838E+01 5.20155E+00
 -1      4274 3.25801E+01-1.11152E+01 4.47500E+01
 -1      4275 3.79748E+01 2.16954E+01 1.52243E+01
 -1      4276 3.32328E+01 2.05213E+01 1.66995E+01
 -1      4277 3.25745E+01 1.11126E+01 4.47562E+01
 -1      4278 3.79750E+01-2.16969E+01 1.52234E+01
 -1      4279 3.32339E+01-2.05211E+01 1.66994E+01
 -1      4280 3.65123E+01 2.82235E+01 4.84078E+00
 -1      4281-3.80144E+01-5.18212E+01 6.64967E+00
 -1      4282-3.61433E+01-4.97505E+01 2.04081E+00
 -1      4283 6.70495E+01 2.07899E+01 5.28316E+01
 -1      4284 9.08682E+01-2.16723E+01 4.03040E+01
 -1      4285 8.69958E+01-2.08625E+01 4.03296E+01
 -1      4286 9.10790E+01-1.93260E+01 4.46687E+01
 -1      4287 9.18550E+01-1.57884E+01 4.24699E+01
 -1      4288 5.00756E+01 9.42713E+00 5.63843E+01
 -1      4289 3.79232E+01 5.10271E+01-5.83337E+00
 -1      4290 3.27910E+01 5.26163E+01-4.70047E+00
 -1      4291 3.65121E+01-2.27958E+01 4.53085E+00
 -1      4292 3.53939E+01-1.92352E+01 1.20563E-01
 -1      4293 2.80543E+01-5.03049E+01-4.69524E+00
 -1      4294 2.56997E+01-4.41243E+01-4.51155E+00
 -1      4295 2.42706E+01 5.89524E+01 5.85138E+00
 -1      4296 2.94969E+01 5.82906E+01 1.12070E+00
 -1      4297-1.88312E+01-1.73641E+01-4.64956E+00
 -1      4298-1.89627E+01-2.39693E+01-4.94307E+00
 -1      4299-3.75566E+01 2.76300E+01 4.88848E+00
 -1      4300-3.14587E+01 2.34814E+01 4.80609E+00
 -1      4301 3.26618E+01 6.07327E+01-6.66239E+00
 -1      4302 2.91612E+01 5.99615E+01-6.66256E+00
 -1      4303 3.01528E+01 5.47650E+01-4.70440E+00
 -1      4304 3.01379E+01 5.83026E+01-1.86067E+00
 -1      4305 3.36944E+01 5.56809E+01-4.65838E+00
 -1      4306 2.97246E+01-2.10884E+01 4.07003E+01
 -1      4307 3.11571E+01-1.54868E+01 4.24513E+01
 -1      4308-2.80074E+01-3.13532E+01-4.88457E+00
 -1      4309 4.30209E+00 8.74312E-01-4.57681E+00
 -1      4310 2.70723E+01 1.04176E+01 2.13144E+01
 -1      4311 3.16521E+01 9.62155E+00 2.63692E+01
 -1      4312-3.59835E+01-1.03975E+01 5.67643E+00
 -1      4313 3.09187E+01 2.90689E+00-4.15962E+00
 -1      4314 3.07412E+01-3.12911E+00-4.30558E+00
 -1      4315 5.98153E+01-1.43301E+01 5.71917E+01
 -1      4316 3.25001E+01-5.20790E+01-4.69029E+00
 -1      4317 4.65606E+01-1.68091E+01 5.46576E+01
 -1      4318-9.82628E+00-3.03371E-01-3.85639E+00
 -1      4319 2.89202E+01-6.02665E+01 5.85003E+00
 -1      4320 3.05965E+01-5.51144E+01 4.78273E+00
 -1      4321-4.48804E+00-3.12196E+01 4.71908E+00
 -1      4322 1.13953E-01-3.56429E+01 4.57574E+00
 -1      4323-3.60221E+01 3.96956E+00 9.56075E+00
 -1      4324-3.60224E+01-3.96905E+00 9.55528E+00
 -1      4325 2.41137E+01-4.96902E+01 4.73095E+00
 -1      4326 2.95874E+01-5.15690E+01 4.80486E+00
 -1      4327 2.72253E+01-4.53717E+01 5.00613E+00
 -1      4328 3.71605E+01-5.34110E+00 5.80336E+01
 -1      4329 4.10367E+01-4.90100E+00 5.84985E+01
 -1      4330-3.68089E+01-4.05379E+00-6.57623E+00
 -1      4331-3.68089E+01-6.00665E-02-6.49073E+00
 -1      4332-3.64978E+01-6.26053E-02-1.22148E+00
 -1      4333-3.20324E+01-5.87613E-03-4.25394E+00
 -1      4334 3.56388E+01-2.70456E-03 1.59096E+01
 -1      4335 3.92060E+01 1.70415E+01 3.71823E+01
 -1      4336 3.49773E+01 1.98407E+01 4.02791E+01
 -1      4337 2.55741E+01-2.23261E+01 1.86931E+01
 -1      4338 2.62253E+01 2.14544E+01 5.40269E+00
 -1      4339 8.13348E-02-2.91214E+01 5.12851E+00
 -1      4340 3.53939E+01-1.41257E+01 5.42972E-02
 -1      4341 3.53938E+01-1.69335E+01-4.41000E+00
 -1      4342-1.05381E+01 5.93590E+01-4.75071E+00
 -1      4343-7.96571E+00 5.32610E+01-4.62371E+00
 -1      4344-7.40293E+00 5.73996E+01 1.47615E-01
 -1      4345-4.90980E+00 5.73991E+01-4.62366E+00
 -1      4346-2.54648E+01 1.40826E+01 4.78123E+00
 -1      4347-2.74082E+01 2.08296E+01 4.80629E+00
 -1      4348 1.64832E+01 3.96932E+00 2.16395E+01
 -1      4349 1.41255E+01 3.96826E+00 2.56319E+01
 -1      4350 1.64810E+01-3.96912E+00 2.16386E+01
 -1      4351 1.41246E+01-3.96773E+00 2.56316E+01
 -1      4352 2.68962E+01-1.13769E+01 2.68800E+01
 -1      4353-3.67751E+01 2.17432E+01-4.26153E+00
 -1      4354-3.51762E+01 2.33155E+01 5.44852E-01
 -1      4355 8.11598E+00 3.21375E+01 4.74483E+00
 -1      4356-8.71579E+00-3.41750E+01-4.80474E+00
 -1      4357-1.16276E+01-3.87591E+01-4.71574E+00
 -1      4358 3.64615E+01 1.05492E+01-5.02442E+00
 -1      4359 3.57487E+01 1.65464E+01-4.12214E+00
 -1      4360 3.57488E+01 1.39483E+01 3.78776E-01
 -1      4361 9.21737E+01-1.90696E+01 4.72115E+01
 -1      4362-1.25943E+01-3.23208E+01 4.71896E+00
 -1      4363 9.74622E+01 1.80855E+01 4.25968E+01
 -1      4364 1.00460E+02 1.63744E+01 4.25534E+01
 -1      4365 1.00662E+02 1.38265E+01 4.76467E+01
 -1      4366 9.82179E+01 1.12091E+01 4.31827E+01
 -1      4367 3.39660E+01-4.03835E+00 5.39089E+01
 -1      4368 3.65739E+01 1.07889E+01 2.46090E+01
 -1      4369 3.11368E+01 1.54701E+01 4.24662E+01
 -1      4370 2.97211E+01 2.10718E+01 4.07028E+01
 -1      4371 2.86212E+01 1.47842E+01 3.67069E+01
 -1      4372 3.57607E+01-2.44428E+01-3.90558E-01
 -1      4373 3.11607E+01 1.92710E+01-4.12217E+00
 -1      4374 2.70052E+01-1.50686E+01 1.87790E+01
 -1      4375 2.69271E+01-1.46582E+01 2.35797E+01
 -1      4376-1.75898E+01-1.54419E+01 4.87481E+00
 -1      4377-1.06829E+01-1.42800E+01 4.69294E+00
 -1      4378 3.56202E+01-6.06853E+01 4.66047E+00
 -1      4379 3.25923E+01-6.03120E+01 4.74213E+00
 -1      4380 3.33029E+01-5.84261E+01 4.19770E-02
 -1      4381 3.35267E+01-5.54387E+01 4.77241E+00
 -1      4382-1.50216E+01-2.68311E+01-4.94308E+00
 -1      4383 4.48853E+01-2.06812E+01 5.01471E+01
 -1      4384 2.42703E+01-5.24570E+01-4.78139E+00
 -1      4385 2.25828E+01-4.84452E+01-4.78344E+00
 -1      4386 3.34007E+01-6.16077E+01-4.74104E+00
 -1      4387 3.53984E+01-6.08420E+01-4.66335E+00
 -1      4388 3.14605E+01-5.64431E+01-4.65965E+00
 -1      4389 3.33180E+01-5.56394E+01-4.65472E+00
 -1      4390-1.40737E+01-1.59655E+01-4.84292E+00
 -1      4391-2.77335E+01-4.76065E+01-4.61048E+00
 -1      4392-1.59956E+01-1.76031E+01 3.17971E-02
 -1      4393 2.89223E+01 6.02805E+01 5.83561E+00
 -1      4394 3.05561E+01 5.50899E+01 4.77161E+00
 -1      4395-4.33841E+00-3.21641E+01-4.80507E+00
 -1      4396 3.58270E+01 6.09054E+01-4.68251E+00
 -1      4397 3.32710E+01 5.84154E+01 3.21584E-02
 -1      4398 4.17132E+00-3.78013E+01 4.57560E+00
 -1      4399 4.13778E+00-3.12798E+01 5.12852E+00
 -1      4400 4.69880E+01 2.05566E+01 5.65528E+01
 -1      4401 4.48356E+01 2.06727E+01 5.01754E+01
 -1      4402-2.79448E+01 9.18306E+00 4.78378E+00
 -1      4403 4.70588E+01-2.15082E+01 5.65164E+01
 -1      4404-1.50841E+01-2.65481E+01 4.58113E+00
 -1      4405-1.61272E+01-2.42090E+01-2.61848E-01
 -1      4406-4.91004E+00 5.73991E+01 4.89903E+00
 -1      4407 4.70807E+01 5.20666E+00 6.09304E+01
 -1      4408 4.96444E+01 6.42884E+00 6.10150E+01
 -1      4409 2.95182E+01 5.15252E+01 4.78650E+00
 -1      4410-1.97300E+01-1.90818E+01 4.87469E+00
 -1      4411-1.98620E+01-2.56873E+01 4.58102E+00
 -1      4412-3.68088E+01 3.89705E+00-6.42165E+00
 -1      4413-3.77854E+01 1.88154E+01 5.26293E+00
 -1      4414 3.70125E+00 3.51034E+01 4.88024E+00
 -1      4415 1.09741E+01-1.21293E+01 4.82951E+00
 -1      4416 6.51318E+01-1.57065E+01 4.76988E+01
 -1      4417-1.69280E+01 1.49352E+01-4.92922E+00
 -1      4418-2.22575E+01 1.51082E+01-1.48059E-01
 -1      4419 3.21338E+00-4.82654E+01 4.58420E+00
 -1      4420 8.11634E+00-4.65309E+01 4.69897E+00
 -1      4421 3.61682E+01-5.16556E+01-1.02637E+00
 -1      4422 3.87764E+01 5.79718E+01 4.68564E+00
 -1      4423 3.86101E+01 5.49014E+01 6.88771E+00
 -1      4424 3.36137E+01 5.57900E+01 4.73419E+00
 -1      4425 3.62422E+01 5.54375E+01 3.91568E-02
 -1      4426 3.58974E+01-1.09650E+01-5.06099E+00
 -1      4427 3.86973E+01-2.03182E+01 2.50166E+01
 -1      4428 3.88344E+01-2.03019E+01 2.90320E+01
 -1      4429 3.38636E+01-2.01108E+01 2.48545E+01
 -1      4430 3.39584E+01-2.05210E+01 2.00558E+01
 -1      4431 9.08554E+00-3.03541E+01 4.80891E+00
 -1      4432 2.45143E+01 5.92301E+01-6.67523E+00
 -1      4433-3.75565E+01 2.28696E+01 5.26279E+00
 -1      4434 7.19545E+01-1.73437E+01 6.42715E+01
 -1      4435 2.00218E+01-1.73036E+01 5.20172E+00
 -1      4436 3.57177E+01 6.10050E+01 4.69546E+00
 -1      4437 8.99851E+00-3.56423E+01 4.71805E+00
 -1      4438 3.86147E+01-5.75950E+01 4.68316E+00
 -1      4439 3.62825E+01-5.54507E+01 5.69821E-02
 -1      4440 1.05593E+02 9.29691E+00 4.25310E+01
 -1      4441 1.06781E+02 4.08109E+00 4.27055E+01
 -1      4442 1.03746E+02 9.68789E+00 4.76301E+01
 -1      4443 1.00332E+02 8.42904E+00 4.31848E+01
 -1      4444-1.56107E+01-2.27059E+01 4.68131E+00
 -1      4445 1.30900E+01 4.01280E+00 5.21527E+01
 -1      4446 1.30893E+01-3.92795E+00 5.21533E+01
 -1      4447 4.19007E+00-4.31203E+01 4.57553E+00
 -1      4448 3.97226E+01 2.18556E+01 3.84296E+01
 -1      4449 4.11125E+01 1.62991E+01 4.01513E+01
 -1      4450 3.97244E+01-2.18562E+01 3.84281E+01
 -1      4451 4.11181E+01-1.63001E+01 4.01456E+01
 -1      4452 3.65291E+01-1.72376E+01 1.90070E+01
 -1      4453 3.87017E+01-2.21133E+01 2.19501E+01
 -1      4454 3.64510E+01-1.68287E+01 2.38101E+01
 -1      4455 3.70512E+01-2.13535E+01-4.99428E+00
 -1      4456 3.11710E+01-2.03994E+01-4.41008E+00
 -1      4457 6.51429E+01-1.57094E+01 5.71876E+01
 -1      4458 2.70766E+01-1.04154E+01 2.13134E+01
 -1      4459 3.84902E+01-5.45431E+01 6.89016E+00
 -1      4460 9.40689E+01-2.03032E+01 6.17677E+01
 -1      4461 3.58754E+01 7.96867E+00 3.41287E-01
 -1      4462 4.20041E+01-5.34313E+00 6.06138E+01
 -1      4463 8.02007E+00 3.41992E+01-4.77911E+00
 -1      4464 3.82930E+01-5.40228E+01-5.83659E+00
 -1      4465 3.84325E+01-5.78038E+01-4.69121E+00
 -1      4466 3.76053E+01-5.04932E+01-5.83467E+00
 -1      4467-2.62210E+00-9.79658E+00 4.69304E+00
 -1      4468 3.64535E+01-1.24752E+01 2.23772E+01
 -1      4469 1.03042E+02 1.33777E+01 6.20679E+01
 -1      4470 2.83710E+01 2.15066E+01 3.68270E+01
 -1      4471 2.72292E+01 1.52653E+01 3.28294E+01
 -1      4472 3.43012E+01-1.54861E+01 4.68333E+01
 -1      4473 3.83235E+01-1.63227E+01 5.00340E+01
 -1      4474 9.70378E+01-1.84829E+01 6.17204E+01
 -1      4475 9.65024E+01-1.25001E+01 6.15068E+01
 -1      4476-9.98090E+00 5.91783E+01 4.77042E+00
 -1      4477-7.40798E+00 5.30803E+01 4.89930E+00
 -1      4478 3.88357E+01 5.78216E+01-4.69809E+00
 -1      4479-8.20989E+00-1.87407E+01 4.68141E+00
 -1      4480-3.76678E+01 5.07308E+01-5.93881E+00
 -1      4481-3.61997E+01 4.92068E+01-1.01101E+00
 -1      4482-3.62002E+01 4.74455E+01-4.56947E+00
 -1      4483-2.45197E+01-5.91819E+01-6.67273E+00
 -1      4484-1.34701E+01-1.90659E+01 4.68138E+00
 -1      4485 5.93952E+00-4.39552E+01-2.49050E-01
 -1      4486 9.01829E+00-4.09619E+01 4.71781E+00
 -1      4487 4.27298E+01-1.63348E+01 5.31595E+01
 -1      4488-3.60034E+01-2.70310E+01 4.63868E+00
 -1      4489-3.20429E+01-2.95614E+01 4.63849E+00
 -1      4490-3.22860E+01-2.47364E+01 4.63881E+00
 -1      4491 3.58754E+01 5.37102E+00-4.15991E+00
 -1      4492 3.56979E+01-8.24844E+00 1.58523E-01
 -1      4493-3.65040E+01-3.89197E-03 5.27940E+00
 -1      4494 1.61461E+01-4.50969E+00 5.28850E+01
 -1      4495 1.61525E+01 3.42212E+00 5.28817E+01
 -1      4496 2.37972E+01 4.94297E+01 4.59902E+00
 -1      4497-1.47116E+01-2.09883E+01-4.84296E+00
 -1      4498-2.12013E+01 1.76673E+01-4.92927E+00
 -1      4499-2.41365E+01 1.29893E+01-4.74274E+00
 -1      4500 3.57605E+01-2.73379E+01-4.92012E+00
 -1      4501 3.15380E+01-2.56068E+01-4.92037E+00
 -1      4502 2.62351E+01 2.15479E+01 3.24451E+01
 -1      4503 3.03516E+01-6.15679E+01-6.67531E+00
 -1      4504-1.28059E+01 5.79946E+01-3.24593E-02
 -1      4505-1.33668E+01 5.38567E+01-4.80340E+00
 -1      4506-3.19057E+01-2.35532E+01-4.88536E+00
 -1      4507-3.18280E+01-1.82329E+01-4.96470E+00
 -1      4508 3.67098E+01-4.52695E+01-5.85091E+00
 -1      4509 5.13583E+01 1.02241E+01 4.67101E+01
 -1      4510 2.01674E+00-4.92989E+01-4.93898E+00
 -1      4511 6.91970E+00-4.75640E+01-4.82423E+00
 -1      4512 1.03524E+02-1.20279E+01 6.35632E+01
 -1      4513 3.43003E+01 1.54852E+01 4.68444E+01
 -1      4514 3.83340E+01 1.63124E+01 5.00370E+01
 -1      4515 2.01143E+01-4.51232E+00 5.43632E+01
 -1      4516 2.01121E+01 3.42699E+00 5.43680E+01
 -1      4517-2.25297E+01 1.87601E+01 4.59486E+00
 -1      4518-2.01289E+01 1.36676E+01 4.78135E+00
 -1      4519-3.24854E+01-3.49499E+01 4.69673E+00
 -1      4520-3.59259E+01-1.56909E+01-4.96453E+00
 -1      4521 4.27411E+01 1.63317E+01 5.31765E+01
 -1      4522-3.19391E+01-4.52254E+01-4.60942E+00
 -1      4523-3.22519E+01-3.98063E+01-4.82406E+00
 -1      4524-2.80309E+01-4.21963E+01-4.82515E+00
 -1      4525-3.13087E+01-4.26368E+01 8.62112E-02
 -1      4526 4.70754E+01-1.35489E+01 5.53394E+01
 -1      4527 6.14401E+01-2.28786E+01 4.57926E+01
 -1      4528 6.19692E+01-1.68839E+01 4.77280E+01
 -1      4529 6.19871E+01-1.93834E+01 5.06116E+01
 -1      4530 5.98095E+01-1.43143E+01 4.77321E+01
 -1      4531 3.56979E+01-5.86042E+00-4.30589E+00
 -1      4532 3.65809E+01-1.07883E+01 2.46029E+01
 -1      4533 5.63970E+01-2.28593E+01 4.50747E+01
 -1      4534-2.60797E+01 1.97366E+01-4.71786E+00
 -1      4535 5.55360E+01 7.97686E+00 4.77302E+01
 -1      4536-3.73513E+01 4.71249E+01 6.66530E+00
 -1      4537-3.77854E+01-1.84615E+01 4.93658E+00
 -1      4538-3.75566E+01-2.25153E+01 4.93624E+00
 -1      4539-3.59259E+01-1.88955E+01-2.83710E-02
 -1      4540-3.22080E+01-1.94162E+01 4.55969E+00
 -1      4541-3.24369E+01-1.53621E+01 4.55988E+00
 -1      4542-3.18124E+01-2.89838E+01-4.88483E+00
 -1      4543-3.22538E+01-3.43718E+01-4.82574E+00
 -1      4544 3.63175E+01 1.65597E-01-5.09892E+00
 -1      4545 5.81038E+01 1.03229E+01 5.71288E+01
 -1      4546 9.19461E+01-2.14546E+01 4.28341E+01
 -1      4547 9.55159E+01-1.98699E+01 4.39087E+01
 -1      4548 9.57584E+01-1.75017E+01 4.82634E+01
 -1      4549-3.73408E+01-4.71009E+01 6.65829E+00
 -1      4550 5.55063E+01 1.30790E+01 5.71994E+01
 -1      4551 6.00463E+01 1.57482E+01 5.72948E+01
 -1      4552 5.16528E+01-6.54457E+00 6.10902E+01
 -1      4553-3.73126E+01-3.24139E+01 4.89314E+00
 -1      4554-3.60036E+01-2.92912E+01 8.65035E-03
 -1      4555 9.52864E+01-1.77734E+01 4.24601E+01
 -1      4556-3.67804E+01 2.69326E+01-4.26131E+00
 -1      4557-3.60036E+01-2.42160E+01 5.08687E-02
 -1      4558-1.53072E+01 5.79928E+01-4.80105E+00
 -1      4559 9.80830E+01-1.68658E+01 4.38912E+01
 -1      4560-3.22031E+01-4.54580E+01 4.90685E+00
 -1      4561-3.51765E+01 2.49527E+01-4.71766E+00
 -1      4562 6.09917E+01 2.28641E+01 4.67558E+01
 -1      4563 6.22216E+01 1.83165E+01 4.78290E+01
 -1      4564-1.53094E+01 5.79946E+01 4.71604E+00
 -1      4565-3.61402E+01-4.90987E+01-1.01676E+00
 -1      4566 8.26132E+00-4.29045E+01-4.82443E+00
 -1      4567 9.71936E+01-1.64219E+01 5.30486E+01
 -1      4568 6.28462E+01 2.08171E+01 5.48713E+01
 -1      4569 3.19552E+01 6.08533E+01 5.83996E+00
 -1      4570 5.13133E+01 2.25524E+01 4.48349E+01
 -1      4571 7.36088E+01-2.44228E+01 4.73202E+01
 -1      4572 7.23941E+01-1.96796E+01 5.21482E+01
 -1      4573 1.00426E+02-1.63181E+01 6.21457E+01
 -1      4574 9.88907E+01-1.51141E+01 5.69763E+01
 -1      4575 6.94354E+01-2.16556E+01 5.67792E+01
 -1      4576 6.68733E+01-1.93647E+01 5.20906E+01
 -1      4577 5.80990E+01 1.03112E+01 4.76569E+01
 -1      4578 7.36131E+01-2.44207E+01 5.67868E+01
 -1      4579 2.67479E+01 1.04110E+01 2.88189E+01
 -1      4580 4.32050E+01-2.10816E+01 5.51491E+01
 -1      4581 4.04044E+01-2.06827E+01 5.17786E+01
 -1      4582 6.41234E+01 2.16890E+01 4.67509E+01
 -1      4583-1.28108E+01 5.36765E+01 4.71944E+00
 -1      4584 4.39681E+01 4.36915E+00 6.07255E+01
 -1      4585 4.34347E+01 2.18142E+01 4.14932E+01
 -1      4586 3.87138E+01 1.98385E+01 4.33756E+01
 -1      4587 4.34343E+01-2.18136E+01 4.14946E+01
 -1      4588 3.87157E+01-1.98380E+01 4.33733E+01
 -1      4589 3.79741E+01 2.21144E+01 1.85938E+01
 -1      4590 3.79747E+01-2.21147E+01 1.85940E+01
 -1      4591-2.83441E+01-4.32209E+01 4.90858E+00
 -1      4592-3.25077E+01-4.00390E+01 4.69556E+00
 -1      4593 3.66292E+01-2.10809E+01 4.82438E+01
 -1      4594 4.27150E+01-2.06738E+01 4.64731E+01
 -1      4595 2.35810E+01 3.68525E+00 5.50531E+01
 -1      4596 2.35806E+01-4.24993E+00 5.50528E+01
 -1      4597 2.83831E+01-3.50835E-01 5.58922E+01
 -1      4598 6.94146E+01-2.16683E+01 4.73229E+01
 -1      4599 4.31470E+01 2.10951E+01 5.51619E+01
 -1      4600 4.04140E+01 2.06701E+01 5.17882E+01
 -1      4601 3.25247E+01 1.98343E+01 4.47933E+01
 -1      4602 3.25270E+01-1.98361E+01 4.47902E+01
 -1      4603-3.73305E+01-4.29897E+01 4.94153E+00
 -1      4604-3.70817E+01-3.18369E+01-4.62953E+00
 -1      4605-3.60035E+01-2.62078E+01-4.88511E+00
 -1      4606 6.41212E+01-2.17001E+01 5.96148E+01
 -1      4607 6.15323E+01-1.93883E+01 5.48977E+01
 -1      4608 3.66296E+01 2.10820E+01 4.82417E+01
 -1      4609 6.45672E+01-2.16921E+01 4.57903E+01
 -1      4610-3.71764E+01-2.13326E+01-4.58799E+00
 -1      4611 6.51777E+01 2.16901E+01 5.94847E+01
 -1      4612-3.64449E+01-3.46794E+01 6.73355E-02
 -1      4613-3.61319E+01-4.55946E+01 3.32580E-01
 -1      4614-3.64437E+01-3.73448E+01 4.69606E+00
 -1      4615-3.77855E+01-1.38934E+01 5.67553E+00
 -1      4616 4.27233E+01 2.06631E+01 4.64824E+01
 -1      4617 5.14542E+01-2.25401E+01 4.46499E+01
 -1      4618 1.02536E+02 1.35400E+01 4.26293E+01
 -1      4619 2.99386E+00-4.41538E+01-4.94816E+00
 -1      4620 6.00984E+01 4.80356E+00 4.77049E+01
 -1      4621 5.54138E+01 9.42537E+00 5.71862E+01
 -1      4622-3.64458E+01-4.01731E+01 1.18547E-01
 -1      4623 5.74043E+01 2.10484E+01 5.99420E+01
 -1      4624-3.79204E+01-5.10586E+01-5.91355E+00
 -1      4625-3.70794E+01-4.62311E+01-5.92580E+00
 -1      4626-3.70723E+01-4.27612E+01-4.57545E+00
 -1      4627-3.82862E+01 5.41390E+01-5.93512E+00
 -1      4628 6.09991E+01-2.28794E+01 5.96178E+01
 -1      4629 5.88006E+01-2.03487E+01 5.96148E+01
 -1      4630 6.19786E+01-1.68890E+01 5.71720E+01
 -1      4631 3.86966E+01 5.40441E+01-5.84034E+00
 -1      4632 5.07191E+01 1.56338E+01 4.56845E+01
 -1      4633-3.64441E+01-3.67949E+01-4.82503E+00
 -1      4634 5.07000E+01-1.56381E+01 4.56853E+01
 -1      4635 2.54656E+01 2.29465E+01 1.89327E+01
 -1      4636-3.86885E+01-5.40646E+01-5.91331E+00
 -1      4637-3.25895E+01 6.06417E+01 6.65168E+00
 -1      4638 4.80496E+01-1.78611E+01 4.51237E+01
 -1      4639-1.17283E+01 4.94843E+01 4.71902E+00
 -1      4640 4.50871E+01-1.71202E+01 4.32651E+01
 -1      4641 4.80693E+01 1.78645E+01 4.51369E+01
 -1      4642 3.50968E+01-3.72108E+00 5.78355E+01
 -1      4643 3.38454E+01-5.64465E+00 5.76796E+01
 -1      4644 3.13413E+01-1.74168E+00 5.63659E+01
 -1      4645 3.26101E+01 1.72154E-01 5.65274E+01
 -1      4646 4.51028E+01 1.71108E+01 4.32729E+01
 -1      4647 5.49767E+01-9.18939E+00 5.72337E+01
 -1      4648 3.07216E+01 3.88750E+00 5.37352E+01
 -1      4649 4.63887E+01 2.26238E+01 4.33529E+01
 -1      4650 4.63811E+01-2.26121E+01 4.33499E+01
 -1      4651 2.76709E+01 3.68126E+00 5.69917E+01
 -1      4652 6.20571E+01 2.28796E+01 5.94853E+01
 -1      4653 6.22314E+01 1.83144E+01 5.72785E+01
 -1      4654 3.07243E+01-4.02704E+00 5.37346E+01
 -1      4655 2.98740E+01 5.49796E+00 5.73648E+01
 -1      4656 3.05943E+01 1.46098E+00 5.62594E+01
 -1      4657-2.91642E+01 6.02308E+01 6.66311E+00
 -1      4658 2.76704E+01-4.24300E+00 5.69958E+01
 -1      4659 3.51003E+01 4.21437E+00 5.78335E+01
 -1      4660 5.86942E+01-2.10588E+01 5.96180E+01
 -1      4661 3.30871E+01 5.50204E+00 5.75800E+01
 -1      4662 8.87044E+01 2.17877E+01 6.43146E+01
 -1      4663 3.06239E+01-5.63704E+00 5.74751E+01
 -1      4664 6.36054E+01-2.04799E+00 3.92803E+01
 -1      4665 6.37105E+01 1.90132E+00 3.92729E+01
 -1      4666 6.35999E+01 2.05269E+00 6.55094E+01
 -1      4667 6.37169E+01-1.89689E+00 6.55009E+01
 -1      4668 4.42345E+00-1.16088E-03 2.74303E+01
 -1      4669-2.21921E+01-5.13961E+01-1.88969E-03
 -1      4670-1.24621E+01 4.46277E+01 4.71930E+00
 -1      4671 5.79466E+00 1.57610E+01-5.01848E+00
 -1      4672-2.37533E+01-4.64943E+01 4.91153E+00
 -1      4673-7.39305E+00-5.22806E+01 1.06488E-03
 -1      4674 5.75113E+01 2.03376E+01 5.99419E+01
 -1      4675 5.58945E+01 1.81478E+01 5.51994E+01
 -1      4676 5.67744E+01-1.79067E+01 5.48933E+01
 -1      4677 5.50826E+01-1.28302E+01 5.72242E+01
 -1      4678 7.70529E+00-8.12128E-04 2.32443E+01
 -1      4679-2.50715E+01-4.27973E+01 1.76892E-04
 -1      4680 5.97068E+01 2.28771E+01 5.99293E+01
 -1      4681 5.72425E+01-1.79082E+01 5.05661E+01
 -3
    3C                          2401                                     1
 -1      1736    6    0    1
 -2      2218      2332      2200      2212      2909      2910      2286      2287      2911      2284
 -1      1737    6    0    1
 -2      1338      1359       555      2859      1466      2912      2913      2914      2916      2915
 -1      1738    6    0    1
 -2      1340       646      2864      2900      2917      2918      2919      2920      2922      2921
 -1      1739    6    0    1
 -2      2332      2208      2218      2213      2923      2312      2909      2924      2289      2288
 -1      1740    6    0    1
 -2      1352      2855       592      2900      2925      2926      2927      2928      2930      2929
 -1      1741    6    0    1
 -2      1352      1366       586      2855      1524      2931      2932      2925      2934      2933
 -1      1742    6    0    1
 -2      2332      2208      2207      2218      2923      2308      2935      2909      2312      2311
 -1      1743    6    0    1
 -2      1075       635       558      1543      2936       742      2937      2938      2940      2939
 -1      1744    6    0    1
 -2      2215      2329      2326      2906      2941      2416      2942      2943      2945      2944
 -1      1745    6    0    1
 -2      1343      2856       565      2878      2946      2947      2948      2949      2951      2950
 -1      1746    6    0    1
 -2       619      1366      2884      2894      2952      2953      2954      2955      2957      2956
 -1      1747    6    0    1
 -2      1969      1965      2835      2844      2039      2958      2959      2960      2962      2961
 -1      1748    6    0    1
 -2      2218      2207      2332      2212      2311      2935      2909      2287      2313      2911
 -1      1749    6    0    1
 -2      2218      2200      2332      2213      2286      2910      2909      2288      2275      2924
 -1      1750    6    0    1
 -2      2529      2832      1963      2835      2963      2964      2965      2966      2968      2967
 -1      1751    6    0    1
 -2      1338      1357      1359      2859      1441      1467      1466      2914      2969      2916
 -1      1752    6    0    1
 -2       618       646      1340      2900       785      2917      2970      2971      2922      2920
 -1      1753    6    0    1
 -2       603       558       635      1543       841       742       844      2972      2939      2940
 -1      1754    6    0    1
 -2      1129      1338       555      2859      2973      2913      2974      2975      2914      2915
 -1      1755    6    0    1
 -2       564       649        56       627       659      2976      2977       864       695      2978
 -1      1756    6    0    1
 -2      1362      1340      2864      2900      1481      2919      2979      2980      2920      2921
 -1      1757    6    0    1
 -2      2328      2214      2221      2201      2981      2293      2982      2983      2281      2291
 -1      1758    6    0    1
 -2       572       586       619      2894       897       899       896      2984      2985      2955
 -1      1759    6    0    1
 -2      2328      2221      2335      2315      2982      2986      2407      2395      2987      2406
 -1      1760    6    0    1
 -2      1365       611      2848      2880      2988      2989      2990      2991      2993      2992
 -1      1761    6    0    1
 -2      2836      2857      2607      2869      2994      2995      2996      2997      2999      2998
 -1      1762    6    0    1
 -2       255      2840      2841      2862      3000      3001      3002      3003      3005      3004
 -1      1763    6    0    1
 -2      1357      1338      1125      2859      1441      3006      3007      2969      2914      3008
 -1      1764    6    0    1
 -2      2221      2322      2323      2335      3009      2424      3010      2986      2405      2419
 -1      1765    6    0    1
 -2      2831      2835      1965      2844      3011      2958      3012      3013      2961      2962
 -1      1766    6    0    1
 -2      2221      2315      2322      2335      2987      2403      3009      2986      2406      2405
 -1      1767    6    0    1
 -2      1338       605       555      1359      3014       781      2913      1466      3015      2912
 -1      1768    6    0    1
 -2      2318      2214      2221      2328      3016      2293      3017      2420      2981      2982
 -1      1769    6    0    1
 -2       586      1366       619      2894      2931      2952       899      2985      2957      2955
 -1      1770    6    0    1
 -2      1366       586       619      2884      2931       899      2952      2953      3018      2954
 -1      1771    6    0    1
 -2       568      2861      1361      2864      3019      3020      3021      3022      3024      3023
 -1      1772    6    0    1
 -2      1963       400      2529      2835      3025      3026      2965      2967      3027      2966
 -1      1773    6    0    1
 -2      2212      2325      2200      2211      3028      3029      2284      2285      3030      2272
 -1      1774    6    0    1
 -2      1371      2855      1352      2900      3031      2925      1527      3032      2930      2928
 -1      1775    6    0    1
 -2      2221      2335      2318      2328      2986      2418      3017      2982      2407      2420
 -1      1776    6    0    1
 -2      1966      2831      1965      2844      3033      3012      2025      3034      3013      2962
 -1      1777    6    0    1
 -2       603       558      1543      2901       841      2939      2972      3035      3037      3036
 -1      1778    6    0    1
 -2      1567      2895      2849      2904      3038      3039      3040      3041      3043      3042
 -1      1779    6    0    1
 -2       566      1343       565      2878      3044      2948       821      3045      2949      2950
 -1      1780    6    0    1
 -2       519      2857      2836      2869      3046      2994      3047      3048      2999      2997
 -1      1781    6    0    1
 -2       592      1378      1352      1360      3049      1532      2927      3050      1531      1530
 -1      1782    6    0    1
 -2      1543       558      1075      1574      2939      2937      2938      1630      3052      3051
 -1      1783    6    0    1
 -2       511        40       510      2857      2750      2751       515      3053      3055      3054
 -1      1784    6    0    1
 -2       618      1020      1024      2900      3056      1054      3057      2971      3059      3058
 -1      1785    6    0    1
 -2      1359      1338       605      2905      1466      3014      3015      3060      3062      3061
 -1      1786    6    0    1
 -2       586       592      1352      2855       960      2927      2932      2933      2926      2925
 -1      1787    6    0    1
 -2      2332      2326      2200      2212      2400      3063      2910      2911      3064      2284
 -1      1788    6    0    1
 -2      2314      2332      2326      2200      2401      2400      2399      3065      2910      3063
 -1      1789    6    0    1
 -2       519      2868      2857      2869      3066      3067      3046      3048      3068      2999
 -1      1790    6    0    1
 -2       628      2859       597      2879      3069      3070       828      3071      3073      3072
 -1      1791    6    0    1
 -2       255        26      2840      2862       257      3074      3000      3003      3075      3005
 -1      1792    6    0    1
 -2      2836      2846      2607      2857      3076      3077      2996      2994      3078      2995
 -1      1793    6    0    1
 -2      2327      2322      2332      2213      2404      2425      2402      3079      3080      2924
 -1      1794    6    0    1
 -2      1966      2833      2831      2844      3081      3082      3033      3034      3083      3013
 -1      1795    6    0    1
 -2      1378       586       592      1352      3084       960      3049      1532      2932      2927
 -1      1796    6    0    1
 -2      1366      2855      1350      2894      2934      3085      1525      2957      3087      3086
 -1      1797    6    0    1
 -2      1351      2855      1371      2900      3088      3031      1526      3089      2930      3032
 -1      1798    6    0    1
 -2      1361      2861       568      2893      3020      3019      3021      3090      3092      3091
 -1      1799    6    0    1
 -2       597      2859      1360      2879      3070      3093      3094      3072      3073      3095
 -1      1800    6    0    1
 -2      2326      2212      2215      2906      3064      2301      2942      2944      3096      2943
 -1      1801    6    0    1
 -2       519       420      2857      2868      2727      3097      3046      3066      3098      3067
 -1      1802    6    0    1
 -2      2849      2895       596      2904      3039      3099      3100      3042      3043      3101
 -1      1803    6    0    1
 -2      2325      2212      2200      2326      3028      2284      3029      2398      3064      3063
 -1      1804    6    0    1
 -2      2314      2326      2325      2200      2399      2398      2386      3065      3063      3029
 -1      1805    6    0    1
 -2       592      2855       622      2900      2926      3102       962      2929      2930      3103
 -1      1806    6    0    1
 -2       566       565      1343      2893       821      2948      3044      3104      3106      3105
 -1      1807    6    0    1
 -2      1963      1975       400      2835      1992      3107      3025      2967      3108      3027
 -1      1808    6    0    1
 -2      2831      2857       420      2868      3109      3097      3110      3111      3067      3098
 -1      1809    6    0    1
 -2       410      2857      2831      2868      3112      3109      3113      3114      3067      3111
 -1      1810    6    0    1
 -2        23      2839      2837      2847      3115      3116      3117      3118      3120      3119
 -1      1811    6    0    1
 -2      2837      2839      1227      2847      3116      3121      3122      3119      3120      3123
 -1      1812    6    0    1
 -2        23       246      2839      2845       247      3124      3115      3125      3127      3126
 -1      1813    6    0    1
 -2      2837      2840        26      2862      3128      3074      3129      3130      3005      3075
 -1      1814    6    0    1
 -2       633       565      2856      2878       859      2947      3131      3132      2950      2951
 -1      1815    6    0    1
 -2       558      1073      1075      1574      3133      1099      2937      3052      3134      3051
 -1      1816    6    0    1
 -2      1378      1380      1359      2905      1537      1469      1542      3135      3136      3060
 -1      1817    6    0    1
 -2      1371      1351      1352      2855      1526      1522      1527      3031      3088      2925
 -1      1818    6    0    1
 -2       519      2846      2836      2857      3137      3076      3047      3046      3078      2994
 -1      1819    6    0    1
 -2      1226      2840      2837      2862      3138      3128      3139      3140      3005      3130
 -1      1820    6    0    1
 -2      1026      2859       627      2879      3141      3142      3143      3144      3073      3145
 -1      1821    6    0    1
 -2      1967      2834      2833      2844      3146      3147      3148      3149      3150      3083
 -1      1822    6    0    1
 -2       422      2443      1861      2850      3151      3152      3153      3154      3156      3155
 -1      1823    6    0    1
 -2      2857      2868       510      2869      3067      3157      3054      2999      3068      3158
 -1      1824    6    0    1
 -2      1861      2833      2443      2881      3159      3160      3152      3161      3163      3162
 -1      1825    6    0    1
 -2      2200      2327      2332      2213      3164      2402      2910      2275      3079      2924
 -1      1826    6    0    1
 -2      1958      1973      2078      2832      1998      3165      3166      3167      3169      3168
 -1      1827    6    0    1
 -2       586       585       592      2855       898       961       960      2933      3170      2926
 -1      1828    6    0    1
 -2      1129      1125      1338      2859      1193      3006      2973      2975      3008      2914
 -1      1829    6    0    1
 -2      1971      2832      1958      2887      3171      3167      2029      3172      3174      3173
 -1      1830    6    0    1
 -2       646       622      2864      2900       788      3175      2918      2922      3103      2921
 -1      1831    6    0    1
 -2       618      1340      1020      2900      2970      3176      3056      2971      2920      3059
 -1      1832    6    0    1
 -2      1861      2443        42      2881      3152      2469      3177      3161      3162      3178
 -1      1833    6    0    1
 -2       566      2864      1361      2878      3179      3023      3180      3045      3182      3181
 -1      1834    6    0    1
 -2       597      1359      1360      2859      3183      1539      3094      3070      2916      3093
 -1      1835    6    0    1
 -2      2207      2321      2322      2332      3184      2423      3185      2935      2426      2425
 -1      1836    6    0    1
 -2      2855      2864       622      2900      3186      3175      3102      2930      2921      3103
 -1      1837    6    0    1
 -2       571      2848      2861      2894      3187      3188      3189      3190      3192      3191
 -1      1838    6    0    1
 -2      1343      1361       566      2893      1493      3180      3044      3105      3090      3104
 -1      1839    6    0    1
 -2      1864      2831      1860      2835      3193      3194      1886      3195      3011      3196
 -1      1840    6    0    1
 -2      1864      1865      1860      2831      1938      1937      1886      3193      3197      3194
 -1      1841    6    0    1
 -2      1020      1340      1024      2900      3176      3198      1054      3059      2920      3058
 -1      1842    6    0    1
 -2       269      1818      2514      2839      1829      3199      3200      3201      3203      3202
 -1      1843    6    0    1
 -2      2443      2833      1861      2850      3160      3159      3152      3156      3204      3155
 -1      1844    6    0    1
 -2      1365      2861      2848      2894      3205      3188      2990      3206      3191      3192
 -1      1845    6    0    1
 -2       558       632      1566      2901       842      3207      3208      3037      3210      3209
 -1      1846    6    0    1
 -2       628       597       647      2879       828       994       855      3071      3072      3211
 -1      1847    6    0    1
 -2      2326      2332      2207      2212      2400      2935      3212      3064      2911      2313
 -1      1848    6    0    1
 -2      1969      1967      1965      2844      2053      2052      2039      2960      3149      2962
 -1      1849    6    0    1
 -2        38       397      2522      2832       398      2552      2551      3213      3215      3214
 -1      1850    6    0    1
 -2      2327      2332      2314      2200      2402      2401      2389      3164      2910      3065
 -1      1851    6    0    1
 -2      2322      2208      2332      2213      3216      2923      2425      3080      2289      2924
 -1      1852    6    0    1
 -2      2213      2327      2322      2201      3079      2404      3080      2278      3218      3217
 -1      1853    6    0    1
 -2      1864      2831      2835      2857      3193      3011      3195      3219      3109      3220
 -1      1854    6    0    1
 -2       410       510      2857      2868      2752      3054      3112      3114      3157      3067
 -1      1855    6    0    1
 -2      1969      2835      2832      2844      2959      2968      3221      2960      2961      3222
 -1      1856    6    0    1
 -2       592       597      1378      1360       966      3223      3049      3050      3094      1531
 -1      1857    6    0    1
 -2      1361      2864      1349      2878      3023      3224      1504      3181      3182      3225
 -1      1858    6    0    1
 -2      2322      2208      2207      2332      3216      2308      3185      2425      2923      2935
 -1      1859    6    0    1
 -2       560      1026       627      2879      3226      3143       693      3227      3144      3145
 -1      1860    6    0    1
 -2      1567      2875      2895      2904      3228      3229      3038      3041      3230      3043
 -1      1861    6    0    1
 -2      2207      2321      2332      2326      3184      2426      2935      3212      2427      2400
 -1      1862    6    0    1
 -2      2320      2209      2208      2323      3231      2310      3232      2357      3234      3233
 -1      1863    6    0    1
 -2      1129       605       555      1338      3235       781      2974      2973      3014      2913
 -1      1864    6    0    1
 -2        23      2845      2839      2847      3125      3126      3115      3118      3236      3120
 -1      1865    6    0    1
 -2      1361       566       568      2864      3180       868      3021      3023      3179      3022
 -1      1866    6    0    1
 -2      2209      2221      2208      2323      2304      2292      2310      3234      3010      3233
 -1      1867    6    0    1
 -2      2323      2221      2335      2318      3010      2986      2419      2354      3017      2418
 -1      1868    6    0    1
 -2      2209      2320       260      2323      3231      3237      2238      3234      2357      3238
 -1      1869    6    0    1
 -2      2315      2328      2221      2201      2395      2982      2987      3239      2983      2291
 -1      1870    6    0    1
 -2      2320       237       260      2323      2355      3240      3237      2357      2353      3238
 -1      1871    6    0    1
 -2      2316       262       261       239      3241       267      3242      2359      3244      3243
 -1      1872    6    0    1
 -2      1362      1377      1340      2900      1482      1479      1481      2980      3245      2920
 -1      1873    6    0    1
 -2      1964      2835      2831      2857      3246      3011      3247      3248      3220      3109
 -1      1874    6    0    1
 -2      1967      2832      2834      2844      3249      3250      3146      3149      3222      3150
 -1      1875    6    0    1
 -2      2529        39      1963      2832      2555      3251      2965      2963      3252      2964
 -1      1876    6    0    1
 -2      2326      2207      2215      2212      3212      2297      2942      3064      2313      2301
 -1      1877    6    0    1
 -2       565      1224      1343      2893      3253      3254      2948      3106      3255      3105
 -1      1878    6    0    1
 -2      1366      1378       586      2884      1533      3084      2931      2953      3256      3018
 -1      1879    6    0    1
 -2       591       596      2849      2895       991      3100      3257      3258      3099      3039
 -1      1880    6    0    1
 -2      1378      1359       597      2905      1542      3183      3223      3135      3060      3259
 -1      1881    6    0    1
 -2       618       547       646      2900       704       786       785      2971      3260      2922
 -1      1882    6    0    1
 -2      1075       635      1543      2854      2936      2940      2938      3261      3263      3262
 -1      1883    6    0    1
 -2      1860      2831      1865      2835      3194      3197      1937      3196      3011      3264
 -1      1884    6    0    1
 -2      1964      1960      2831      2835      1986      3265      3247      3246      3266      3011
 -1      1885    6    0    1
 -2      2315      2221      2322      2201      2987      3009      2403      3239      2291      3217
 -1      1886    6    0    1
 -2      1963      2832      1969      2835      2964      3221      2048      2967      2968      2959
 -1      1887    6    0    1
 -2      1350      1366      1352      2855      1525      1524      1523      3085      2934      2925
 -1      1888    6    0    1
 -2       260       238       237      2320      3267       243      3240      3237      2356      2355
 -1      1889    6    0    1
 -2       593      2873      2849      2904      3268      3269      3270      3271      3272      3042
 -1      1890    6    0    1
 -2      1869      2833      2831      2850      3273      3082      3274      3275      3204      3276
 -1      1891    6    0    1
 -2      1869      2831      2833      2844      3274      3082      3273      3277      3013      3083
 -1      1892    6    0    1
 -2      1361      1345      2861      2893      1415      3278      3020      3090      3279      3092
 -1      1893    6    0    1
 -2      2208      2322      2320      2323      3216      2422      3232      3233      2424      2357
 -1      1894    6    0    1
 -2      2522      1862      2832      2835      3280      3281      3214      3282      3283      2968
 -1      1895    6    0    1
 -2      2322      2221      2323      2208      3009      3010      2424      3216      2292      3233
 -1      1896    6    0    1
 -2      1965      1964      1960      2831      2037      1986      2038      3012      3247      3265
 -1      1897    6    0    1
 -2       555      1359       597      2859      2912      3183       825      2915      2916      3070
 -1      1898    6    0    1
 -2      2327      2315      2322      2201      2392      2403      2404      3218      3239      3217
 -1      1899    6    0    1
 -2      2322      2221      2208      2201      3009      2292      3216      3217      2291      2290
 -1      1900    6    0    1
 -2       592       597       586      1378       966       965       960      3049      3223      3084
 -1      1901    6    0    1
 -2       596      2895      2875      2904      3099      3229      3284      3101      3043      3230
 -1      1902    6    0    1
 -2      2206      2209      2208      2320      2243      2310      2309      3285      3231      3232
 -1      1903    6    0    1
 -2       422      1861      1877      2850      3153      1919      3286      3154      3155      3287
 -1      1904    6    0    1
 -2      2322      2321      2207      2320      2423      3184      3185      2422      2408      3288
 -1      1905    6    0    1
 -2       618      1024       547      2900      3057      3289       704      2971      3058      3260
 -1      1906    6    0    1
 -2       605       597      1359      2905       826      3183      3015      3061      3259      3060
 -1      1907    6    0    1
 -2       239       261      2316       238      3243      3242      2359       244      3290      2358
 -1      1908    6    0    1
 -2      1352      1378       586      1366      1532      3084      2932      1524      1533      2931
 -1      1909    6    0    1
 -2       598       586      1378      2884       967      3084      3291      3292      3018      3256
 -1      1910    6    0    1
 -2      2321      2316      2207      2320      2409      3293      3184      2408      2360      3288
 -1      1911    6    0    1
 -2      2320      2209       260      2206      3231      2238      3237      3285      2243      2242
 -1      1912    6    0    1
 -2       262      2316       261      2202      3241      3242       267      2244      3294      2245
 -1      1913    6    0    1
 -2       607      2843        23      2848      3295      3296      3297      3298      3300      3299
 -1      1914    6    0    1
 -2      1965      2831      1960      2835      3012      3265      2038      2958      3011      3266
 -1      1915    6    0    1
 -2      1966      1965      1967      2844      2025      2052      2051      3034      2962      3149
 -1      1916    6    0    1
 -2       262       239      2316      2903      3244      2359      3241      3301      3303      3302
 -1      1917    6    0    1
 -2      2322      2208      2213      2201      3216      2289      3080      3217      2290      2278
 -1      1918    6    0    1
 -2      2323       260      2209       236      3238      2238      3234      2352      3305      3304
 -1      1919    6    0    1
 -2      2522       390      1862      2835      3306      3307      3280      3282      3308      3283
 -1      1920    6    0    1
 -2      2323       237       260       236      2353      3240      3238      2352       242      3305
 -1      1921    6    0    1
 -2      1577      2854      1543      2901      3309      3262      1672      3310      3311      3036
 -1      1922    6    0    1
 -2       261      2316       238      2320      3242      2358      3290      3312      2360      2356
 -1      1923    6    0    1
 -2      1361      1345      1349      2864      1415      1502      1504      3023      3313      3224
 -1      1924    6    0    1
 -2      1975      1963      1969      2835      1992      2048      2041      3108      2967      2959
 -1      1925    6    0    1
 -2      1129       555      1125      2859      2974      3314      1193      2975      2915      3008
 -1      1926    6    0    1
 -2       262      2219      2843      2903      2225      3315      3316      3301      3318      3317
 -1      1927    6    0    1
 -2       239      2843      2333      2903      3319      3320      2338      3303      3317      3321
 -1      1928    6    0    1
 -2       260       261       238      2320       266      3290      3267      3237      3312      2356
 -1      1929    6    0    1
 -2       566      1361       568      2893      3180      3021       868      3104      3090      3091
 -1      1930    6    0    1
 -2      2202       261      2206      2316      2245      2241      2246      3294      3242      3322
 -1      1931    6    0    1
 -2      2316       261      2206      2320      3242      2241      3322      2360      3312      3285
 -1      1932    6    0    1
 -2      2529      2522       397      2832      2579      2552      2554      2963      3214      3215
 -1      1933    6    0    1
 -2      2078      2072      2058      2832      2190      2189      2154      3168      3324      3323
 -1      1934    6    0    1
 -2       261       260      2206      2320       266      2242      2241      3312      3237      3285
 -1      1935    6    0    1
 -2       607        23      2847      2848      3297      3118      3325      3298      3299      3326
 -1      1936    6    0    1
 -2      2322      2207      2208      2320      3185      2308      3216      2422      3288      3232
 -1      1937    6    0    1
 -2      1587      2885      2899      2907      3327      3328      3329      3330      3332      3331
 -1      1938    6    0    1
 -2      1378       598      2884      2905      3291      3292      3256      3135      3334      3333
 -1      1939    6    0    1
 -2      1969      2832      1967      2844      3221      3249      2053      2960      3222      3149
 -1      1940    6    0    1
 -2        26      2843      2219      2903      3335      3315      2224      3336      3317      3318
 -1      1941    6    0    1
 -2      2333      2843        23      2903      3320      3296      2339      3321      3317      3337
 -1      1942    6    0    1
 -2       597       555       605      1359       825       781       826      3183      2912      3015
 -1      1943    6    0    1
 -2      2211      2212      2325      2216      2285      3028      3030      2307      2303      3338
 -1      1944    6    0    1
 -2       597       598      1378      2905       968      3291      3223      3259      3334      3135
 -1      1945    6    0    1
 -2      1551      2849      1567      2895      3339      3040      1619      3340      3039      3038
 -1      1946    6    0    1
 -2      2207      2206      2208      2320      2295      2309      2308      3288      3285      3232
 -1      1947    6    0    1
 -2       519       420        37      2857      2727       423      2726      3046      3097      3341
 -1      1948    6    0    1
 -2        25      1567      2849      2904      1620      3040      3342      3343      3041      3042
 -1      1949    6    0    1
 -2      1971      2834      2832      2887      3344      3250      3171      3172      3345      3174
 -1      1950    6    0    1
 -2      2207      2202      2206      2316      2294      2246      2295      3293      3294      3322
 -1      1951    6    0    1
 -2      2206      2207      2316      2320      2295      3293      3322      3285      3288      2360
 -1      1952    6    0    1
 -2      1865      2835      2831      2844      3264      3011      3197      3346      2961      3013
 -1      1953    6    0    1
 -2      2204      2214      2221      2318      2306      2293      2305      3347      3016      3017
 -1      1954    6    0    1
 -2      1973      1963      2063      2832      1995      3348      3349      3169      2964      3350
 -1      1955    6    0    1
 -2      2202      2219       262      2903      2247      2225      2244      3351      3318      3301
 -1      1956    6    0    1
 -2      2316       239      2333      2903      2359      2338      2361      3302      3303      3321
 -1      1957    6    0    1
 -2      2214      2328      2603      2201      2981      3352      3353      2281      2983      3354
 -1      1958    6    0    1
 -2      2880      2883       238      2894      3355      3356      3357      3358      3360      3359
 -1      1959    6    0    1
 -2      2529       397        39      2832      2554       399      2555      2963      3215      3252
 -1      1960    6    0    1
 -2      2529      2522      2832      2835      2579      3214      2963      2966      3282      2968
 -1      1961    6    0    1
 -2      2328      2318      2214      2334      2420      3016      2981      2397      2351      3361
 -1      1962    6    0    1
 -2       574      2883      2880      2894      3362      3355      3363      3364      3360      3358
 -1      1963    6    0    1
 -2        23      1815       317      2839      1819      1821       318      3115      3366      3365
 -1      1964    6    0    1
 -2       323      1836        26      2840      1845      1844       324      3367      3368      3074
 -1      1965    6    0    1
 -2      1857      1869      2831      2850      1926      3274      3369      3370      3275      3276
 -1      1966    6    0    1
 -2      1958      2832      2058      2887      3167      3323      3371      3173      3174      3372
 -1      1967    6    0    1
 -2      2316      2202       262      2903      3294      2244      3241      3302      3351      3301
 -1      1968    6    0    1
 -2       238       260       237      2842      3267      3240       243      3373      3375      3374
 -1      1969    6    0    1
 -2      2891      2901       600      2902      3376      3377      3378      3379      3381      3380
 -1      1970    6    0    1
 -2      2833      2844      2834      2881      3083      3150      3147      3163      3383      3382
 -1      1971    6    0    1
 -2      1958      2078      2058      2832      3166      2154      3371      3167      3168      3323
 -1      1972    6    0    1
 -2      1361      2861      1345      2864      3020      3278      1415      3023      3024      3313
 -1      1973    6    0    1
 -2      2063      2078      1973      2832      2199      3165      3349      3350      3168      3169
 -1      1974    6    0    1
 -2      1967      2832      1971      2834      3249      3171      2055      3146      3250      3344
 -1      1975    6    0    1
 -2      2843      2862        26      2873      3384      3075      3335      3385      3387      3386
 -1      1976    6    0    1
 -2       412      2833      2438      2850      3388      3389      3390      3391      3204      3392
 -1      1977    6    0    1
 -2      1966      1967      2833      2844      2051      3148      3081      3034      3149      3083
 -1      1978    6    0    1
 -2       510      2607      2857      2869      2644      2995      3054      3158      2998      2999
 -1      1979    6    0    1
 -2       554      1219       565      2893      3393      3394       735      3395      3396      3106
 -1      1980    6    0    1
 -2      1869      1865      2831      2844      1925      3197      3274      3277      3346      3013
 -1      1981    6    0    1
 -2       259      2209       260       236      2239      2238       265      3397      3304      3305
 -1      1982    6    0    1
 -2      1815        23       246      2839      1819       247      1820      3366      3115      3124
 -1      1983    6    0    1
 -2       255        26      1836      2840       257      1844      1843      3000      3074      3368
 -1      1984    6    0    1
 -2      2432      2436      2780      2898      2495      3398      3399      3400      3402      3401
 -1      1985    6    0    1
 -2       564       627        56      2859       864      2978      2977      3403      3142      3404
 -1      1986    6    0    1
 -2       585       586       572      2855       898       897       887      3170      2933      3405
 -1      1987    6    0    1
 -2       237       260       236      2863      3240      3305       242      3406      3408      3407
 -1      1988    6    0    1
 -2       591      2875       596      2895      3409      3284       991      3258      3229      3099
 -1      1989    6    0    1
 -2      1968      2833      1967      2834      3410      3148      2054      3411      3147      3146
 -1      1990    6    0    1
 -2      2330      2212      2325      2326      3412      3028      2421      2417      3064      2398
 -1      1991    6    0    1
 -2       420      2831        37      2857      3110      3413       423      3097      3109      3341
 -1      1992    6    0    1
 -2      2200      2617      2327      2213      3414      3415      3164      2275      3416      3079
 -1      1993    6    0    1
 -2       410        40      2831      2857       413      3417      3113      3112      3055      3109
 -1      1994    6    0    1
 -2      1565      2901      2891      2902      3418      3376      3419      3420      3381      3379
 -1      1995    6    0    1
 -2        38      2522      1862      2832      2551      3280      3421      3213      3214      3281
 -1      1996    6    0    1
 -2      2775      2871      2886      2898      3422      3423      3424      3425      3427      3426
 -1      1997    6    0    1
 -2      2842      2880       574      2883      3428      3363      3429      3430      3355      3362
 -1      1998    6    0    1
 -2       238      2880      2842      2883      3357      3428      3373      3356      3355      3430
 -1      1999    6    0    1
 -2       295      2870      2836      2897      3431      3432      3433      3434      3436      3435
 -1      2000    6    0    1
 -2      2323      2209      2221      2318      3234      2304      3010      2354      3437      3017
 -1      2001    6    0    1
 -2       410       510        40      2857      2752      2751       413      3112      3054      3055
 -1      2002    6    0    1
 -2       260       238       261      2842      3267      3290       266      3375      3373      3438
 -1      2003    6    0    1
 -2        23      2843       607      2847      3296      3295      3297      3118      3439      3325
 -1      2004    6    0    1
 -2      1875      2834      2844      2881      3440      3150      3441      3442      3382      3383
 -1      2005    6    0    1
 -2      2325      2200      2211      2608      3029      2272      3030      3443      3445      3444
 -1      2006    6    0    1
 -2      1224       565      1219      2893      3253      3394      1300      3255      3106      3396
 -1      2007    6    0    1
 -2      1969      1965      1960      2835      2039      2038      2040      2959      2958      3266
 -1      2008    6    0    1
 -2      1867      2844      2833      2881      3446      3083      3447      3448      3383      3163
 -1      2009    6    0    1
 -2       580      2899      2885      2907      3449      3328      3450      3451      3331      3332
 -1      2010    6    0    1
 -2       619      2884      2883      2894      2954      3452      3453      2955      2956      3360
 -1      2011    6    0    1
 -2      2314      2617      2327      2200      3454      3415      2389      3065      3414      3164
 -1      2012    6    0    1
 -2      1363      1361      1349      2878      1492      1504      1519      3455      3181      3225
 -1      2013    6    0    1
 -2      1073      1574       558      2866      3134      3052      3133      3456      3458      3457
 -1      2014    6    0    1
 -2      2883      2884      1366      2894      3452      2953      3459      3360      2956      2957
 -1      2015    6    0    1
 -2       566       565       633      2878       821       859       866      3045      2950      3132
 -1      2016    6    0    1
 -2      1864      2835       392      2857      3195      3460      3461      3219      3220      3462
 -1      2017    6    0    1
 -2      2831      2833      1966      2850      3082      3081      3033      3276      3204      3463
 -1      2018    6    0    1
 -2      1368      2859      1367      2879      3464      3465      1419      3466      3073      3467
 -1      2019    6    0    1
 -2      2214      2328      2612      2603      2981      3468      3469      3353      3352      2678
 -1      2020    6    0    1
 -2       597      1359      1378      1360      3183      1542      3223      3094      1539      1531
 -1      2021    6    0    1
 -2      2209      2323       236      2318      3234      2352      3304      3437      2354      2348
 -1      2022    6    0    1
 -2      1359      1380      1338      2905      1469      1468      1466      3060      3136      3062
 -1      2023    6    0    1
 -2       239      2848      2843      2880      3470      3300      3319      3471      2992      3472
 -1      2024    6    0    1
 -2       609      2862      2843      2873      3473      3384      3474      3475      3387      3385
 -1      2025    6    0    1
 -2      2839      2845      1230      2847      3126      3476      3477      3120      3236      3478
 -1      2026    6    0    1
 -2      1869      1865      1857      2831      1925      1924      1926      3274      3197      3369
 -1      2027    6    0    1
 -2      1379      2843       239      2848      3479      3319      1407      3480      3300      3470
 -1      2028    6    0    1
 -2      1567      1551        25      2849      1619      1618      1620      3040      3339      3342
 -1      2029    6    0    1
 -2       597       598       586      1378       968       967       965      3223      3291      3084
 -1      2030    6    0    1
 -2       596       593      2849      2904       990      3270      3100      3101      3271      3042
 -1      2031    6    0    1
 -2      1864      1860       392      2835      1886      3481      3461      3195      3196      3460
 -1      2032    6    0    1
 -2      1023      1367      2859      2879      3482      3465      3483      3484      3467      3073
 -1      2033    6    0    1
 -2      1230      1227      2839      2847      1328      3121      3477      3478      3123      3120
 -1      2034    6    0    1
 -2       262      2843       239      2903      3316      3319      3244      3301      3317      3303
 -1      2035    6    0    1
 -2      2849      2873        25      2904      3269      3485      3342      3042      3272      3343
 -1      2036    6    0    1
 -2        24      2861      1345      2893      3486      3278      1412      3487      3092      3279
 -1      2037    6    0    1
 -2      1867      2833      1878      2881      3447      3488      1956      3448      3163      3489
 -1      2038    6    0    1
 -2       412      1961      2438      2833      3490      3491      3390      3388      3492      3389
 -1      2039    6    0    1
 -2      2843      2848       611      2880      3300      2989      3493      3472      2992      2993
 -1      2040    6    0    1
 -2      1379        23      2843      2848      1406      3296      3479      3480      3299      3300
 -1      2041    6    0    1
 -2      1226      1231      2840      2862      1332      3494      3138      3140      3495      3005
 -1      2042    6    0    1
 -2       259       236       260      2863      3397      3305       265      3496      3407      3408
 -1      2043    6    0    1
 -2      1365      2848       239      2880      2990      3470      1456      2991      2992      3471
 -1      2044    6    0    1
 -2       252       255      2840      2841      3497      3000      3498      3499      3002      3001
 -1      2045    6    0    1
 -2       567      2861      2848      2893      3500      3188      3501      3502      3092      3503
 -1      2046    6    0    1
 -2      1231      2841      2840      2862      3504      3001      3494      3495      3004      3005
 -1      2047    6    0    1
 -2      2515      2846       521      2888      3505      3506      3507      3508      3510      3509
 -1      2048    6    0    1
 -2      1875      2844      1867      2881      3441      3446      1955      3442      3383      3448
 -1      2049    6    0    1
 -2      1957      2831      1966      2850      3511      3033      2024      3512      3276      3463
 -1      2050    6    0    1
 -2      1964       402      2835      2857      3513      3514      3246      3248      3515      3220
 -1      2051    6    0    1
 -2      2200      2325      2314      2608      3029      2386      3065      3445      3443      3516
 -1      2052    6    0    1
 -2      2204      2221      2209      2318      2305      2304      2240      3347      3017      3437
 -1      2053    6    0    1
 -2       261       239       262      2880      3243      3244       267      3517      3471      3518
 -1      2054    6    0    1
 -2      1969      1978      1967      2832      2049      2056      2053      3221      3519      3249
 -1      2055    6    0    1
 -2       417      2443      2833      2881      2468      3160      3520      3521      3162      3163
 -1      2056    6    0    1
 -2      1860      2835      1865      2844      3196      3264      1937      3522      2961      3346
 -1      2057    6    0    1
 -2      1585      2843        26      2873      3523      3335      1622      3524      3385      3386
 -1      2058    6    0    1
 -2      1372      1361      1343      2893      1416      1493      1445      3525      3090      3105
 -1      2059    6    0    1
 -2      2524       521      2515      2846      3526      3507      2595      3527      3506      3505
 -1      2060    6    0    1
 -2      1368      1358      1367      2859      1541      1485      1419      3464      3528      3465
 -1      2061    6    0    1
 -2        39      2063      1963      2832      2098      3348      3251      3252      3350      2964
 -1      2062    6    0    1
 -2        27      2853      2852      2903      3529      3530      3531      3532      3534      3533
 -1      2063    6    0    1
 -2        26        23      2843      2903      3535      3296      3335      3336      3337      3317
 -1      2064    6    0    1
 -2      2063      2072      2078      2832      2197      2190      2199      3350      3324      3168
 -1      2065    6    0    1
 -2      1968      2833      2834      2867      3410      3147      3411      3536      3538      3537
 -1      2066    6    0    1
 -2      1026        56       649       627      1029      2976      3539      3143      2978       695
 -1      2067    6    0    1
 -2      1967      1978      1971      2832      2056      2032      2055      3249      3519      3171
 -1      2068    6    0    1
 -2      1587      2899      1545      2907      3329      3540      1683      3330      3331      3541
 -1      2069    6    0    1
 -2       417        42      2443      2881       418      2469      2468      3521      3178      3162
 -1      2070    6    0    1
 -2      2209       259      2204      2318      2239      2233      2240      3437      3542      3347
 -1      2071    6    0    1
 -2      1355      1378      2884      2905      1536      3256      3543      3544      3135      3333
 -1      2072    6    0    1
 -2      1366      1355      1378      2884      1535      1536      1533      2953      3543      3256
 -1      2073    6    0    1
 -2      1344      2848      1365      2861      3545      2990      1499      3546      3188      3205
 -1      2074    6    0    1
 -2      2213      2609      2327      2201      3547      3548      3079      2278      3549      3218
 -1      2075    6    0    1
 -2      2214      2328      2334      2612      2981      2397      3361      3469      3468      3550
 -1      2076    6    0    1
 -2       615      2863      2838      2877      3551      3552      3553      3554      3556      3555
 -1      2077    6    0    1
 -2      1356      1024      1340      2900      3557      3198      1428      3558      3058      2920
 -1      2078    6    0    1
 -2      1587      1571      2885      2907      1684      3559      3327      3330      3560      3332
 -1      2079    6    0    1
 -2       259      2209       236      2318      2239      3304      3397      3542      3437      2348
 -1      2080    6    0    1
 -2      1343      1224       565      2856      3254      3253      2948      2946      3561      2947
 -1      2081    6    0    1
 -2        41       417      2438      2833       419      2466      2465      3562      3520      3389
 -1      2082    6    0    1
 -2      1023      2859      1026      2879      3483      3141      1045      3484      3073      3144
 -1      2083    6    0    1
 -2        41      2438      1961      2833      2465      3491      3563      3562      3389      3492
 -1      2084    6    0    1
 -2       420      2868       519      2869      3098      3066      2727      3564      3068      3048
 -1      2085    6    0    1
 -2      1867      1878      1875      2881      1956      1936      1955      3448      3489      3442
 -1      2086    6    0    1
 -2      1379       239      1365      2848      1407      1456      1459      3480      3470      2990
 -1      2087    6    0    1
 -2      1573        62      1580      2866      3565      3566      1593      3567      3569      3568
 -1      2088    6    0    1
 -2        24      2848      2861      2893      3570      3188      3486      3487      3503      3092
 -1      2089    6    0    1
 -2       575      2842       574      2883      3571      3429       900      3572      3430      3362
 -1      2090    6    0    1
 -2       239       261       238      2880      3243      3290       244      3471      3517      3357
 -1      2091    6    0    1
 -2      2211      2319      2325      2616      3573      2383      3030      3574      3576      3575
 -1      2092    6    0    1
 -2       412      1961      2833      2850      3490      3492      3388      3391      3577      3204
 -1      2093    6    0    1
 -2      2603      2328      2315      2201      3352      2395      3578      3354      2983      3239
 -1      2094    6    0    1
 -2      2852      2853      2837      2903      3530      3579      3580      3533      3534      3581
 -1      2095    6    0    1
 -2       609      2843       581      2873      3474      3582       940      3475      3385      3583
 -1      2096    6    0    1
 -2       571      2848       569      2861      3187      3584       880      3189      3188      3585
 -1      2097    6    0    1
 -2       568      2861       567      2893      3019      3500       867      3091      3092      3502
 -1      2098    6    0    1
 -2      2212      2330      2325      2216      3412      2421      3028      2303      3586      3338
 -1      2099    6    0    1
 -2      1077      1574      1073      2866      3587      3134      1112      3588      3458      3456
 -1      2100    6    0    1
 -2        41      2833      1961      2867      3562      3492      3563      3589      3538      3590
 -1      2101    6    0    1
 -2       573      2883       574      2894      3591      3362       893      3592      3360      3364
 -1      2102    6    0    1
 -2       581      2873      2843      2907      3583      3385      3582      3593      3595      3594
 -1      2103    6    0    1
 -2      2064      2834      1874      2881      3596      3597      3598      3599      3382      3600
 -1      2104    6    0    1
 -2      1370      2864      1340      2878      3601      2919      1476      3602      3182      3603
 -1      2105    6    0    1
 -2      1862       390      1873      2835      3307      3604      1892      3283      3308      3605
 -1      2106    6    0    1
 -2       616      2885      2849      2907      3606      3607      3608      3609      3332      3610
 -1      2107    6    0    1
 -2      1964       402      1960      2835      3513      3611      1986      3246      3514      3266
 -1      2108    6    0    1
 -2       607       611      2843      2848      1003      3493      3295      3298      2989      3300
 -1      2109    6    0    1
 -2       274      2836      2872      2892      3612      3613      3614      3615      3617      3616
 -1      2110    6    0    1
 -2       571       574      2880      2894       892      3363      3618      3190      3364      3358
 -1      2111    6    0    1
 -2      2326      2330      2212      2906      2417      3412      3064      2944      3619      3096
 -1      2112    6    0    1
 -2      2607      2621      2622      2836      2719      2687      2714      2996      3621      3620
 -1      2113    6    0    1
 -2      1023      1368      1367      2879      3622      1419      3482      3484      3466      3467
 -1      2114    6    0    1
 -2        39       397      2063      2832       399      2099      2098      3252      3215      3350
 -1      2115    6    0    1
 -2       654      2879       592      2900      3623      3624       996      3625      3626      2929
 -1      2116    6    0    1
 -2      1343      1224      1372      2893      3254      3627      1445      3105      3255      3525
 -1      2117    6    0    1
 -2      1228      2839      2837      2853      3628      3116      3629      3630      3631      3579
 -1      2118    6    0    1
 -2      2315      2327      2609      2201      2392      3548      3632      3239      3218      3549
 -1      2119    6    0    1
 -2      1573      1580      1547      2866      1593      1597      1693      3567      3568      3633
 -1      2120    6    0    1
 -2      2837      2840      1229      2852      3128      3634      3635      3580      3637      3636
 -1      2121    6    0    1
 -2        23      2333       239      2843      2339      2338       245      3296      3320      3319
 -1      2122    6    0    1
 -2        26       262      2219      2843       268      2225      2224      3335      3316      3315
 -1      2123    6    0    1
 -2      1355      1380      1378      2905      1507      1537      1536      3544      3136      3135
 -1      2124    6    0    1
 -2      1973      1958      1978      2832      1998      2031      2033      3169      3167      3519
 -1      2125    6    0    1
 -2       274      2836      2870      2872      3612      3432      3638      3614      3613      3639
 -1      2126    6    0    1
 -2      1373      1367      1341      2859      1390      1486      1386      3640      3465      3641
 -1      2127    6    0    1
 -2       651       600      2901      2902      1005      3377      3642      3643      3380      3381
 -1      2128    6    0    1
 -2      1966      1957      1965      2831      2024      2026      2025      3033      3511      3012
 -1      2129    6    0    1
 -2      1358      1360      2859      2879      1540      3093      3528      3644      3095      3073
 -1      2130    6    0    1
 -2      1340       618      1020      2878      2970      3056      3176      3603      3646      3645
 -1      2131    6    0    1
 -2       595      2847      2845      2848      3647      3236      3648      3649      3326      3650
 -1      2132    6    0    1
 -2      1227      2837      1228      2839      3122      3629      1324      3121      3116      3628
 -1      2133    6    0    1
 -2      1226      1229      2837      2840      1323      3635      3139      3138      3634      3128
 -1      2134    6    0    1
 -2      1969      1963      1978      2832      2048      2050      2049      3221      2964      3519
 -1      2135    6    0    1
 -2      2220      2214      2318      2334      2283      3016      3651      3652      3361      2351
 -1      2136    6    0    1
 -2      2220      2214      2204      2318      2283      2306      2237      3651      3016      3347
 -1      2137    6    0    1
 -2       317      2837      2839      2853      3653      3116      3365      3654      3579      3631
 -1      2138    6    0    1
 -2       323      2840      2837      2852      3367      3128      3655      3656      3637      3580
 -1      2139    6    0    1
 -2      1347      2861      1365      2894      3657      3205      1498      3658      3191      3206
 -1      2140    6    0    1
 -2      1875      1874      2834      2881      1935      3597      3440      3442      3600      3382
 -1      2141    6    0    1
 -2      1573      1574      1077      2866      1627      3587      3659      3567      3458      3588
 -1      2142    6    0    1
 -2      1973      1978      1963      2832      2033      2050      1995      3169      3519      2964
 -1      2143    6    0    1
 -2        68      1547      1580      2866      3660      1597      3661      3662      3633      3568
 -1      2144    6    0    1
 -2       580      2885       616      2907      3450      3606       928      3451      3332      3609
 -1      2145    6    0    1
 -2      1546      2858      1074      2882      3663      3664      3665      3666      3668      3667
 -1      2146    6    0    1
 -2       652      2873       593      2904      3669      3268       998      3670      3272      3271
 -1      2147    6    0    1
 -2      1338      1129       605      2905      2973      3235      3014      3062      3671      3061
 -1      2148    6    0    1
 -2      2437      2436      2432      2898      2482      2495      2512      3672      3402      3400
 -1      2149    6    0    1
 -2      1875      1859      1874      2881      1934      1910      1935      3442      3673      3600
 -1      2150    6    0    1
 -2       653      2854       602      2901      3674      3675      1008      3676      3311      3677
 -1      2151    6    0    1
 -2      1971      1978      1958      2832      2032      2031      2029      3171      3519      3167
 -1      2152    6    0    1
 -2       246       249      2839      2845      3678      3679      3124      3127      3680      3126
 -1      2153    6    0    1
 -2        23       317      2837      2839       318      3653      3117      3115      3365      3116
 -1      2154    6    0    1
 -2       323        26      2837      2840       324      3129      3655      3367      3074      3128
 -1      2155    6    0    1
 -2       560      1023      1026      2879      3681      1045      3226      3227      3484      3144
 -1      2156    6    0    1
 -2       573       575       574      2883       901       900       893      3591      3572      3362
 -1      2157    6    0    1
 -2      1344      1365      1347      2861      1499      1498      1497      3546      3205      3657
 -1      2158    6    0    1
 -2       642       627       564      2859       865       864       663      3682      3142      3403
 -1      2159    6    0    1
 -2      2076      2060        38      2832      2092      2091      2088      3683      3684      3213
 -1      2160    6    0    1
 -2      2838      2863       259      2877      3552      3496      3685      3555      3556      3686
 -1      2161    6    0    1
 -2      1368      1358      2859      2879      1541      3528      3464      3466      3644      3073
 -1      2162    6    0    1
 -2       295      2871      2870      2897      3687      3688      3431      3434      3689      3436
 -1      2163    6    0    1
 -2        62        68      1580      2866       536      3661      3566      3569      3662      3568
 -1      2164    6    0    1
 -2       580      2876      2885      2899      3690      3691      3450      3449      3692      3328
 -1      2165    6    0    1
 -2      2836      2869       295      2897      2997      3693      3433      3435      3694      3434
 -1      2166    6    0    1
 -2       596       593       591      2849       990       958       991      3100      3270      3257
 -1      2167    6    0    1
 -2       571       574       611      2880       892       894       883      3618      3363      2993
 -1      2168    6    0    1
 -2      1074      2858       620      2882      3664      3695      3696      3667      3668      3697
 -1      2169    6    0    1
 -2        23      2837        26      2847      3117      3129      3535      3118      3119      3698
 -1      2170    6    0    1
 -2      1358      1360      1359      2859      1540      1539      1538      3528      3093      2916
 -1      2171    6    0    1
 -2      2836      2870      2774      2897      3432      3699      3700      3435      3436      3701
 -1      2172    6    0    1
 -2      2832      2835      1866      2844      2968      3702      3703      3222      2961      3704
 -1      2173    6    0    1
 -2       607      2847       595      2848      3325      3647       798      3298      3326      3649
 -1      2174    6    0    1
 -2      2070        41      1961      2867      2105      3563      3705      3706      3589      3590
 -1      2175    6    0    1
 -2      2515       521      2513      2888      3507      3707      2593      3508      3509      3708
 -1      2176    6    0    1
 -2      2436      2871      2780      2898      3709      3710      3398      3402      3427      3401
 -1      2177    6    0    1
 -2      1351      1377      2855      2900      1528      3711      3088      3089      3245      2930
 -1      2178    6    0    1
 -2      1871      2060      2076      2832      3712      2092      3713      3714      3684      3683
 -1      2179    6    0    1
 -2      2064      2073      1874      2834      2137      3715      3598      3596      3716      3597
 -1      2180    6    0    1
 -2      1977      1964      1965      2831      1983      2037      2027      3717      3247      3012
 -1      2181    6    0    1
 -2        62       629       638      2866      3718       672      3719      3569      3721      3720
 -1      2182    6    0    1
 -2       252      2840      1231      2841      3498      3494      3722      3499      3001      3504
 -1      2183    6    0    1
 -2      1074      2854      1546      2882      3723      3724      3665      3667      3725      3666
 -1      2184    6    0    1
 -2      1345      2848      1344      2861      3726      3545      1413      3278      3188      3546
 -1      2185    6    0    1
 -2      2849      2885      1571      2907      3607      3559      3727      3610      3332      3560
 -1      2186    6    0    1
 -2        41      2438       412      1961      2465      3390       416      3563      3491      3490
 -1      2187    6    0    1
 -2      2845      2847        23      2848      3236      3118      3125      3650      3326      3299
 -1      2188    6    0    1
 -2      1587      1545      1571      2907      1683      1669      1684      3330      3541      3560
 -1      2189    6    0    1
 -2       615      2877      2838      2896      3554      3555      3553      3728      3730      3729
 -1      2190    6    0    1
 -2       246      2845        23      2848      3127      3125       247      3731      3650      3299
 -1      2191    6    0    1
 -2       643      2858      2875      2895      3732      3733      3734      3735      3736      3229
 -1      2192    6    0    1
 -2      1224      1219      1372      2893      1300      3737      3627      3255      3396      3525
 -1      2193    6    0    1
 -2      2076        38      1862      2832      2088      3421      3738      3683      3213      3281
 -1      2194    6    0    1
 -2      2524      2846      2515      2892      3527      3505      2595      3739      3741      3740
 -1      2195    6    0    1
 -2        40      1964      1977      2831      3742      1983      3743      3417      3247      3717
 -1      2196    6    0    1
 -2        50        56      1373      2859       531      3744      3745      3746      3404      3640
 -1      2197    6    0    1
 -2        26      1585       262      2843      1622      1624       268      3335      3523      3316
 -1      2198    6    0    1
 -2      1379        23       239      2843      1406       245      1407      3479      3296      3319
 -1      2199    6    0    1
 -2      1862      1866      2832      2835      1945      3703      3281      3283      3702      2968
 -1      2200    6    0    1
 -2      2775      2871      2870      2886      3422      3688      3747      3424      3423      3748
 -1      2201    6    0    1
 -2      2870      2872      2776      2886      3639      3749      3750      3748      3752      3751
 -1      2202    6    0    1
 -2        27      2852        31      2903      3531      3753      3754      3532      3533      3755
 -1      2203    6    0    1
 -2       323      2852      2837      2903      3656      3580      3655      3756      3533      3581
 -1      2204    6    0    1
 -2       317      2837      2853      2903      3653      3579      3654      3757      3581      3534
 -1      2205    6    0    1
 -2      1564      1574      1573      2866      1751      1627      1694      3758      3458      3567
 -1      2206    6    0    1
 -2       621       609       581      2873       941       940       942      3759      3475      3583
 -1      2207    6    0    1
 -2      1857      1877      1869      2850      1922      1928      1926      3370      3287      3275
 -1      2208    6    0    1
 -2      1128      2890       613      2905      3760      3761      3762      3763      3765      3764
 -1      2209    6    0    1
 -2      2621      2622      2836      2846      2687      3620      3621      3766      3767      3076
 -1      2210    6    0    1
 -2        50      1373      1341      2859      3745      1386      3768      3746      3640      3641
 -1      2211    6    0    1
 -2        23        26      2843      2847      3535      3335      3296      3118      3698      3439
 -1      2212    6    0    1
 -2      1862      1871      2076      2832      1895      3713      3738      3281      3714      3683
 -1      2213    6    0    1
 -2      2204       259       258      2318      2233       264      2234      3347      3542      3769
 -1      2214    6    0    1
 -2       269      2839      2514      2889      3201      3202      3200      3770      3772      3771
 -1      2215    6    0    1
 -2       236       258       259      2318      3773       264      3397      2348      3769      3542
 -1      2216    6    0    1
 -2        56        50       564      2859       531      3774      2977      3404      3746      3403
 -1      2217    6    0    1
 -2       269      1816      1818      2839      1825      1832      1829      3201      3775      3203
 -1      2218    6    0    1
 -2        68        62       638      2866       536      3719      3776      3662      3569      3720
 -1      2219    6    0    1
 -2      2212      2330      2216      2906      3412      3586      2303      3096      3619      3777
 -1      2220    6    0    1
 -2        38      2060       397      2832      2091      2090       398      3213      3684      3215
 -1      2221    6    0    1
 -2       548       635      1072      2854       745      3778      3779      3780      3263      3781
 -1      2222    6    0    1
 -2      1875      2834      1868      2844      3440      3782      1950      3441      3150      3783
 -1      2223    6    0    1
 -2      1862      2522        38       390      3280      2551      3421      3307      3306       393
 -1      2224    6    0    1
 -2      1074       620      2854      2882      3696      3784      3723      3667      3697      3725
 -1      2225    6    0    1
 -2      1865      1864      1876      2831      1938      1883      1927      3197      3193      3785
 -1      2226    6    0    1
 -2      1976      2070      1961      2867      3786      3705      2016      3787      3706      3590
 -1      2227    6    0    1
 -2      2776      2886      2872      2889      3751      3752      3749      3788      3790      3789
 -1      2228    6    0    1
 -2      1876      1864        37      2831      1883      3791      3792      3785      3193      3413
 -1      2229    6    0    1
 -2      2072      2058      2832      2887      2189      3323      3324      3793      3372      3174
 -1      2230    6    0    1
 -2       578      2899       580      2907      3794      3449       925      3795      3331      3451
 -1      2231    6    0    1
 -2      2514      2839      2527      2889      3202      3796      2598      3771      3772      3797
 -1      2232    6    0    1
 -2      1583      2901      1565      2902      3798      3418      1752      3799      3381      3420
 -1      2233    6    0    1
 -2        37      2831      1864      2857      3413      3193      3791      3341      3109      3219
 -1      2234    6    0    1
 -2       249      1230      1218      2839      3800      1254      3801      3679      3477      3802
 -1      2235    6    0    1
 -2      1964      2831        40      2857      3247      3417      3742      3248      3109      3055
 -1      2236    6    0    1
 -2      1217      1231       252      2840      1270      3722      3803      3804      3494      3498
 -1      2237    6    0    1
 -2       259      2838       236      2863      3685      3805      3397      3496      3552      3407
 -1      2238    6    0    1
 -2      1868      2844      2834      2887      3783      3150      3782      3806      3807      3345
 -1      2239    6    0    1
 -2      2443      2438      2833      2850      2491      3389      3160      3156      3392      3204
 -1      2240    6    0    1
 -2      2331       294       272       273      3808      3809      2362      2363      3810       277
 -1      2241    6    0    1
 -2       565       566       554      2893       821       820       735      3106      3104      3395
 -1      2242    6    0    1
 -2      1136      2838      1131      2896      3811      3812      1213      3813      3729      3814
 -1      2243    6    0    1
 -2      2527      1235       221      2839      3815      1261      3816      3796      3818      3817
 -1      2244    6    0    1
 -2      2314      2606      2200      2608      3819      3820      3065      3516      2667      3445
 -1      2245    6    0    1
 -2       627      1026        56      2859      3143      1029      2978      3142      3141      3404
 -1      2246    6    0    1
 -2      2617      2314      2606      2200      3454      3819      2670      3414      3065      3820
 -1      2247    6    0    1
 -2       219      2775      2886      2898      2794      3424      3821      3822      3425      3426
 -1      2248    6    0    1
 -2      2318       258      2220      2334      3769      2235      3651      2351      3823      3652
 -1      2249    6    0    1
 -2      2204       258      2220      2318      2234      2235      2237      3347      3769      3651
 -1      2250    6    0    1
 -2      1966      1967      1968      2833      2051      2054      2043      3081      3148      3410
 -1      2251    6    0    1
 -2       412      1974      1961      2850      3824      2019      3490      3391      3825      3577
 -1      2252    6    0    1
 -2      2854      2865       602      2901      3826      3827      3675      3311      3828      3677
 -1      2253    6    0    1
 -2      1970      2067      2834      2887      3829      3830      3831      3832      3833      3345
 -1      2254    6    0    1
 -2       592       622       654      2900       962       789       996      2929      3103      3625
 -1      2255    6    0    1
 -2      2220      2214      2334      2612      2283      3361      3652      3834      3469      3550
 -1      2256    6    0    1
 -2       621      2862       609      2873      3835      3473       941      3759      3387      3475
 -1      2257    6    0    1
 -2      1546      1071      1074      2858      3836      1108      3665      3663      3837      3664
 -1      2258    6    0    1
 -2      1857      2831       420      2850      3369      3110      3838      3370      3276      3839
 -1      2259    6    0    1
 -2      1128       613       551      2905      3762       775      3840      3763      3764      3841
 -1      2260    6    0    1
 -2      1351      1377      1362      2855      1528      1482      1518      3088      3711      3842
 -1      2261    6    0    1
 -2      1370      1362      1340      2864      1480      1481      1476      3601      2979      2919
 -1      2262    6    0    1
 -2      1860      1865      1866      2844      1937      1940      1939      3522      3346      3704
 -1      2263    6    0    1
 -2      2833      2867       417      2881      3538      3843      3520      3163      3844      3521
 -1      2264    6    0    1
 -2      1559      1071      1546      2858      3845      3836      1639      3846      3837      3663
 -1      2265    6    0    1
 -2      1957       410      1977      2831      3847      3848      2023      3511      3113      3717
 -1      2266    6    0    1
 -2      1350      1347      1381      2855      1511      1513      1512      3085      3850      3849
 -1      2267    6    0    1
 -2       410      2831      1957      2850      3113      3511      3847      3851      3276      3512
 -1      2268    6    0    1
 -2      1122      1135      1128      2838      1210      1187      1155      3852      3854      3853
 -1      2269    6    0    1
 -2      2513      2515      2524       521      2593      2595      2565      3707      3507      3526
 -1      2270    6    0    1
 -2       638       629       561      2866       672       858       668      3720      3721      3855
 -1      2271    6    0    1
 -2      1972      1962      2074      2834      2007      3856      3857      3858      3860      3859
 -1      2272    6    0    1
 -2      1381      1350      2855      2894      1512      3085      3849      3861      3086      3087
 -1      2273    6    0    1
 -2      1860      1866      2835      2844      1939      3702      3196      3522      3704      2961
 -1      2274    6    0    1
 -2      1970      1962      1971      2834      2004      2045      2030      3831      3860      3344
 -1      2275    6    0    1
 -2      1365      2880       238      2894      2991      3357      1457      3206      3358      3359
 -1      2276    6    0    1
 -2        26      2847      2837      2862      3698      3119      3129      3075      3862      3130
 -1      2277    6    0    1
 -2       646      2864       594      2878      2918      3863      1002      3864      3182      3865
 -1      2278    6    0    1
 -2       559       620      1074      2858       751      3696      3866      3867      3695      3664
 -1      2279    6    0    1
 -2      2211      2325      2319      2216      3030      2383      3573      2307      3338      3868
 -1      2280    6    0    1
 -2      1361        24      1345      2893      1414      1412      1415      3090      3487      3279
 -1      2281    6    0    1
 -2      1128      1376      2890      2905      3869      3870      3760      3763      3871      3765
 -1      2282    6    0    1
 -2      1957      1977      1965      2831      2023      2027      2026      3511      3717      3012
 -1      2283    6    0    1
 -2      2608      2211      2325      2616      3444      3030      3443      2664      3574      3575
 -1      2284    6    0    1
 -2       643       601      2858      2895       993      3872      3732      3735      3873      3736
 -1      2285    6    0    1
 -2      2841      2862       621      2873      3004      3835      3874      3875      3387      3759
 -1      2286    6    0    1
 -2      1074       548      1072      2854      3876      3779      1105      3723      3780      3781
 -1      2287    6    0    1
 -2       585       622       592      2855       963       962       961      3170      3102      2926
 -1      2288    6    0    1
 -2      2443      2438       417      2833      2491      2466      2468      3160      3389      3520
 -1      2289    6    0    1
 -2      2773      2872      2836      2892      3877      3613      3878      3879      3616      3617
 -1      2290    6    0    1
 -2      1230      2839       249      2845      3477      3679      3800      3476      3126      3680
 -1      2291    6    0    1
 -2      1968      1967      1971      2834      2054      2055      2046      3411      3146      3344
 -1      2292    6    0    1
 -2      1861      1878      1869      2833      1944      1943      1942      3159      3488      3273
 -1      2293    6    0    1
 -2      2843      2847        26      2862      3439      3698      3335      3384      3862      3075
 -1      2294    6    0    1
 -2      2074      1972      2834      2867      3857      3858      3859      3880      3881      3537
 -1      2295    6    0    1
 -2      2064      2867      2834      2881      3882      3537      3596      3599      3844      3382
 -1      2296    6    0    1
 -2       296       295      2836      2869       300      3433      3883      3884      3693      2997
 -1      2297    6    0    1
 -2      1075      1072       635      2854      1102      3778      2936      3261      3781      3263
 -1      2298    6    0    1
 -2        26      2837        23      2903      3129      3117      3535      3336      3581      3337
 -1      2299    6    0    1
 -2      2060      2832      1871      2887      3684      3714      3712      3885      3174      3886
 -1      2300    6    0    1
 -2      1074       620       548      2854      3696       748      3876      3723      3784      3780
 -1      2301    6    0    1
 -2      1869      1878      1867      2833      1943      1956      1953      3273      3488      3447
 -1      2302    6    0    1
 -2      2605      2220       258      2334      3887      2235      3888      3889      3652      3823
 -1      2303    6    0    1
 -2        31      2852       323      2903      3753      3656       325      3755      3533      3756
 -1      2304    6    0    1
 -2      1756      2515       281      2846      3890      3891      1765      3892      3505      3893
 -1      2305    6    0    1
 -2       615       624      2838      2863      1017      3894      3553      3551      3895      3552
 -1      2306    6    0    1
 -2      2773      2870      2836      2872      3896      3432      3878      3877      3639      3613
 -1      2307    6    0    1
 -2       293      2886      2871      2898      3897      3423      3898      3899      3426      3427
 -1      2308    6    0    1
 -2       420      1857      1876      2831      3838      1923      3900      3110      3369      3785
 -1      2309    6    0    1
 -2      1878      2833      1861      2881      3488      3159      1944      3489      3163      3161
 -1      2310    6    0    1
 -2       570      2861      2855      2894      3901      3902      3903      3904      3191      3087
 -1      2311    6    0    1
 -2      2863      2877       637      2899      3556      3905      3906      3907      3909      3908
 -1      2312    6    0    1
 -2      1584      2854      1577      2865      3910      3309      1738      3911      3826      3912
 -1      2313    6    0    1
 -2       569      2848       567      2861      3584      3501       871      3585      3188      3500
 -1      2314    6    0    1
 -2        24      1344      1345      2848      1409      1413      1412      3570      3545      3726
 -1      2315    6    0    1
 -2      2202      2903      2316      2906      3351      3302      3294      3913      3915      3914
 -1      2316    6    0    1
 -2      1578      1220      2875      2904      3916      3917      3918      3919      3920      3230
 -1      2317    6    0    1
 -2      1028        56      1026      2859      1033      1029      1041      3921      3404      3141
 -1      2318    6    0    1
 -2        24      2848      1345      2861      3570      3726      1412      3486      3188      3278
 -1      2319    6    0    1
 -2       604       646       622      2864      1001       788       964      3922      2918      3175
 -1      2320    6    0    1
 -2      1123      1136      1131      2896      1176      1213      1160      3923      3813      3814
 -1      2321    6    0    1
 -2      2514      2527      2523      2889      2598      2597      2545      3771      3797      3924
 -1      2322    6    0    1
 -2       294       272       273      2870      3809       277      3810      3925      3927      3926
 -1      2323    6    0    1
 -2      1868      2832      2844      2887      3928      3222      3783      3806      3174      3807
 -1      2324    6    0    1
 -2       559      1074      1071      2858      3866      1108      3929      3867      3664      3837
 -1      2325    6    0    1
 -2       294       273      2331      2908      3810      2363      3808      3930      3932      3931
 -1      2326    6    0    1
 -2       604       622      2855      2864       964      3102      3933      3922      3175      3186
 -1      2327    6    0    1
 -2      2523       269      2514      2889      3934      3200      2545      3924      3770      3771
 -1      2328    6    0    1
 -2       566       568       567      2893       868       867       823      3104      3091      3502
 -1      2329    6    0    1
 -2      1555      2875      2858      2895      3935      3733      3936      3937      3229      3736
 -1      2330    6    0    1
 -2      2775      2780      2871      2898      2796      3710      3422      3425      3401      3427
 -1      2331    6    0    1
 -2      1875      1868      1867      2844      1950      1954      1955      3441      3783      3446
 -1      2332    6    0    1
 -2       556      2875      1220      2904      3938      3917      3939      3940      3230      3920
 -1      2333    6    0    1
 -2      2216      2330      2319       293      3586      2367      3868      2250      3942      3941
 -1      2334    6    0    1
 -2      1788      2871      2436      2898      3943      3709      3944      3945      3427      3402
 -1      2335    6    0    1
 -2       615      2838       550      2896      3553      3946       803      3728      3729      3947
 -1      2336    6    0    1
 -2       625      1071      1078      2851      3948      1109      3949      3950      3952      3951
 -1      2337    6    0    1
 -2       577      2863       637      2899      3953      3906       923      3954      3907      3908
 -1      2338    6    0    1
 -2      2870      2871      2774      2897      3688      3955      3699      3436      3689      3701
 -1      2339    6    0    1
 -2      2062       417      2070      2867      2179      2108      2172      3956      3843      3706
 -1      2340    6    0    1
 -2       558       603       632      2901       841       843       842      3037      3035      3210
 -1      2341    6    0    1
 -2      2609      2603      2315      2201      2675      3578      3632      3549      3354      3239
 -1      2342    6    0    1
 -2        40      1977       410      2831      3743      3848       413      3417      3717      3113
 -1      2343    6    0    1
 -2       651       636       600      2902       979      1007      1005      3643      3957      3380
 -1      2344    6    0    1
 -2      1969      1960      1975      2835      2040      1989      2041      2959      3266      3108
 -1      2345    6    0    1
 -2      1577      2865      2854      2901      3912      3826      3309      3310      3828      3311
 -1      2346    6    0    1
 -2      2439      2431       518      2869      2511      3958      3959      3960      3962      3961
 -1      2347    6    0    1
 -2      2622       511      2607      2846      2633      2713      2714      3767      3963      3077
 -1      2348    6    0    1
 -2       258       236       259      2838      3773      3397       264      3964      3805      3685
 -1      2349    6    0    1
 -2      2841      2873       652      2904      3875      3669      3965      3966      3272      3670
 -1      2350    6    0    1
 -2      2834      2844      2832      2887      3150      3222      3250      3345      3807      3174
 -1      2351    6    0    1
 -2      1974      1957      1966      2850      2022      2024      2028      3825      3512      3463
 -1      2352    6    0    1
 -2      1857      1865      1876      2831      1924      1927      1923      3369      3197      3785
 -1      2353    6    0    1
 -2        31      2886        27      2906      3967      3968      3754      3969      3971      3970
 -1      2354    6    0    1
 -2       594      2864       566      2878      3863      3179       870      3865      3182      3045
 -1      2355    6    0    1
 -2      2072      2832      2060      2887      3324      3684      2198      3793      3174      3885
 -1      2356    6    0    1
 -2        62      1077      1079      2866      1083      1092      1081      3569      3588      3972
 -1      2357    6    0    1
 -2      2852      2853        27      2886      3530      3529      3531      3973      3974      3968
 -1      2358    6    0    1
 -2       557      1020       618      2878      3975      3056       707      3976      3645      3646
 -1      2359    6    0    1
 -2      1562      1546      1074      2854      1636      3665      3977      3978      3724      3723
 -1      2360    6    0    1
 -2       651      2901       636      2902      3642      3979       979      3643      3381      3957
 -1      2361    6    0    1
 -2       570      2855       572      2894      3903      3405       886      3904      3087      2984
 -1      2362    6    0    1
 -2      1562      1074      1072      2854      3977      1105      3980      3978      3723      3781
 -1      2363    6    0    1
 -2        62      1079       629      2866      1081      3981      3718      3569      3972      3721
 -1      2364    6    0    1
 -2      2774      2869      2836      2897      3982      2997      3700      3701      3694      3435
 -1      2365    6    0    1
 -2      1975       401       400      2835      3983       404      3107      3108      3984      3027
 -1      2366    6    0    1
 -2      1543      1072      1075      2854      3985      1102      2938      3262      3781      3261
 -1      2367    6    0    1
 -2      1862      1873      1866      2835      1892      1941      1945      3283      3605      3702
 -1      2368    6    0    1
 -2      2519      2515      2513      2888      2550      2593      2594      3986      3508      3708
 -1      2369    6    0    1
 -2       618       646       594      2878       785      1002       837      3646      3864      3865
 -1      2370    6    0    1
 -2      2615      2607       296      2836      2646      3987      3988      3989      2996      3883
 -1      2371    6    0    1
 -2       258       236       235      2318      3773       241      3990      3769      2348      2347
 -1      2372    6    0    1
 -2       643       596       591      2875       832       991       992      3734      3284      3409
 -1      2373    6    0    1
 -2       420      1876        37      2831      3900      3792       423      3110      3785      3413
 -1      2374    6    0    1
 -2      1962      2066      2074      2834      3991      2165      3856      3860      3992      3859
 -1      2375    6    0    1
 -2      1578      1220      1223      2875      3916      1281      3993      3918      3917      3994
 -1      2376    6    0    1
 -2      1340      1020      1353      2878      3176      3995      1431      3603      3645      3996
 -1      2377    6    0    1
 -2       557      1022      1020      2878      3997      1057      3975      3976      3998      3645
 -1      2378    6    0    1
 -2      2064      1874      1859      2881      3598      1910      3999      3599      3600      3673
 -1      2379    6    0    1
 -2      1022      1353      1020      2878      4000      3995      1057      3998      3996      3645
 -1      2380    6    0    1
 -2      1381      1366      1350      2894      1475      1525      1512      3861      2957      3086
 -1      2381    6    0    1
 -2       556      1220       645      2904      3939      4001       714      3940      3920      4002
 -1      2382    6    0    1
 -2        31       293      2886      2906       297      3897      3967      3969      4003      3971
 -1      2383    6    0    1
 -2       597       605       598      2905       826       806       968      3259      3061      3334
 -1      2384    6    0    1
 -2       643      2875       591      2895      3734      3409       992      3735      3229      3258
 -1      2385    6    0    1
 -2       519       520      2772      2836       524      2816      2815      3047      4005      4004
 -1      2386    6    0    1
 -2       417      2867      2062      2881      3843      3956      2179      3521      3844      4006
 -1      2387    6    0    1
 -2       637      2863       615      2877      3906      3551      1019      3905      3556      3554
 -1      2388    6    0    1
 -2      2775       218      2780      2898      2795      2785      2796      3425      4007      3401
 -1      2389    6    0    1
 -2       638        62      1079       629      3719      1081      4008       672      3718      3981
 -1      2390    6    0    1
 -2      2518      2529       400      2835      2583      3026      4009      4010      2966      3027
 -1      2391    6    0    1
 -2      2331       293       294      2217      4011       298      3808      4012      2249      2248
 -1      2392    6    0    1
 -2       295      2869       296      2897      3693      3884       300      3434      3694      4013
 -1      2393    6    0    1
 -2      1340      1377      1356      2900      1479      1478      1428      2920      3245      3558
 -1      2394    6    0    1
 -2      2523      2527      2517      2889      2597      2537      2601      3924      3797      4014
 -1      2395    6    0    1
 -2      1869      2833      1867      2844      3273      3447      1953      3277      3083      3446
 -1      2396    6    0    1
 -2      1555      2858      2882      2895      3936      3668      4015      3937      3736      4016
 -1      2397    6    0    1
 -2       420      2850      2831      2868      3839      3276      3110      3098      4017      3111
 -1      2398    6    0    1
 -2      2838      2863       624      2890      3552      3895      3894      4018      4020      4019
 -1      2399    6    0    1
 -2       575      2863      2842      2883      4021      4022      3571      3572      4023      3430
 -1      2400    6    0    1
 -2       410      2831      2850      2868      3113      3276      3851      3114      3111      4017
 -1      2401    6    0    1
 -2       221      2527      2839      2889      3816      3796      3817      4024      3797      3772
 -1      2402    6    0    1
 -2      2318       235       258      2334      2347      3990      3769      2351      2350      3823
 -1      2403    6    0    1
 -2       577       634       637      2863       912       924       923      3953      4025      3906
 -1      2404    6    0    1
 -2      2609      2327      2617      2213      3548      3415      2672      3547      3079      3416
 -1      2405    6    0    1
 -2      1135      1128      2838      2890      1187      3853      3854      4026      3760      4018
 -1      2406    6    0    1
 -2      2437      1788      2436      2898      4027      3944      2482      3672      3945      3402
 -1      2407    6    0    1
 -2      1136       550      2838      2896      4028      3946      3811      3813      3947      3729
 -1      2408    6    0    1
 -2      1817       246      2526      2839      1822      4029      4030      4031      3124      4032
 -1      2409    6    0    1
 -2       647       592       654      2879       995       996       997      3211      3624      3623
 -1      2410    6    0    1
 -2      2325      2330      2319      2216      2421      2367      2383      3338      3586      3868
 -1      2411    6    0    1
 -2       255      1838      2440      2840      1841      4033      4034      3000      4036      4035
 -1      2412    6    0    1
 -2       549      2845       595      2847      4037      3648       795      4038      3236      3647
 -1      2413    6    0    1
 -2       556      1223      1220      2875      4039      1281      3939      3938      3994      3917
 -1      2414    6    0    1
 -2       317      2853        27      2903      3654      3529       319      3757      3534      3532
 -1      2415    6    0    1
 -2      2205      2319      2211      2616      4040      3573      2269      4041      3576      3574
 -1      2416    6    0    1
 -2       260      2877      2863      2899      4042      3556      3408      4043      3909      3907
 -1      2417    6    0    1
 -2      1555      1569      2858      2875      1727      4044      3936      3935      4045      3733
 -1      2418    6    0    1
 -2      2518       390      2522      2835      4046      3306      2587      4010      3308      3282
 -1      2419    6    0    1
 -2      1562      1072      1543      2854      3980      3985      1633      3978      3781      3262
 -1      2420    6    0    1
 -2       575       587      2863      2883       902      4047      4021      3572      4048      4023
 -1      2421    6    0    1
 -2      2863      2883       587      2890      4023      4048      4047      4020      4050      4049
 -1      2422    6    0    1
 -2      2517      2778      2521      2889      4051      4052      2591      4014      4054      4053
 -1      2423    6    0    1
 -2       238      2842       237      2883      3373      3374       243      3356      3430      4055
 -1      2424    6    0    1
 -2      2334      2613      2220      2612      4056      4057      3652      3550      2681      3834
 -1      2425    6    0    1
 -2       238      2883      1339      2894      3356      4058      1453      3359      3360      4059
 -1      2426    6    0    1
 -2      1866      1868      2832      2844      1947      3928      3703      3704      3783      3222
 -1      2427    6    0    1
 -2      2517      2527       221      2889      2537      3816      4060      4014      3797      4024
 -1      2428    6    0    1
 -2      2607      2846       511      2857      3077      3963      2713      2995      3078      3053
 -1      2429    6    0    1
 -2      1866      1873      1860      2835      1941      1889      1939      3702      3605      3196
 -1      2430    6    0    1
 -2      2837      2847      1226      2862      3119      4061      3139      3130      3862      3140
 -1      2431    6    0    1
 -2      2431      2869      2439      2897      3962      3960      2511      4062      3694      4063
 -1      2432    6    0    1
 -2       609      2847      2843      2862      4064      3439      3474      3473      3862      3384
 -1      2433    6    0    1
 -2       246       249      2526      2839      3678      2539      4029      3124      3679      4032
 -1      2434    6    0    1
 -2       255      2440       252      2840      4034      2452      3497      3000      4035      3498
 -1      2435    6    0    1
 -2       391       390      2518      2835       394      4046      4065      4066      3308      4010
 -1      2436    6    0    1
 -2      1077        62      1573      2866      1083      3565      3659      3588      3569      3567
 -1      2437    6    0    1
 -2       644      2896       648      2902      4067      4068       989      4069      4071      4070
 -1      2438    6    0    1
 -2       392      1860       391      2835      3481      4072       395      3460      3196      4066
 -1      2439    6    0    1
 -2      2514      1818       269      2523      3199      1829      3200      2545      4073      3934
 -1      2440    6    0    1
 -2      1135      2838       613      2890      3854      4074      4075      4026      4018      3761
 -1      2441    6    0    1
 -2      1578      1223      1549      2875      3993      4076      1655      3918      3994      4077
 -1      2442    6    0    1
 -2       578       580       616      2907       925       928       927      3795      3451      3609
 -1      2443    6    0    1
 -2      2619      2604      2836      2908      2716      4078      4079      4080      4082      4081
 -1      2444    6    0    1
 -2      1555      2858      1576      2882      3936      4083      1728      4015      3668      4084
 -1      2445    6    0    1
 -2      1970      2067      1962      2834      3829      4085      2004      3831      3830      3860
 -1      2446    6    0    1
 -2      1557      1584      1577      2865      1736      1738      1735      4086      3911      3912
 -1      2447    6    0    1
 -2      1863      1875      1874      2834      1949      1935      1907      4087      3440      3597
 -1      2448    6    0    1
 -2       421      1857       420      2850      4088      3838       424      4089      3370      3839
 -1      2449    6    0    1
 -2      2849      2873       616      2907      3269      4090      3608      3610      3595      3609
 -1      2450    6    0    1
 -2      1960       402       401      2835      3611       405      4091      3266      3514      3984
 -1      2451    6    0    1
 -2       219      2886      2852      2898      3821      3973      4092      3822      3426      4093
 -1      2452    6    0    1
 -2       596       652       593      2904       812       998       990      3101      3670      3271
 -1      2453    6    0    1
 -2        31      2852        27      2886      3753      3531      3754      3967      3973      3968
 -1      2454    6    0    1
 -2       609       607      2843      2847      1011      3295      3474      4064      3325      3439
 -1      2455    6    0    1
 -2      1588       252        22      2904      1612       254      1610      4094      4096      4095
 -1      2456    6    0    1
 -2       293      2331       294       272      4011      3808       298      4097      2362      3809
 -1      2457    6    0    1
 -2       556      2851      1223      2875      4098      4099      4039      3938      4100      3994
 -1      2458    6    0    1
 -2       262       239      2843      2880      3244      3319      3316      3518      3471      3472
 -1      2459    6    0    1
 -2      2615      2621      2607      2836      2718      2719      2646      3989      3621      2996
 -1      2460    6    0    1
 -2       323      2837        26      2903      3655      3129       324      3756      3581      3336
 -1      2461    6    0    1
 -2       317        23      2837      2903       318      3117      3653      3757      3337      3581
 -1      2462    6    0    1
 -2      2431      2435      2439       518      2505      2475      2511      3958      4101      3959
 -1      2463    6    0    1
 -2      1226      1231      1229      2840      1332      1334      1323      3138      3494      3634
 -1      2464    6    0    1
 -2      1571      2873      2849      2907      4102      3269      3727      3560      3595      3610
 -1      2465    6    0    1
 -2        25      2873      2841      2904      3485      3875      4103      3343      3272      3966
 -1      2466    6    0    1
 -2       644      2877      2896      2902      4104      3730      4067      4069      4105      4071
 -1      2467    6    0    1
 -2       235      2605       258      2334      4106      3888      3990      2350      3889      3823
 -1      2468    6    0    1
 -2       519      2836      2772      2869      3047      4004      2815      3048      2997      4107
 -1      2469    6    0    1
 -2      1972      1962      2834      2867      2007      3860      3858      3881      4108      3537
 -1      2470    6    0    1
 -2      1226      2837      1227      2847      3139      3122      1321      4061      3119      3123
 -1      2471    6    0    1
 -2      2838      2877       258      2896      3555      4109      3964      3729      3730      4110
 -1      2472    6    0    1
 -2       258      2838       259      2877      3964      3685       264      4109      3555      3686
 -1      2473    6    0    1
 -2      2522      2529      2518      2835      2579      2583      2587      3282      2966      4010
 -1      2474    6    0    1
 -2      1873       390       391      2835      3604       394      4111      3605      3308      4066
 -1      2475    6    0    1
 -2      1756      2515      2846      2892      3890      3505      3892      4112      3740      3741
 -1      2476    6    0    1
 -2       587       624      2863      2890       972      3895      4047      4049      4019      4020
 -1      2477    6    0    1
 -2      2064      2068      2073      2834      2182      2196      2137      3596      4113      3716
 -1      2478    6    0    1
 -2      1220      1588      1578       231      4114      1656      3916      1267      1611      1654
 -1      2479    6    0    1
 -2      1135       613      1128      2890      4075      3762      1187      4026      3761      3760
 -1      2480    6    0    1
 -2       611       631      2843      2880       909      4115      3493      2993      4116      3472
 -1      2481    6    0    1
 -2      2317       272       293      2906      2342      4097      4117      4118      4119      4003
 -1      2482    6    0    1
 -2      1237      1224      1369      2856      1304      4120      4121      4122      3561      4123
 -1      2483    6    0    1
 -2      1577      1543      1566      2901      1672      1674      1675      3310      3036      3209
 -1      2484    6    0    1
 -2      1553      1571      2849      2885      1707      3727      4124      4125      3559      3607
 -1      2485    6    0    1
 -2       273       294      2870      2908      3810      3925      3926      3932      3930      4126
 -1      2486    6    0    1
 -2       422        42      1861      2443       426      3177      3153      3151      2469      3152
 -1      2487    6    0    1
 -2       293      2331      2319      2217      4011      2368      3941      2249      4012      4127
 -1      2488    6    0    1
 -2       272      2330      2317       293      2365      2364      2342      4097      3942      4117
 -1      2489    6    0    1
 -2      2319      2216       293      2205      3868      2250      3941      4040      2252      2253
 -1      2490    6    0    1
 -2      2330       272      2319       293      2365      2366      2367      3942      4097      3941
 -1      2491    6    0    1
 -2      2874       648      2896      2902      4128      4068      4129      4130      4070      4071
 -1      2492    6    0    1
 -2      1565      2891      1586      2902      3419      4131      1678      3420      3379      4132
 -1      2493    6    0    1
 -2      1230      1227      1228      2839      1328      1324      1336      3477      3121      3628
 -1      2494    6    0    1
 -2      2326      2317      2330      2906      2415      2364      2417      2944      4118      3619
 -1      2495    6    0    1
 -2      2212      2216      2203      2906      2303      2251      2302      3096      3777      4133
 -1      2496    6    0    1
 -2      1223      1236      1575      2851      1319      4134      4135      4099      4137      4136
 -1      2497    6    0    1
 -2      2622      2607      2836      2846      2714      2996      3620      3767      3077      3076
 -1      2498    6    0    1
 -2       580      2876      2860      2885      3690      4138      4139      3450      3691      4140
 -1      2499    6    0    1
 -2      1874      2073      2059      2834      3715      2134      4141      3597      3716      4142
 -1      2500    6    0    1
 -2      1557      2860      2865      2901      4143      4144      4086      4145      4146      3828
 -1      2501    6    0    1
 -2       236      2863      2838      2890      3407      3552      3805      4147      4020      4018
 -1      2502    6    0    1
 -2      1868      2834      1875      2887      3782      3440      1950      3806      3345      4148
 -1      2503    6    0    1
 -2       180      1546      1071      1074      1634      3836      1119      1118      3665      1108
 -1      2504    6    0    1
 -2      2518       400       401      2835      4009       404      4149      4010      3027      3984
 -1      2505    6    0    1
 -2      2068      2834      2064      2867      4113      3596      2182      4150      3537      3882
 -1      2506    6    0    1
 -2      2843      2880       581      2907      3472      4151      3582      3594      4152      3593
 -1      2507    6    0    1
 -2       180      1546      1559      1071      1634      1639      1638      1119      3836      3845
 -1      2508    6    0    1
 -2       579      2876       580      2899      4153      3690       926      4154      3692      3449
 -1      2509    6    0    1
 -2      1137        50      1373      1341      1142      3745      4155      4156      3768      1386
 -1      2510    6    0    1
 -2      2429      2840      1839      2898      4157      4158      4159      4160      4162      4161
 -1      2511    6    0    1
 -2       548       653       635      2854       793       792       745      3780      3674      3263
 -1      2512    6    0    1
 -2       549       595       607      2847       795       798       797      4038      3647      3325
 -1      2513    6    0    1
 -2        27      2886       272      2906      3968      4163       276      3970      3971      4119
 -1      2514    6    0    1
 -2       565       554       116      1219       735       731       733      3394      3393      1296
 -1      2515    6    0    1
 -2       274      2836      2604      2908      3612      4078      4164      4165      4081      4082
 -1      2516    6    0    1
 -2      2217       294      2331      2908      2248      3808      4012      4166      3930      3931
 -1      2517    6    0    1
 -2       634       615       637      2863      1018      1019       924      4025      3551      3906
 -1      2518    6    0    1
 -2       400      2529        39      1963      3026      2555       403      3025      2965      3251
 -1      2519    6    0    1
 -2      2605      2613      2220      2334      2682      4057      3887      3889      4056      3652
 -1      2520    6    0    1
 -2      2870      2871       293      2886      3688      3898      4167      3748      3423      3897
 -1      2521    6    0    1
 -2       272      2872      2870      2886      4168      3639      3927      4163      3752      3748
 -1      2522    6    0    1
 -2      1586      2891      2874      2902      4131      4169      4170      4132      3379      4130
 -1      2523    6    0    1
 -2      1559      2851      1071      2858      4171      3952      3845      3846      4172      3837
 -1      2524    6    0    1
 -2       581      2843       631      2880      3582      4115       919      4151      3472      4116
 -1      2525    6    0    1
 -2      2072      2063      2060      2832      2197      2177      2198      3324      3350      3684
 -1      2526    6    0    1
 -2      1960       401      1975      2835      4091      3983      1989      3266      3984      3108
 -1      2527    6    0    1
 -2      1587      1572      2876      2885      1685      4173      4174      3327      4175      3691
 -1      2528    6    0    1
 -2       258       235       236      2838      3990       241      3773      3964      4176      3805
 -1      2529    6    0    1
 -2       569       571       611      2848       880       883       882      3584      3187      2989
 -1      2530    6    0    1
 -2      2071      2063      2078      1973      2100      2199      2156      4177      3349      3165
 -1      2531    6    0    1
 -2       571      2861       570      2894      3189      3901       881      3190      3191      3904
 -1      2532    6    0    1
 -2       410      1957       411      2850      3847      4178       414      3851      3512      4179
 -1      2533    6    0    1
 -2      1366      2883      1354      2884      3459      4180      1472      2953      3452      4181
 -1      2534    6    0    1
 -2      2074      2834      2068      2867      3859      4113      2185      3880      3537      4150
 -1      2535    6    0    1
 -2      2774      2836      2772      2870      3700      4004      2817      3699      3432      4182
 -1      2536    6    0    1
 -2       261      2842       238      2880      3438      3373      3290      3517      3428      3357
 -1      2537    6    0    1
 -2       220      1214      2852      2853      1310      4183      4184      4185      4186      3530
 -1      2538    6    0    1
 -2      1549      1223      2851      2875      4076      4099      4187      4077      3994      4100
 -1      2539    6    0    1
 -2      1868      1871      2832      2887      1931      3714      3928      3806      3886      3174
 -1      2540    6    0    1
 -2       261      2880       262      2907      3517      3518       267      4188      4152      4189
 -1      2541    6    0    1
 -2      1972      1968      1962      2867      2034      2047      2007      3881      3536      4108
 -1      2542    6    0    1
 -2       582      2860       580      2876      4190      4139       930      4191      4138      3690
 -1      2543    6    0    1
 -2       636      2901      2860      2902      3979      4146      4192      3957      3381      4193
 -1      2544    6    0    1
 -2       548       635       131      1072       745       741       743      3779      3778      1101
 -1      2545    6    0    1
 -2       607       611       631      2843      1003       909      1012      3295      3493      4115
 -1      2546    6    0    1
 -2       595      2848      2845      2893      3649      3650      3648      4194      3503      4195
 -1      2547    6    0    1
 -2      2074      2066      2068      2834      2165      2193      2185      3859      3992      4113
 -1      2548    6    0    1
 -2      1874      2059      1863      2834      4141      4196      1907      3597      4142      4087
 -1      2549    6    0    1
 -2      1557      2865      1577      2901      4086      3912      1735      4145      3828      3310
 -1      2550    6    0    1
 -2      1225      1226      2847      2862      1330      4061      4197      4198      3140      3862
 -1      2551    6    0    1
 -2       601      2882      2858      2895      4199      3668      3872      3873      4016      3736
 -1      2552    6    0    1
 -2      1816      2839       269      2889      3775      3201      1825      4200      3772      3770
 -1      2553    6    0    1
 -2      1546      1576      2858      2882      1687      4083      3663      3666      4084      3668
 -1      2554    6    0    1
 -2      2319       272      2331       293      2366      2362      2368      3941      4097      4011
 -1      2555    6    0    1
 -2      2205       293      2319      2217      2253      3941      4040      2254      2249      4127
 -1      2556    6    0    1
 -2      1076      1071      1559      2851      1121      3845      4201      4202      3952      4171
 -1      2557    6    0    1
 -2      2619      2604      2615      2836      2716      2717      2648      4079      4078      3989
 -1      2558    6    0    1
 -2       628       555       597      2859       827       825       828      3069      2915      3070
 -1      2559    6    0    1
 -2      1224       565       116      1219      3253       733      1299      1300      3394      1296
 -1      2560    6    0    1
 -2       558       130       635      1075       738       740       742      2937      1098      2936
 -1      2561    6    0    1
 -2      2842      2863       577      2899      4022      3953      4203      4204      3907      3954
 -1      2562    6    0    1
 -2      1233       565      1224      2856      4205      3253      1301      4206      2947      3561
 -1      2563    6    0    1
 -2      2523      2517      2521      2889      2601      2591      2570      3924      4014      4053
 -1      2564    6    0    1
 -2      2842      2899       576      2907      4204      4207      4208      4209      3331      4210
 -1      2565    6    0    1
 -2       296      2836      2607      2869      3883      2996      3987      3884      2997      2998
 -1      2566    6    0    1
 -2       402      2835      2857      2888      3514      3220      3515      4211      4213      4212
 -1      2567    6    0    1
 -2       392      2857      2835      2888      3462      3220      3460      4214      4212      4213
 -1      2568    6    0    1
 -2      1961      2833      1968      2867      3492      3410      2042      3590      3538      3536
 -1      2569    6    0    1
 -2       272      2872      2886      2889      4168      3752      4163      4215      3789      3790
 -1      2570    6    0    1
 -2       272       294       293      2870      3809       298      4097      3927      3925      4167
 -1      2571    6    0    1
 -2       621      2841       610      2862      3874      4216      1014      3835      3004      4217
 -1      2572    6    0    1
 -2      1122      1128       235      2838      1155      4218      4219      3852      3853      4176
 -1      2573    6    0    1
 -2      1074       548       132      1072      3876       744      1104      1105      3779      1100
 -1      2574    6    0    1
 -2      1839      2437      2429      2898      4220      2459      4159      4161      3672      4160
 -1      2575    6    0    1
 -2        31      2203       293      2906      2228      2227       297      3969      4133      4003
 -1      2576    6    0    1
 -2      1552      2874      2896      2902      4221      4129      4222      4223      4130      4071
 -1      2577    6    0    1
 -2      1131      2838       258      2896      3812      3964      4224      3814      3729      4110
 -1      2578    6    0    1
 -2       589      2885      2865      2895      4225      4226      4227      4228      4230      4229
 -1      2579    6    0    1
 -2       602      2865      2860      2901      3827      4144      4231      3677      3828      4146
 -1      2580    6    0    1
 -2      1221      2845       249      2893      4232      3680      4233      4234      4195      4235
 -1      2581    6    0    1
 -2       397      2060      2063      2832      2090      2177      2099      3215      3684      3350
 -1      2582    6    0    1
 -2      1338      1357      1125       191      1441      3007      3006      1437      1439      1200
 -1      2583    6    0    1
 -2      1022       557      2856      2878      3997      4236      4237      3998      3976      2951
 -1      2584    6    0    1
 -2       620       548       132      1074       748       744       746      3696      3876      1104
 -1      2585    6    0    1
 -2      1962      2067      2066      2834      4085      2162      3991      3860      3830      3992
 -1      2586    6    0    1
 -2      2860      2876      1572      2885      4138      4173      4238      4140      3691      4175
 -1      2587    6    0    1
 -2       589       583      2865      2885       951      4239      4227      4225      4240      4226
 -1      2588    6    0    1
 -2       314      2431      1787      2869      4241      4242      1794      4243      3962      4244
 -1      2589    6    0    1
 -2      2775      2870      2777      2886      3747      4245      2799      3424      3748      4246
 -1      2590    6    0    1
 -2      2777      2870      2776      2886      4245      3750      2802      4246      3748      3751
 -1      2591    6    0    1
 -2       402       401      2835      2888       405      3984      3514      4211      4247      4213
 -1      2592    6    0    1
 -2      1137        50      1341      2859      1142      3768      4156      4248      3746      3641
 -1      2593    6    0    1
 -2       392      2835       391      2888      3460      4066       395      4214      4213      4249
 -1      2594    6    0    1
 -2       272      2886       293      2906      4163      3897      4097      4119      3971      4003
 -1      2595    6    0    1
 -2       575       587       634      2863       902       914       913      4021      4047      4025
 -1      2596    6    0    1
 -2       259      2863       260      2877      3496      3408       265      3686      3556      4042
 -1      2597    6    0    1
 -2      1839       302      2437      2898      1849      4250      4220      4161      4251      3672
 -1      2598    6    0    1
 -2      1868      1862      1866      2832      1946      1945      1947      3928      3281      3703
 -1      2599    6    0    1
 -2      1863      1875      2834      2887      1949      3440      4087      4252      4148      3345
 -1      2600    6    0    1
 -2       236      2883      2863      2890      4253      4023      3407      4147      4050      4020
 -1      2601    6    0    1
 -2      1552      2896      2877      2902      4222      3730      4254      4223      4071      4105
 -1      2602    6    0    1
 -2       584      2849       616      2885      4255      3608       939      4256      3607      3606
 -1      2603    6    0    1
 -2      1968      1961      1966      2833      2042      2044      2043      3410      3492      3081
 -1      2604    6    0    1
 -2      2066      2059      2834      2887      2192      4142      3992      4257      4258      3345
 -1      2605    6    0    1
 -2      1871      1862      1868      2832      1895      1946      1931      3714      3281      3928
 -1      2606    6    0    1
 -2       275      2836       274      2892      4259      3612       279      4260      3617      3615
 -1      2607    6    0    1
 -2       589       584      2885      2895       950      4256      4225      4228      4261      4230
 -1      2608    6    0    1
 -2      1225      1226      1227      2847      1330      1321      1327      4197      4061      3123
 -1      2609    6    0    1
 -2      2216      2319      2211      2205      3868      3573      2307      2252      4040      2269
 -1      2610    6    0    1
 -2       606      1221       115      2893      4262      1293       728      4263      4234      4264
 -1      2611    6    0    1
 -2      1022      2856      1353      2878      4237      4265      4000      3998      2951      3996
 -1      2612    6    0    1
 -2       219       220      1214      2852       224      1310      1309      4092      4184      4183
 -1      2613    6    0    1
 -2      1877      1857       421      2850      1922      4088      4266      3287      3370      4089
 -1      2614    6    0    1
 -2      2066      2834      2067      2887      3992      3830      2162      4257      3345      3833
 -1      2615    6    0    1
 -2      1557      1558      2860      2901      1731      4267      4143      4145      4268      4146
 -1      2616    6    0    1
 -2      1349      1345      1348      2864      1502      1500      1503      3224      3313      4269
 -1      2617    6    0    1
 -2       220      2886      2776      2889      4270      3751      2801      4271      3790      3788
 -1      2618    6    0    1
 -2       510      2607       511      2857      2644      2713       515      3054      2995      3053
 -1      2619    6    0    1
 -2      1860      1873       391      2835      1889      4111      4072      3196      3605      4066
 -1      2620    6    0    1
 -2      1571      1550      2849      2873      1706      4272      3727      4102      4273      3269
 -1      2621    6    0    1
 -2       295       294      2870      2871       299      3925      3431      3687      4274      3688
 -1      2622    6    0    1
 -2      2528       249      1218      2839      2532      3801      4275      4276      3679      3802
 -1      2623    6    0    1
 -2       274      2870       273      2872      3638      3926       278      3614      3639      4277
 -1      2624    6    0    1
 -2      1588      1220      1578      2904      4114      3916      1656      4094      3920      3919
 -1      2625    6    0    1
 -2       252      2442      1217      2840      2451      4278      3803      3498      4279      3804
 -1      2626    6    0    1
 -2      1219      1221       249      2893      1257      4233      4280      3396      4234      4235
 -1      2627    6    0    1
 -2       272       273      2870      2872       277      3926      3927      4168      4277      3639
 -1      2628    6    0    1
 -2       293      2870       294      2871      4167      3925       298      3898      3688      4274
 -1      2629    6    0    1
 -2        68      1138      1547      2866      1149      4281      3660      3662      4282      3633
 -1      2630    6    0    1
 -2       391      2835      2518      2888      4066      4010      4065      4249      4213      4283
 -1      2631    6    0    1
 -2      2075      1872      1861      2881      4284      1916      4285      4286      4287      3161
 -1      2632    6    0    1
 -2       275      2846      2836      2892      4288      3076      4259      4260      3741      3617
 -1      2633    6    0    1
 -2      1576      1555      1569      2858      1728      1727      1729      4083      3936      4044
 -1      2634    6    0    1
 -2      1369      1224      1343      2856      4120      3254      1446      4123      3561      2946
 -1      2635    6    0    1
 -2       562       565      1233      2856       736      4205      4289      4290      2947      4206
 -1      2636    6    0    1
 -2      1231      1222       252      2841      1273      4291      3722      3504      4292      3499
 -1      2637    6    0    1
 -2       237      2842       260      2863      3374      3375      3240      3406      4022      3408
 -1      2638    6    0    1
 -2       626      2851       556      2875      4293      4098       833      4294      4100      3938
 -1      2639    6    0    1
 -2      1025      1353      1022      2856      4295      4000      1070      4296      4265      4237
 -1      2640    6    0    1
 -2      1223      1220      1578       231      1281      3916      3993      1318      1267      1654
 -1      2641    6    0    1
 -2       547        98      1024       618       699      1050      3289       704       703      3057
 -1      2642    6    0    1
 -2       615       634       624      2863      1018       974      1017      3551      4025      3895
 -1      2643    6    0    1
 -2       589       584       583      2885       950       938       951      4225      4256      4240
 -1      2644    6    0    1
 -2       590      2877       644      2902      4297      4104       987      4298      4105      4069
 -1      2645    6    0    1
 -2       566       594       568      2864       870       869       868      3179      3863      3022
 -1      2646    6    0    1
 -2      1075       131       635      1072      1097       741      2936      1102      1101      3778
 -1      2647    6    0    1
 -2      1338      1364      1129      2905      1438      4299      2973      3062      4300      3671
 -1      2648    6    0    1
 -2       262      2880      2843      2907      3518      3472      3316      4189      4152      3594
 -1      2649    6    0    1
 -2      1020      1024        98       618      1054      1050      1052      3056      3057       703
 -1      2650    6    0    1
 -2       630       639      1027      2856       681      4301      4302      4303      4305      4304
 -1      2651    6    0    1
 -2      1788      1785      2436      2871      1801      4306      3944      3943      4307      3709
 -1      2652    6    0    1
 -2      1555      1567      2875      2895      1712      3228      3935      3937      3038      3229
 -1      2653    6    0    1
 -2       595       567      2848      2893       873      3501      3649      4194      3502      3503
 -1      2654    6    0    1
 -2      2874      2891       600      2902      4169      3378      4308      4130      3379      3380
 -1      2655    6    0    1
 -2       576       581      2880      2907       917      4151      4309      4210      3593      4152
 -1      2656    6    0    1
 -2      1816      2853      2839      2889      4310      3631      3775      4200      4311      3772
 -1      2657    6    0    1
 -2      1123      1131       258      2896      1160      4224      4312      3923      3814      4110
 -1      2658    6    0    1
 -2       608      2847       609      2862      4313      4064      1010      4314      3862      3473
 -1      2659    6    0    1
 -2       246        23      1379      2848       247      1406      1408      3731      3299      3480
 -1      2660    6    0    1
 -2       167      1020      1022      1353      1066      1057      1069      1429      3995      4000
 -1      2661    6    0    1
 -2       510       410       509      2868      2752      2767       514      3157      3114      4315
 -1      2662    6    0    1
 -2       641       556       626      2851       711       833       834      4316      4098      4293
 -1      2663    6    0    1
 -2      1020        99       557       618      1053       706      3975      3056       702       707
 -1      2664    6    0    1
 -2       615       644      2877      2896       804      4104      3554      3728      4067      3730
 -1      2665    6    0    1
 -2      1020       167      1340      1353      1066      1427      3176      3995      1429      1431
 -1      2666    6    0    1
 -2      1788       293      2871      2898      1790      3898      3943      3945      3899      3427
 -1      2667    6    0    1
 -2       587       624       634      2863       972       974       914      4047      3895      4025
 -1      2668    6    0    1
 -2       568       569       567      2861       872       871       867      3019      3585      3500
 -1      2669    6    0    1
 -2      2431      1787      2869      2897      4242      4244      3962      4062      4317      3694
 -1      2670    6    0    1
 -2      1562      1546       179      1074      1636      1635      1631      3977      3665      1117
 -1      2671    6    0    1
 -2       577      2842       634      2863      4203      4318       912      3953      4022      4025
 -1      2672    6    0    1
 -2      1370      1349      2864      2878      1520      3224      3601      3602      3225      3182
 -1      2673    6    0    1
 -2      1548      1076      1559      2851      4319      4201      1640      4320      4202      4171
 -1      2674    6    0    1
 -2      1968      2834      1962      2867      3411      3860      2047      3536      3537      4108
 -1      2675    6    0    1
 -2      1557      2860      1556      2865      4143      4321      1724      4086      4144      4322
 -1      2676    6    0    1
 -2      1075      1543       178      1072      2938      1628      1114      1102      3985      1115
 -1      2677    6    0    1
 -2      1223      1575      1549      2851      4135      1653      4076      4099      4136      4187
 -1      2678    6    0    1
 -2       249      1221      1230      2845      4233      1258      3800      3680      4232      3476
 -1      2679    6    0    1
 -2      2774      2870      2775      2871      3699      3747      2824      3955      3688      3422
 -1      2680    6    0    1
 -2      2315       458      2328      2603      2391      2393      2395      3578      2707      3352
 -1      2681    6    0    1
 -2       576      2842       577      2899      4208      4203       910      4207      4204      3954
 -1      2682    6    0    1
 -2       179      1562      1074      1072      1631      3977      1117      1116      3980      1105
 -1      2683    6    0    1
 -2      2776      2870      2773      2872      3750      3896      2826      3749      3639      3877
 -1      2684    6    0    1
 -2       235       258      2605       207      3990      3888      4106      4323      4324      2623
 -1      2685    6    0    1
 -2      2851      2858      1582      2875      4172      4325      4326      4100      3733      4327
 -1      2686    6    0    1
 -2       295      2619      2615      2836      4328      2648      4329      3433      4079      3989
 -1      2687    6    0    1
 -2      1132      1136       614      2838      1179      4330      4331      4332      3811      4333
 -1      2688    6    0    1
 -2       590       644       648      2902       987       989       986      4298      4069      4070
 -1      2689    6    0    1
 -2      1228      2837      1214      2853      3629      4334      1314      3630      3579      4186
 -1      2690    6    0    1
 -2       653       602       603      2901      1008       975      1009      3676      3677      3035
 -1      2691    6    0    1
 -2      1219       115      1221      2893      1297      1293      1257      3396      4264      4234
 -1      2692    6    0    1
 -2      2842      2863       237      2883      4022      3406      3374      3430      4023      4055
 -1      2693    6    0    1
 -2      1588        22      1220      2904      1610      1268      4114      4094      4095      3920
 -1      2694    6    0    1
 -2      1214      2837      1229      2852      4334      3635      1311      4183      3580      3636
 -1      2695    6    0    1
 -2      2778      2872      2521      2889      4335      4336      4052      4054      3789      4053
 -1      2696    6    0    1
 -2      1838      1839      2429      2840      1855      4159      4337      4036      4158      4157
 -1      2697    6    0    1
 -2        24      2845       246      2848      4338      3127       248      3570      3650      3731
 -1      2698    6    0    1
 -2       261      2842      2880      2907      3438      3428      3517      4188      4209      4152
 -1      2699    6    0    1
 -2       458      2612      2328      2603      2710      3468      2393      2707      2678      3352
 -1      2700    6    0    1
 -2      1556      2865      2860      2885      4322      4144      4321      4339      4226      4140
 -1      2701    6    0    1
 -2      1553      1587      1571      2885      1720      1684      1707      4125      3327      3559
 -1      2702    6    0    1
 -2      1216       111      1222      2841      1285      1282      1286      4340      4341      4292
 -1      2703    6    0    1
 -2       401      2518      2835      2888      4149      4010      3984      4247      4283      4213
 -1      2704    6    0    1
 -2      1223      1578      1549       231      3993      1655      4076      1318      1654      1651
 -1      2705    6    0    1
 -2       617        97      1021      2900       696      1047      4342      4343      4345      4344
 -1      2706    6    0    1
 -2      1346      2890      1376      2905      4346      3870      1449      4347      3765      3871
 -1      2707    6    0    1
 -2       609       608       607      2847      1010       799      1011      4064      4313      3325
 -1      2708    6    0    1
 -2       220      2853      2852      2886      4185      3530      4184      4270      3974      3973
 -1      2709    6    0    1
 -2      1351      1371      1377      2900      1526      1529      1528      3089      3032      3245
 -1      2710    6    0    1
 -2      1347      1365      1381      2894      1498      1473      1513      3658      3206      3861
 -1      2711    6    0    1
 -2      2324      2316      2903      2906      2412      3302      4348      4349      3914      3915
 -1      2712    6    0    1
 -2      2210      2903      2202      2906      4350      3351      2299      4351      3915      3913
 -1      2713    6    0    1
 -2      2775       219       218      2898      2794       223      2795      3425      3822      4007
 -1      2714    6    0    1
 -2      1022        99       557      1020      1055       706      3997      1057      1053      3975
 -1      2715    6    0    1
 -2        31      2852      2886      2898      3753      3973      3967      4352      4093      3426
 -1      2716    6    0    1
 -2       551      1126      1128      2905      4353      1186      3840      3841      4354      3763
 -1      2717    6    0    1
 -2      1345      2861      1348      2864      3278      4355      1500      3313      3024      4269
 -1      2718    6    0    1
 -2       554       606       115      2893       732       728       730      3395      4263      4264
 -1      2719    6    0    1
 -2       602      2860       588      2901      4231      4356       953      3677      4146      4357
 -1      2720    6    0    1
 -2       422      1877       421      2850      3286      4266       425      3154      3287      4089
 -1      2721    6    0    1
 -2       581       631       576      2880       919       908       917      4151      4116      4309
 -1      2722    6    0    1
 -2      1546      1576      1559      2858      1687      1686      1639      3663      4083      3846
 -1      2723    6    0    1
 -2       577       575       634      2842       911       913       912      4203      3571      4318
 -1      2724    6    0    1
 -2      1339      2883      1366      2894      4058      3459      1471      4059      3360      2957
 -1      2725    6    0    1
 -2       549      1215       114      2845      4358      1290       725      4037      4360      4359
 -1      2726    6    0    1
 -2       620       133       559      1074       747       749       751      3696      1103      3866
 -1      2727    6    0    1
 -2       576      2899       578      2907      4207      3794       915      4210      3331      3795
 -1      2728    6    0    1
 -2      2061        42       417      2881      2114       418      2115      4361      3178      3521
 -1      2729    6    0    1
 -2      1583      2860      2901      2902      4362      4146      3798      3799      4193      3381
 -1      2730    6    0    1
 -2      2065      1871      1858      2887      4363      1898      4364      4365      3886      4366
 -1      2731    6    0    1
 -2      1869      1867      1865      2844      1953      1952      1925      3277      3446      3346
 -1      2732    6    0    1
 -2      2619      2836       295      2908      4079      3433      4328      4080      4081      4367
 -1      2733    6    0    1
 -2       580       584       616      2885       937       939       928      3450      4256      3606
 -1      2734    6    0    1
 -2      1365      1344      1379      2848      1499      1460      1459      2990      3545      3480
 -1      2735    6    0    1
 -2      2839      2853       221      2889      3631      4368      3817      3772      4311      4024
 -1      2736    6    0    1
 -2      2061       417      2062      2881      2115      2179      2178      4361      3521      4006
 -1      2737    6    0    1
 -2       607       595       611      2848       798       884      1003      3298      3649      2989
 -1      2738    6    0    1
 -2      2521      2872      1755      2889      4336      4369      4370      4053      3789      4371
 -1      2739    6    0    1
 -2      1222       252      2841      2904      4291      3499      4292      4372      4096      3966
 -1      2740    6    0    1
 -2       616      2873       581      2907      4090      3583       929      3609      3595      3593
 -1      2741    6    0    1
 -2      1868      1858      1871      2887      1929      1898      1931      3806      4366      3886
 -1      2742    6    0    1
 -2       392        37      1864      2857       396      3791      3461      3462      3341      3219
 -1      2743    6    0    1
 -2      1073       130       558      1075      1094       738      3133      1099      1098      2937
 -1      2744    6    0    1
 -2      1078      1071      1076      2851      1109      1121      1093      3951      3952      4202
 -1      2745    6    0    1
 -2      2317        27       272      2906      2341       276      2342      4118      3970      4119
 -1      2746    6    0    1
 -2      1024      1021        97      2900      1051      1047      1049      3058      4344      4345
 -1      2747    6    0    1
 -2       645       556       109      1220       714       710       712      4001      3939      1280
 -1      2748    6    0    1
 -2       576      2880      2842      2907      4309      3428      4208      4210      4152      4209
 -1      2749    6    0    1
 -2       606       595      2845      2893       796      3648      4373      4263      4194      4195
 -1      2750    6    0    1
 -2      1125      1129      1338       191      1193      2973      3006      1200      1197      1437
 -1      2751    6    0    1
 -2        31        27      2903      2906      3754      3532      3755      3969      3970      3915
 -1      2752    6    0    1
 -2      1022      1027      1025      2856      1058      1042      1070      4237      4304      4296
 -1      2753    6    0    1
 -2      1839      2840      1837      2898      4158      4374      1853      4161      4162      4375
 -1      2754    6    0    1
 -2       272      2870       293      2886      3927      4167      4097      4163      3748      3897
 -1      2755    6    0    1
 -2      1560      2877       260      2899      4376      4042      1662      4377      3909      4043
 -1      2756    6    0    1
 -2       625       134      1078      1071       753      1088      3949      3948      1106      1109
 -1      2757    6    0    1
 -2       295      2615       296      2836      4329      3988       300      3433      3989      3883
 -1      2758    6    0    1
 -2      1548      1579        92      2851      1606      4378      4379      4320      4381      4380
 -1      2759    6    0    1
 -2       585       572       570      2855       887       886       888      3170      3405      3903
 -1      2760    6    0    1
 -2       582       636      2860      2902       948      4192      4190      4382      3957      4193
 -1      2761    6    0    1
 -2      2834      2867      2833      2881      3537      3538      3147      3382      3844      3163
 -1      2762    6    0    1
 -2      1549      2851      1582      2875      4187      4326      1703      4077      4100      4327
 -1      2763    6    0    1
 -2      1562       178      1543      1072      1632      1628      1633      3980      1115      3985
 -1      2764    6    0    1
 -2      2431      2439      2434      2897      2511      2510      2489      4062      4063      4383
 -1      2765    6    0    1
 -2      1370      1363      1349      2878      1521      1519      1520      3602      3455      3225
 -1      2766    6    0    1
 -2      1071       559       133      1074      3929       749      1107      1108      3866      1103
 -1      2767    6    0    1
 -2       625      2851       626      2858      3950      4293       850      4384      4172      4385
 -1      2768    6    0    1
 -2       650        92       563      2851      4386      4387       686      4388      4380      4389
 -1      2769    6    0    1
 -2       579       637      2876      2899       922      4390      4153      4154      3908      3692
 -1      2770    6    0    1
 -2      2772      2836      2773      2870      4004      3878      2820      4182      3432      3896
 -1      2771    6    0    1
 -2       632       629       558      2866       845       739       842      4391      3721      3457
 -1      2772    6    0    1
 -2       575       634      2842      2863       913      4318      3571      4021      4025      4022
 -1      2773    6    0    1
 -2       615       550       644      2896       803       800       804      3728      3947      4067
 -1      2774    6    0    1
 -2      1338      1129      1364       190      2973      4299      1438      1436      1198      1434
 -1      2775    6    0    1
 -2       220      2852       219      2886      4184      4092       224      4270      3973      3821
 -1      2776    6    0    1
 -2       637      2877      2876      2899      3905      4392      4390      3908      3909      3692
 -1      2777    6    0    1
 -2      1968      1971      1962      2834      2046      2045      2047      3411      3344      3860
 -1      2778    6    0    1
 -2       238       237      1339      2883       243      1454      1453      3356      4055      4058
 -1      2779    6    0    1
 -2      1342      1353      1025      2856      1432      4295      4393      4394      4265      4296
 -1      2780    6    0    1
 -2      1227      1214      1228      2837      1322      1314      1324      3122      4334      3629
 -1      2781    6    0    1
 -2       602       583      2860      2865       952      4395      4231      3827      4239      4144
 -1      2782    6    0    1
 -2      1024      1020       166      1340      1054      1067      1064      3198      3176      1426
 -1      2783    6    0    1
 -2      1863      1868      1875      2887      1948      1950      1949      4252      3806      4148
 -1      2784    6    0    1
 -2       554       115      1219      2893       730      1297      3393      3395      4264      3396
 -1      2785    6    0    1
 -2      1562      1577      1584      2854      1671      1738      1747      3978      3309      3910
 -1      2786    6    0    1
 -2      1861        42      2075      2881      3177      2112      4285      3161      3178      4286
 -1      2787    6    0    1
 -2       221      2839      1228      2853      3817      3628      1313      4368      3631      3630
 -1      2788    6    0    1
 -2        74      1027       639      2856      1036      4301      4396      4397      4304      4305
 -1      2789    6    0    1
 -2      2219       323        26      2903      2226       324      2224      3318      3756      3336
 -1      2790    6    0    1
 -2       317      2333        23      2903      2340      2339       318      3757      3321      3337
 -1      2791    6    0    1
 -2      1556      1554      2865      2885      1719      4398      4322      4339      4399      4226
 -1      2792    6    0    1
 -2      1756      2520      2515      2892      4400      2577      3890      4112      4401      3740
 -1      2793    6    0    1
 -2       614       624       613      2838      1016      1015       772      4333      3894      4074
 -1      2794    6    0    1
 -2      1214      1226      1229      2837      1320      1323      1311      4334      3139      3635
 -1      2795    6    0    1
 -2       235      2838      1128      2890      4176      3853      4218      4402      4018      3760
 -1      2796    6    0    1
 -2      2836      2870       295      2908      3432      3431      3433      4081      4126      4367
 -1      2797    6    0    1
 -2      2431      2434      1787      2897      2489      4403      4242      4062      4383      4317
 -1      2798    6    0    1
 -2      1136       550       614      2838      4028       769      4330      3811      3946      4333
 -1      2799    6    0    1
 -2      1572      2876      2860      2902      4173      4138      4238      4404      4405      4193
 -1      2800    6    0    1
 -2      1221       114      1215      2845      1294      1290      1295      4232      4359      4360
 -1      2801    6    0    1
 -2       165      1021      1024      2900      1062      1051      1065      4406      4344      3058
 -1      2802    6    0    1
 -2       402      1964        40      2857      3513      3742       406      3515      3248      3055
 -1      2803    6    0    1
 -2      2621       275      2622      2846      4407      4408      2687      3766      4288      3767
 -1      2804    6    0    1
 -2      1233      1224      1237      2856      1301      1304      1274      4206      3561      4122
 -1      2805    6    0    1
 -2       621       610       609      2862      1014      1013       941      3835      4217      3473
 -1      2806    6    0    1
 -2        24      2845      2848      2893      4338      3650      3570      3487      4195      3503
 -1      2807    6    0    1
 -2      1369      1343      1375      2856      1446      1494      1490      4123      2946      4409
 -1      2808    6    0    1
 -2       582      2860      2876      2902      4190      4138      4191      4382      4193      4405
 -1      2809    6    0    1
 -2      1552      2877      1561      2902      4254      4410      1713      4223      4105      4411
 -1      2810    6    0    1
 -2      1135      1132       614      2838      1182      4331      4412      3854      4332      4333
 -1      2811    6    0    1
 -2       613      1135       614      2838      4075      4412       772      4074      3854      4333
 -1      2812    6    0    1
 -2      1126      1376      1128      2905      4413      3869      1186      4354      3871      3763
 -1      2813    6    0    1
 -2       166      1356      1024      1340      1424      3557      1064      1426      1428      3198
 -1      2814    6    0    1
 -2      2774      2772      2836      2869      2817      4004      3700      3982      4107      2997
 -1      2815    6    0    1
 -2       617       547        97      2900       701       700       696      4343      3260      4345
 -1      2816    6    0    1
 -2       551       148       613      1128       774       770       775      3840      1185      3762
 -1      2817    6    0    1
 -2       576       577       578      2899       910       916       915      4207      3954      3794
 -1      2818    6    0    1
 -2      1350      1348      1347      2855      1510      1501      1511      3085      4414      3850
 -1      2819    6    0    1
 -2       547      1024        97      2900      3289      1049       700      3260      3058      4345
 -1      2820    6    0    1
 -2       624       613      2838      2890      1015      4074      3894      4019      3761      4018
 -1      2821    6    0    1
 -2       606       549       114      2845       729       725       727      4373      4037      4359
 -1      2822    6    0    1
 -2       648      2874       600      2902      4128      4308       818      4070      4130      3380
 -1      2823    6    0    1
 -2      2520      2524      2515      2892      2600      2595      2577      4401      3739      3740
 -1      2824    6    0    1
 -2      1571      1585      2873      2907      1670      3524      4102      3560      4415      3595
 -1      2825    6    0    1
 -2       421      2850       420      2868      4089      3839       424      4416      4017      3098
 -1      2826    6    0    1
 -2       587      2883      2884      2890      4048      3452      4417      4049      4050      4418
 -1      2827    6    0    1
 -2       626      2858      2851      2875      4385      4172      4293      4294      3733      4100
 -1      2828    6    0    1
 -2      1546      2854      1568      2882      3724      4419      1688      3666      3725      4420
 -1      2829    6    0    1
 -2       606      2845      1221      2893      4373      4232      4262      4263      4195      4234
 -1      2830    6    0    1
 -2       571       569       570      2861       880       875       881      3189      3585      3901
 -1      2831    6    0    1
 -2       237      2863       236      2883      3406      3407       242      4055      4023      4253
 -1      2832    6    0    1
 -2      1223      1232      1236      2851      1278      1275      1319      4099      4421      4137
 -1      2833    6    0    1
 -2      1586      2874      1552      2902      4170      4221      1715      4132      4130      4223
 -1      2834    6    0    1
 -2      1374        80      1237      2856      4422      1242      4423      4424      4425      4122
 -1      2835    6    0    1
 -2      1216       610       111      2841      4426       718      1285      4340      4216      4341
 -1      2836    6    0    1
 -2      1583      1572      2860      2902      1742      4238      4362      3799      4404      4193
 -1      2837    6    0    1
 -2      1347      2855      1348      2861      3850      4414      1501      3657      3902      4355
 -1      2838    6    0    1
 -2       218      2441      2432      2898      4427      2448      4428      4007      4429      3400
 -1      2839    6    0    1
 -2       606       567       595      2893       824       873       796      4263      3502      4194
 -1      2840    6    0    1
 -2      2441      2840      2429      2898      4430      4157      2507      4429      4162      4160
 -1      2841    6    0    1
 -2       603       651       632      2901       977      1006       843      3035      3642      3210
 -1      2842    6    0    1
 -2      1553      2849      1554      2885      4124      4431      1708      4125      3607      4399
 -1      2843    6    0    1
 -2       630       100       557      1027       680       705       708      4302      1037      4432
 -1      2844    6    0    1
 -2      1224       210      1372      1219      1302      1403      3627      1300      1251      3737
 -1      2845    6    0    1
 -2      1348      1351      1362      2855      1516      1518      1515      4414      3088      3842
 -1      2846    6    0    1
 -2       643       591       601      2895       992       980       993      3735      3258      3873
 -1      2847    6    0    1
 -2       588      2860       636      2901      4356      4192       947      4357      4146      3979
 -1      2848    6    0    1
 -2      1549      1575      1582      2851      1653      1698      1703      4187      4136      4326
 -1      2849    6    0    1
 -2      1126      1364      1376      2905      4433      1435      4413      4354      4300      3871
 -1      2850    6    0    1
 -2       210      1372      1343      1224      1403      1445      1444      1302      3627      3254
 -1      2851    6    0    1
 -2      1557      1556      1554      2865      1724      1719      1725      4086      4322      4398
 -1      2852    6    0    1
 -2       574       575       576      2842       900       906       905      3429      3571      4208
 -1      2853    6    0    1
 -2      1957      1974       411      2850      2022      4434      4178      3512      3825      4179
 -1      2854    6    0    1
 -2       614       550       615      2838       769       803       802      4333      3946      3553
 -1      2855    6    0    1
 -2       622       646       547      2900       788       786       787      3103      2922      3260
 -1      2856    6    0    1
 -2      1217        22       252      1231      1265       254      3803      1270      1269      3722
 -1      2857    6    0    1
 -2        26       255      1585      2873       257      1623      1622      3386      4435      3524
 -1      2858    6    0    1
 -2      1575      1236      1223       230      4134      1319      4135      1600      1249      1317
 -1      2859    6    0    1
 -2      2200       433      2617      2213      2270      2671      3414      2275      2274      3416
 -1      2860    6    0    1
 -2        80      1374        74      2856      4422      4436       541      4425      4424      4397
 -1      2861    6    0    1
 -2       619      2883       573      2894      3453      3591       895      2955      3360      3592
 -1      2862    6    0    1
 -2      1551      1554      1553      2849      1709      1708      1705      3339      4431      4124
 -1      2863    6    0    1
 -2      2203      2215      2212      2906      2300      2301      2302      4133      2943      3096
 -1      2864    6    0    1
 -2      2329      2317      2326      2906      2414      2415      2416      2945      4118      2944
 -1      2865    6    0    1
 -2      1583      1565      1586      2902      1752      1678      1746      3799      3420      4132
 -1      2866    6    0    1
 -2       583      2860      2865      2885      4395      4144      4239      4240      4140      4226
 -1      2867    6    0    1
 -2      1353      1370      1340      2878      1477      1476      1431      3996      3602      3603
 -1      2868    6    0    1
 -2       260      2863      2842      2899      3408      4022      3375      4043      3907      4204
 -1      2869    6    0    1
 -2      1073      1075      1574       177      1099      3051      3134      1111      1113      1625
 -1      2870    6    0    1
 -2       606       114      1221      2845       727      1294      4262      4373      4359      4232
 -1      2871    6    0    1
 -2       165      1024      1356      2900      1065      3557      1423      4406      3058      3558
 -1      2872    6    0    1
 -2      2065      2060      1871      2887      2124      3712      4363      4365      3885      3886
 -1      2873    6    0    1
 -2      1222        22       252      2904      1272       254      4291      4372      4095      4096
 -1      2874    6    0    1
 -2       586       598       619      2884       967       969       899      3018      3292      2954
 -1      2875    6    0    1
 -2      2849      1554      2885      2895      4431      4399      3607      3039      4437      4230
 -1      2876    6    0    1
 -2      1132      1131      1136      2838      1212      1213      1179      4332      3812      3811
 -1      2877    6    0    1
 -2       588       602       583      2860       953       952       945      4356      4231      4395
 -1      2878    6    0    1
 -2       435      2214      2612      2603      2280      3469      2676      2674      3353      2678
 -1      2879    6    0    1
 -2      1817      1815       246      2839      1831      1820      1822      4031      3366      3124
 -1      2880    6    0    1
 -2        92      1579        86      2851      4378      4438       546      4380      4381      4439
 -1      2881    6    0    1
 -2      1836      1838       255      2840      1852      1841      1843      3368      4036      3000
 -1      2882    6    0    1
 -2      2069      1870      2059      2887      4440      4441      2131      4442      4443      4258
 -1      2883    6    0    1
 -2       211      1369      1237      1224      1398      4121      1243      1303      4120      1304
 -1      2884    6    0    1
 -2      2059      1863      2834      2887      4196      4087      4142      4258      4252      3345
 -1      2885    6    0    1
 -2      1561      2877      2876      2902      4410      4392      4444      4411      4105      4405
 -1      2886    6    0    1
 -2      2602      2319      2205      2616      4445      4040      4446      2662      3576      4041
 -1      2887    6    0    1
 -2       624       614       615      2838      1016       802      1017      3894      4333      3553
 -1      2888    6    0    1
 -2      1568      2854      1584      2865      4419      3910      1737      4447      3826      3911
 -1      2889    6    0    1
 -2      2068      2059      2073      2834      2194      2134      2196      4113      4142      3716
 -1      2890    6    0    1
 -2       576       574      2842      2880       905      3429      4208      4309      3363      3428
 -1      2891    6    0    1
 -2      2778      2771      2521      2872      2810      4448      4052      4335      4449      4336
 -1      2892    6    0    1
 -2      2436      2770      2780      2871      4450      2806      3398      3709      4451      3710
 -1      2893    6    0    1
 -2      1374      1237      1369      2856      4423      4121      1399      4424      4122      4123
 -1      2894    6    0    1
 -2       578       579       580      2899       920       926       925      3794      4154      3449
 -1      2895    6    0    1
 -2      1582      2851      1559      2858      4326      4171      1696      4325      4172      3846
 -1      2896    6    0    1
 -2      1355      1366      1354      2884      1535      1472      1505      3543      2953      4181
 -1      2897    6    0    1
 -2      1234      2840      2441      2898      4452      4430      4453      4454      4162      4429
 -1      2898    6    0    1
 -2       552      1222       111      2841      4455      1282       716      4456      4292      4341
 -1      2899    6    0    1
 -2      1561      1586      1552      2902      1716      1715      1713      4411      4132      4223
 -1      2900    6    0    1
 -2       410      2850       411      2868      3851      4179       414      3114      4017      4457
 -1      2901    6    0    1
 -2      2865      2885      1554      2895      4226      4399      4398      4229      4230      4437
 -1      2902    6    0    1
 -2      2072      2060      2065      2887      2198      2124      2188      3793      3885      4365
 -1      2903    6    0    1
 -2       317      2839      1816      2853      3365      3775      1827      3654      3631      4310
 -1      2904    6    0    1
 -2      1837      2840       323      2852      4374      3367      1848      4458      3637      3656
 -1      2905    6    0    1
 -2      1579      1236        86      2851      4459      1247      4438      4381      4137      4439
 -1      2906    6    0    1
 -2      1976      2062      2070      2867      4460      2172      3786      3787      3956      3706
 -1      2907    6    0    1
 -2      1215      2845       549      2847      4360      4037      4358      4461      3236      4038
 -1      2908    6    0    1
 -2       317      1815      1816      2839      1821      1833      1827      3365      3366      3775
 -1      2909    6    0    1
 -2      1837      1836       323      2840      1854      1845      1848      4374      3368      3367
 -1      2910    6    0    1
 -2      1348      2855      1362      2864      4414      3842      1515      4269      3186      2979
 -1      2911    6    0    1
 -2      1075      1543      1574       177      2938      1630      3051      1113      1629      1625
 -1      2912    6    0    1
 -2      1569      1582      2858      2875      1702      4325      4044      4045      4327      3733
 -1      2913    6    0    1
 -2       621       581       616      2873       942       929       944      3759      3583      4090
 -1      2914    6    0    1
 -2      1366      1339      1354      2883      1471      1455      1472      3459      4058      4180
 -1      2915    6    0    1
 -2      1220       556       109      1223      3939       710      1280      1281      4039      1276
 -1      2916    6    0    1
 -2      1571      1585      1550      2873      1670      1657      1706      4102      3524      4273
 -1      2917    6    0    1
 -2       620      2858       601      2882      3695      3872       847      3697      3668      4199
 -1      2918    6    0    1
 -2      2619      2615       296       295      2648      3988      4462      4328      4329       300
 -1      2919    6    0    1
 -2       274      2870      2836      2908      3638      3432      3612      4165      4126      4081
 -1      2920    6    0    1
 -2       238      1339      1365      2894      1453      1458      1457      3359      4059      3206
 -1      2921    6    0    1
 -2      2617      2606       433      2200      2670      2666      2671      3414      3820      2270
 -1      2922    6    0    1
 -2      2855      2861       604      2864      3902      4463      3933      3186      3024      3922
 -1      2923    6    0    1
 -2      2778      2517       221      2889      4051      4060      2783      4054      4014      4024
 -1      2924    6    0    1
 -2        86      1232       563      2851      1245      4464      4465      4439      4421      4389
 -1      2925    6    0    1
 -2       583       580      2860      2885       935      4139      4395      4240      3450      4140
 -1      2926    6    0    1
 -2       641       563      1232      2851       690      4464      4466      4316      4389      4421
 -1      2927    6    0    1
 -2       261      2899      2842      2907      4467      4204      3438      4188      3331      4209
 -1      2928    6    0    1
 -2       572       619       573      2894       896       895       891      2984      2955      3592
 -1      2929    6    0    1
 -2      1866      1867      1868      2844      1951      1954      1947      3704      3446      3783
 -1      2930    6    0    1
 -2      1229      2840      1234      2898      3634      4452      1308      4468      4162      4454
 -1      2931    6    0    1
 -2      1554      2849      1551      2895      4431      3339      1709      4437      3039      3340
 -1      2932    6    0    1
 -2       363      1970      1958      2058      1999      2001      1997      2152      4469      3371
 -1      2933    6    0    1
 -2      1757      2521      1755      2889      4470      4370      1770      4471      4053      4371
 -1      2934    6    0    1
 -2      2849      2885       584      2895      3607      4256      4255      3039      4230      4261
 -1      2935    6    0    1
 -2      1128      1376       235      2890      3869      1402      4218      3760      3870      4402
 -1      2936    6    0    1
 -2      1136      1132       614       146      1179      4331      4330      1173      1177       768
 -1      2937    6    0    1
 -2      1784      2871       295      2897      4472      3687      1803      4473      3689      3434
 -1      2938    6    0    1
 -2      2837      2852      1214      2853      3580      4183      4334      3579      3530      4186
 -1      2939    6    0    1
 -2      1976      1959      2062      2867      2013      4474      4460      3787      4475      3956
 -1      2940    6    0    1
 -2      1021       165      1337      2900      1062      1421      4476      4344      4406      4477
 -1      2941    6    0    1
 -2      1548      1559      1582      2851      1640      1696      1695      4320      4171      4326
 -1      2942    6    0    1
 -2        74       639        80      2856      4396      4478       541      4397      4305      4425
 -1      2943    6    0    1
 -2      1961      1968      1976      2867      2042      2036      2016      3590      3536      3787
 -1      2944    6    0    1
 -2      2603       435      2214      2201      2674      2280      3353      3354      2276      2281
 -1      2945    6    0    1
 -2       580       582       583      2860       930       936       935      4139      4190      4395
 -1      2946    6    0    1
 -2      2840      2852      1837      2898      3637      4458      4374      4162      4093      4375
 -1      2947    6    0    1
 -2        22       252      1231      1222       254      3722      1269      1272      4291      1273
 -1      2948    6    0    1
 -2      1553      1571      1550      2849      1707      1706      1704      4124      3727      4272
 -1      2949    6    0    1
 -2       221      1235      1228      2839      1261      1315      1313      3817      3818      3628
 -1      2950    6    0    1
 -2       261      1545      2899      2907      1665      3540      4467      4188      3541      3331
 -1      2951    6    0    1
 -2      1587      1572      1545      2876      1685      1682      1683      4174      4173      4479
 -1      2952    6    0    1
 -2      1134       151       642      2859      1141       662      4480      4481      4482      3682
 -1      2953    6    0    1
 -2       629      1079       129       558      3981      1082       671       739      4483       737
 -1      2954    6    0    1
 -2      2780      2436       473      2770      3398      2494      2787      2806      4450      2804
 -1      2955    6    0    1
 -2       504      2771      2521      2778      2809      4448      2590      2784      2810      4052
 -1      2956    6    0    1
 -2      2621      2836       275      2846      3621      4259      4407      3766      3076      4288
 -1      2957    6    0    1
 -2       630       557       633      2856       708       838       840      4303      4236      3131
 -1      2958    6    0    1
 -2      1560      2876      2877      2899      4484      4392      4376      4377      3692      3909
 -1      2959    6    0    1
 -2      2774       519      2772      2869      2813      2815      2817      3982      3048      4107
 -1      2960    6    0    1
 -2       246        24       249      2845       248       250      3678      3127      4338      3680
 -1      2961    6    0    1
 -2      1568      2882      2865      2895      4420      4485      4447      4486      4016      4229
 -1      2962    6    0    1
 -2      1786       295       296      2897      1805       300      1806      4487      3434      4013
 -1      2963    6    0    1
 -2       200      1570      1544      2874      1647      1649      1645      4488      4490      4489
 -1      2964    6    0    1
 -2       134       625       559      1071       753       752       750      1106      3948      3929
 -1      2965    6    0    1
 -2       650       563       625      2851       686       862       754      4388      4389      3950
 -1      2966    6    0    1
 -2      1562      1584      1568      2854      1747      1737      1689      3978      3910      4419
 -1      2967    6    0    1
 -2       255      2841        25      2873      3002      4103       256      4435      3875      3485
 -1      2968    6    0    1
 -2      1225      1215       113      2847      1292      1291      1287      4197      4461      4491
 -1      2969    6    0    1
 -2      1126      1129      1364      2905      1190      4299      4433      4354      3671      4300
 -1      2970    6    0    1
 -2      2059      1870      1863      2887      4441      1904      4196      4258      4443      4252
 -1      2971    6    0    1
 -2      1231      1216      2841      2862      1329      4340      3504      3495      4492      3004
 -1      2972    6    0    1
 -2       235       258       207      2838      3990      4324      4323      4176      3964      4493
 -1      2973    6    0    1
 -2        31      2886       293      2898      3967      3897       297      4352      3426      3899
 -1      2974    6    0    1
 -2      1218       249        19      1230      3801       251      1253      1254      3800      1255
 -1      2975    6    0    1
 -2       604      2855       570      2861      3933      3903       877      4463      3902      3901
 -1      2976    6    0    1
 -2      2205      2319      2602      2614      4040      4445      4446      4494      4495      2659
 -1      2977    6    0    1
 -2      1375      1353      2856      2878      1487      4265      4409      4496      3996      2951
 -1      2978    6    0    1
 -2      1974       412       411      2850      3824       415      4434      3825      3391      4179
 -1      2979    6    0    1
 -2       625       626       559      2858       850       849       752      4384      4385      3867
 -1      2980    6    0    1
 -2      2067      2069      2059      2887      2195      2131      2191      3833      4442      4258
 -1      2981    6    0    1
 -2      1579      1575      1236      2851      1602      4134      4459      4381      4136      4137
 -1      2982    6    0    1
 -2      1560       259       260      2877      1661       265      1662      4376      3686      4042
 -1      2983    6    0    1
 -2      2066      2067      2059      2887      2162      2191      2192      4257      3833      4258
 -1      2984    6    0    1
 -2       610      2841      1216      2862      4216      4340      4426      4217      3004      4492
 -1      2985    6    0    1
 -2       590       579       637      2876       933       922       934      4497      4153      4390
 -1      2986    6    0    1
 -2       587      2884       623      2890      4417      4498       970      4049      4418      4499
 -1      2987    6    0    1
 -2       582       580       579      2876       930       926       931      4191      3690      4153
 -1      2988    6    0    1
 -2      2432      2441      2437      2898      2448      2508      2512      3400      4429      3672
 -1      2989    6    0    1
 -2      2777       219      2775      2886      2798      2794      2799      4246      3821      3424
 -1      2990    6    0    1
 -2      1557      1577      1558      2901      1735      1734      1731      4145      3310      4268
 -1      2991    6    0    1
 -2      1222       552       110      2904      4455       715      1283      4372      4501      4500
 -1      2992    6    0    1
 -2      2776       220      2777      2886      2801      2797      2802      3751      4270      4246
 -1      2993    6    0    1
 -2       645       110       552      2904       713       715       717      4002      4500      4501
 -1      2994    6    0    1
 -2       637       590      2876      2877       934      4497      4390      3905      4297      4392
 -1      2995    6    0    1
 -2      2780       218      2432      2898      2785      4428      3399      3401      4007      3400
 -1      2996    6    0    1
 -2      1757      2523      2521      2889      4502      2570      4470      4471      3924      4053
 -1      2997    6    0    1
 -2       302      1839      1837      2898      1849      1853      1847      4251      4161      4375
 -1      2998    6    0    1
 -2      2429      2440      1838      2840      2490      4033      4337      4157      4035      4036
 -1      2999    6    0    1
 -2      1131       207       258      2838      1158      4324      4224      3812      4493      3964
 -1      3000    6    0    1
 -2       650      1078        92      2851      4503      1086      4386      4388      3951      4380
 -1      3001    6    0    1
 -2       549       113      1215      2847       724      1291      4358      4038      4491      4461
 -1      3002    6    0    1
 -2      2615      2604      2621      2836      2717      2685      2718      3989      4078      3621
 -1      3003    6    0    1
 -2      1962      1972      2074       365      2007      3857      3856      2003      2005      2164
 -1      3004    6    0    1
 -2       261      1571      1545      2907      1667      1669      1665      4188      3560      3541
 -1      3005    6    0    1
 -2       236      2838       235      2890      3805      4176       241      4147      4018      4402
 -1      3006    6    0    1
 -2        42      2061      2075      2881      2114      2116      2112      3178      4361      4286
 -1      3007    6    0    1
 -2       652      2841       621      2873      3965      3874      1000      3669      3875      3759
 -1      3008    6    0    1
 -2      1021      2879       617      2900      4504      4505      4342      4344      3626      4343
 -1      3009    6    0    1
 -2       648       612      2874      2896       819      4506      4128      4068      4507      4129
 -1      3010    6    0    1
 -2       239       238      1365      2880       244      1457      1456      3471      3357      2991
 -1      3011    6    0    1
 -2        86       563        92      2851      4465      4387       546      4439      4389      4380
 -1      3012    6    0    1
 -2      2316      2333      2324      2903      2361      2375      2412      3302      3321      4348
 -1      3013    6    0    1
 -2      2210      2219      2202      2903      2261      2247      2299      4350      3318      3351
 -1      3014    6    0    1
 -2      1555      2882      1568      2895      4015      4420      1723      3937      4016      4486
 -1      3015    6    0    1
 -2        25       255       252      2841       256      3497       253      4103      3002      3499
 -1      3016    6    0    1
 -2       556       641       108      1232       711       689       709      4508      4466      1246
 -1      3017    6    0    1
 -2      1026        95       560       627      1031       692      3226      3143       694       693
 -1      3018    6    0    1
 -2      1555      1551      1567      2895      1711      1619      1712      3937      3340      3038
 -1      3019    6    0    1
 -2        25      2849      1550      2873      3342      4272      1616      3485      3269      4273
 -1      3020    6    0    1
 -2      1229      2852      2840      2898      3636      3637      3634      4468      4093      4162
 -1      3021    6    0    1
 -2      2836      2846      2773      2892      3076      4509      3878      3617      3741      3879
 -1      3022    6    0    1
 -2      1352      1351      1350      2855      1522      1517      1523      2925      3088      3085
 -1      3023    6    0    1
 -2      1561      2876      1572      2902      4444      4173      1744      4411      4405      4404
 -1      3024    6    0    1
 -2       610       552       111      2841       720       716       718      4216      4456      4341
 -1      3025    6    0    1
 -2       620       640      2854      2882       791      4510      3784      3697      4511      3725
 -1      3026    6    0    1
 -2      1122       207      1131      2838      1154      1158      1209      3852      4493      3812
 -1      3027    6    0    1
 -2      1125       150       555      1129      1191       780      3314      1193      1189      2974
 -1      3028    6    0    1
 -2      2074       366      1972      1959      2163      2006      3857      4512      2008      2010
 -1      3029    6    0    1
 -2      1342      1375      1353      2856      1488      1487      1432      4394      4409      4265
 -1      3030    6    0    1
 -2       235       207      1122      2838      4323      1154      4219      4176      4493      3852
 -1      3031    6    0    1
 -2      1229      1231      1217      2840      1334      1270      1333      3634      3494      3804
 -1      3032    6    0    1
 -2      2772       520      2773      2836      2816      2818      2820      4004      4005      3878
 -1      3033    6    0    1
 -2       648       644       612      2896       989       801       819      4068      4067      4507
 -1      3034    6    0    1
 -2       274      2872      1753      2892      3614      4513      1771      3615      3616      4514
 -1      3035    6    0    1
 -2       626       643      2858      2875       835      3732      4385      4294      3734      3733
 -1      3036    6    0    1
 -2      2217      2331      2319      2614      4012      2368      4127      4515      4516      4495
 -1      3037    6    0    1
 -2       147      1132       614      1135      1178      4331       767      1180      1182      4412
 -1      3038    6    0    1
 -2      1555      1567      1569      2875      1712      1699      1727      3935      3228      4045
 -1      3039    6    0    1
 -2       650       625      1078      2851       754      3949      4503      4388      3950      3951
 -1      3040    6    0    1
 -2      1554      1568      2865      2895      1722      4447      4398      4437      4486      4229
 -1      3041    6    0    1
 -2      1346      2884      1354      2890      4517      4181      1452      4346      4418      4518
 -1      3042    6    0    1
 -2       645      1220       110      2904      4001      1279       713      4002      3920      4500
 -1      3043    6    0    1
 -2      1218      1230      1228      2839      1254      1336      1335      3802      3477      3628
 -1      3044    6    0    1
 -2      1544      2874      1586      2891      4489      4170      1679      4519      4169      4131
 -1      3045    6    0    1
 -2      1136       145       550      2896      1172       765      4028      3813      4520      3947
 -1      3046    6    0    1
 -2      2778      2776      2872      2889      2803      3749      4335      4054      3788      3789
 -1      3047    6    0    1
 -2      1560      2876      1561      2877      4484      4444      1714      4376      4392      4410
 -1      3048    6    0    1
 -2       573       574       571      2894       893       892       890      3592      3364      3190
 -1      3049    6    0    1
 -2      1221        19       249      1230      1256       251      4233      1258      1255      3800
 -1      3050    6    0    1
 -2      2612      2220      2214       436      3834      2283      3469      2677      2282      2279
 -1      3051    6    0    1
 -2      1754       275       274      2892      1774       279      1775      4521      4260      3615
 -1      3052    6    0    1
 -2      2314      2325       455      2608      2386      2382      2384      3516      3443      2699
 -1      3053    6    0    1
 -2       557       633      2856      2878       838      3131      4236      3976      3132      2951
 -1      3054    6    0    1
 -2      1073       129      1079       558      1095      1082      1096      3133       737      4483
 -1      3055    6    0    1
 -2      1222       110      1220      2904      1283      1279      1271      4372      4500      3920
 -1      3056    6    0    1
 -2       599      2866       632      2891      4522      4391       856      4523      4525      4524
 -1      3057    6    0    1
 -2       620       559       601      2858       751       846       847      3695      3867      3872
 -1      3058    6    0    1
 -2       165      1356      1337      2900      1423      1425      1421      4406      3558      4477
 -1      3059    6    0    1
 -2      1786       296      2869      2897      1806      3884      4526      4487      4013      3694
 -1      3060    6    0    1
 -2       600       599       632      2891       816       856      1004      3378      4523      4524
 -1      3061    6    0    1
 -2       556       596      2875      2904       830      3284      3938      3940      3101      3230
 -1      3062    6    0    1
 -2      1817      1818      1816      2839      1834      1832      1835      4031      3203      3775
 -1      3063    6    0    1
 -2      2524        46      2513       521      2564      2561      2565      3526       526      3707
 -1      3064    6    0    1
 -2      1838      1837      1839      2840      1856      1853      1855      4036      4374      4158
 -1      3065    6    0    1
 -2      1364      1129      1126       190      4299      1190      4433      1434      1198      1195
 -1      3066    6    0    1
 -2      1230      2845      1215      2847      3476      4360      1325      3478      3236      4461
 -1      3067    6    0    1
 -2      2722       518      2435      2868      2732      4101      4527      4528      4530      4529
 -1      3068    6    0    1
 -2      1225       112      1216      2862      1288      1284      1289      4198      4531      4492
 -1      3069    6    0    1
 -2      1369       211      1343      1224      1398      1443      1446      4120      1303      3254
 -1      3070    6    0    1
 -2       219      2852       218      2898      4092      4532       223      3822      4093      4007
 -1      3071    6    0    1
 -2      1551      1550        25      2849      1617      1616      1618      3339      4272      3342
 -1      3072    6    0    1
 -2      1546      1562      1568      2854      1636      1689      1688      3724      3978      4419
 -1      3073    6    0    1
 -2      1222      2841       552      2904      4292      4456      4455      4372      3966      4501
 -1      3074    6    0    1
 -2      1575      1223      1549       230      4135      4076      1653      1600      1317      1652
 -1      3075    6    0    1
 -2      2722      2439      2435       518      4533      2475      4527      2732      3959      4101
 -1      3076    6    0    1
 -2       623      2890      2884      2905      4499      4418      4498      4534      3765      3333
 -1      3077    6    0    1
 -2       556       645       596      2904       714       811       830      3940      4002      3101
 -1      3078    6    0    1
 -2       555       642       151      2859       782       662       779      2915      3682      4482
 -1      3079    6    0    1
 -2       457      2315      2327      2609      2390      2392      2388      2704      3632      3548
 -1      3080    6    0    1
 -2      1022       557       100      1027      3997       705      1056      1058      4432      1037
 -1      3081    6    0    1
 -2      2324      2329      2316      2906      2413      2411      2412      4349      2945      3914
 -1      3082    6    0    1
 -2      2215      2210      2202      2906      2298      2299      2296      2943      4351      3913
 -1      3083    6    0    1
 -2      2773      2836       520      2846      3878      4005      2818      4509      3076      4535
 -1      3084    6    0    1
 -2      1135      1122      1132      2838      1210      1211      1182      3854      3852      4332
 -1      3085    6    0    1
 -2      1357      1341      1137       192      1442      4156      4536      1440      1384      1144
 -1      3086    6    0    1
 -2      1130      1581      1570      2896      4537      1650      4538      4539      4541      4540
 -1      3087    6    0    1
 -2       236      1346      1354      2890      1447      1452      1451      4147      4346      4518
 -1      3088    6    0    1
 -2      1219        19       249      1221      1250       251      4280      1257      1256      4233
 -1      3089    6    0    1
 -2       605       555       150      1129       781       780       776      3235      2974      1189
 -1      3090    6    0    1
 -2       562       633       565      2856       860       859       736      4290      3131      2947
 -1      3091    6    0    1
 -2      2606      2314       455      2608      3819      2384      2703      2667      3516      2699
 -1      3092    6    0    1
 -2        25      2841       252      2904      4103      3499       253      3343      3966      4096
 -1      3093    6    0    1
 -2       600      2874       553      2891      4308      4542       815      3378      4169      4543
 -1      3094    6    0    1
 -2      1341      1357      1137      2859      1442      4536      4156      3641      2969      4248
 -1      3095    6    0    1
 -2      1976       367      2062      1959      2011      2170      4460      2013      2009      4474
 -1      3096    6    0    1
 -2      1225       113       608      2847      1287       722      4544      4197      4491      4313
 -1      3097    6    0    1
 -2       402      2857      2846      2888      3515      3078      4545      4211      4212      3510
 -1      3098    6    0    1
 -2       616      2849       593      2873      3608      3270       959      4090      3269      3268
 -1      3099    6    0    1
 -2      1872      2061      2077      2881      4546      2141      4547      4287      4361      4548
 -1      3100    6    0    1
 -2      2722        43      2439       518      2730      2471      4533      2732       522      3959
 -1      3101    6    0    1
 -2      2439      2435        43      2722      2475      2474      2471      4533      4527      2730
 -1      3102    6    0    1
 -2      1137      1134        50      2859      1161      1140      1142      4248      4481      3746
 -1      3103    6    0    1
 -2       218      1229      1234      2898      1306      1308      1263      4007      4468      4454
 -1      3104    6    0    1
 -2      2200      2211      2608       432      2272      3444      3445      2271      2267      2661
 -1      3105    6    0    1
 -2      1222      1220        22      2904      1271      1268      1272      4372      3920      4095
 -1      3106    6    0    1
 -2       647       560       628      2879       852       853       855      3211      3227      3071
 -1      3107    6    0    1
 -2      1345      1344      1347      2861      1413      1497      1496      3278      3546      3657
 -1      3108    6    0    1
 -2      1138      1547      1563       198      4281      1643      4549      1150      1596      1641
 -1      3109    6    0    1
 -2       512       402      2846      2888      2764      4545      4550      4551      4211      3510
 -1      3110    6    0    1
 -2       608      1225      2847      2862      4544      4197      4313      4314      4198      3862
 -1      3111    6    0    1
 -2       296      2607       510      2869      3987      2644      4552      3884      2998      3158
 -1      3112    6    0    1
 -2      1568      2854      2865      2882      4419      3826      4447      4420      3725      4485
 -1      3113    6    0    1
 -2      1583      1561      1572      2902      1745      1744      1742      3799      4411      4404
 -1      3114    6    0    1
 -2       588       636       651      2901       947       979       978      4357      3979      3642
 -1      3115    6    0    1
 -2       553       600       648      2874       815       818       817      4542      4308      4128
 -1      3116    6    0    1
 -2       200      1544      1127      2874      1645      4553      1205      4488      4489      4554
 -1      3117    6    0    1
 -2      2437      2441      2429      2898      2508      2507      2459      3672      4429      4160
 -1      3118    6    0    1
 -2       609       631       581      2843       943       919       940      3474      4115      3582
 -1      3119    6    0    1
 -2      1548        16        92      1579      1604        94      4379      1606      1603      4378
 -1      3120    6    0    1
 -2       582      2876       590      2902      4191      4497       932      4382      4405      4298
 -1      3121    6    0    1
 -2      2213       434      2609      2201      2273      2669      3547      2278      2277      3549
 -1      3122    6    0    1
 -2       338      1859      1872      2881      1908      1913      1912      4555      3673      4287
 -1      3123    6    0    1
 -2      1552      2874      1570      2896      4221      4490      1717      4222      4129      4540
 -1      3124    6    0    1
 -2      1126       605      1129      2905      4556      3235      1190      4354      3061      3671
 -1      3125    6    0    1
 -2       572       571       570      2894       885       881       886      2984      3190      3904
 -1      3126    6    0    1
 -2      1570       200      1130      2874      1647      1208      4538      4490      4488      4557
 -1      3127    6    0    1
 -2        96      1023       560      2879      1044      3681       691      4558      3484      3227
 -1      3128    6    0    1
 -2      2319      2205      2217      2614      4040      2254      4127      4495      4494      4515
 -1      3129    6    0    1
 -2       582       590       636      2902       932       949       948      4382      4298      3957
 -1      3130    6    0    1
 -2       604      2861       568      2864      4463      3019       878      3922      3024      3022
 -1      3131    6    0    1
 -2       295      1784       294      2871      1803      1802       299      3687      4472      4274
 -1      3132    6    0    1
 -2       273      1753       274      2872      1772      1771       278      4277      4513      3614
 -1      3133    6    0    1
 -2      2068      2066      2059      2834      2193      2192      2194      4113      3992      4142
 -1      3134    6    0    1
 -2      1544      1586      1565      2891      1679      1678      1677      4519      4131      3419
 -1      3135    6    0    1
 -2       221      2517        20      2527      4060      2535       226      3816      2537      2534
 -1      3136    6    0    1
 -2       148       551      1126      1128       774      4353      1183      1185      3840      1186
 -1      3137    6    0    1
 -2        21      2432       218      2441      2447      4428       222      2444      2448      4427
 -1      3138    6    0    1
 -2      1859      2077      2064      2881      4559      2142      3999      3673      4548      3599
 -1      3139    6    0    1
 -2      1583      1566      1565      2901      1741      1750      1752      3798      3209      3418
 -1      3140    6    0    1
 -2       220      2853      2886      2889      4185      3974      4270      4271      4311      3790
 -1      3141    6    0    1
 -2      1138      1563      1547      2866      4549      1643      4281      4282      4560      3633
 -1      3142    6    0    1
 -2      2437      2436      1788       305      2482      3944      4027      2456      2480      1796
 -1      3143    6    0    1
 -2      1229       218      2852      2898      1306      4532      3636      4468      4007      4093
 -1      3144    6    0    1
 -2      1135       613       148      1128      4075       770      1181      1187      3762      1185
 -1      3145    6    0    1
 -2       605      1126       149      2905      4556      1184       777      3061      4354      4561
 -1      3146    6    0    1
 -2      1372      1219       249      2893      3737      4280      1405      3525      3396      4235
 -1      3147    6    0    1
 -2      1381      1339      1366      2894      1474      1471      1475      3861      4059      2957
 -1      3148    6    0    1
 -2       338      2077      1859      2881      2140      4559      1908      4555      4548      3673
 -1      3149    6    0    1
 -2      1558      1556      1557      2860      1730      1724      1731      4267      4321      4143
 -1      3150    6    0    1
 -2       521      2723      2513      2888      2735      4562      3707      3509      4563      3708
 -1      3151    6    0    1
 -2      1348      2861      2855      2864      4355      3902      4414      4269      3024      3186
 -1      3152    6    0    1
 -2      1131        18       258       207      1159       263      4224      1158       208      4324
 -1      3153    6    0    1
 -2      2074      1962       365      2066      3856      2003      2164      2165      3991      2160
 -1      3154    6    0    1
 -2      2876      2877       590      2902      4392      4297      4497      4405      4105      4298
 -1      3155    6    0    1
 -2        24      1817       246      2526      1823      1822       248      2538      4030      4029
 -1      3156    6    0    1
 -2        24       249      2845      2893       250      3680      4338      3487      4235      4195
 -1      3157    6    0    1
 -2       560       617        96      2879       698       697       691      3227      4505      4558
 -1      3158    6    0    1
 -2      1021       164      1023      2879      1063      1059      1048      4504      4564      3484
 -1      3159    6    0    1
 -2       587      2883       619      2884      4048      3453       904      4417      3452      2954
 -1      3160    6    0    1
 -2      1130      1570      2874      2896      4538      4490      4557      4539      4540      4129
 -1      3161    6    0    1
 -2      2440       255        25      1838      4034       256      2453      4033      1841      1840
 -1      3162    6    0    1
 -2        68      1133      1138      2866      1145      1162      1149      3662      4565      4282
 -1      3163    6    0    1
 -2      2608      2606      2200       432      2667      3820      3445      2661      2665      2271
 -1      3164    6    0    1
 -2       249        24       246      2526       250       248      3678      2539      2538      4029
 -1      3165    6    0    1
 -2       601       589      2882      2895       981      4566      4199      3873      4228      4016
 -1      3166    6    0    1
 -2      1554      1555      1568      2895      1710      1723      1722      4437      3937      4486
 -1      3167    6    0    1
 -2      2077      2867      2064      2881      4567      3882      2142      4548      3844      3599
 -1      3168    6    0    1
 -2      1223       556       108      1232      4039       709      1277      1278      4508      1246
 -1      3169    6    0    1
 -2       550      1136       614       146      4028      4330       769       764      1173       768
 -1      3170    6    0    1
 -2      2723      2513        46       521      4562      2561      2734      2735      3707       526
 -1      3171    6    0    1
 -2      2519      2513      2525      2888      2594      2596      2560      3986      3708      4568
 -1      3172    6    0    1
 -2       252       255        25      2440      3497       256       253      2452      4034      2453
 -1      3173    6    0    1
 -2      1342      1025        11      1374      4393      1039      1394      1395      4569      1391
 -1      3174    6    0    1
 -2       576       575       577      2842       906       911       910      4208      3571      4203
 -1      3175    6    0    1
 -2      1225       608       112      2862      4544       721      1288      4198      4314      4531
 -1      3176    6    0    1
 -2      2078       362      1958      2058      2155      1996      3166      2154      2153      3371
 -1      3177    6    0    1
 -2      2524      2779        46       521      4570      2791      2564      3526      2793       526
 -1      3178    6    0    1
 -2       422      2433      2443      2850      4571      2500      3151      3154      4572      3156
 -1      3179    6    0    1
 -2      1234      2441       218      2898      4453      4427      1263      4454      4429      4007
 -1      3180    6    0    1
 -2      2062      1959      2057      2867      4474      4573      2171      3956      4475      4574
 -1      3181    6    0    1
 -2      2613      2220      2612       436      4057      3834      2681      2679      2282      2677
 -1      3182    6    0    1
 -2       411      2850      2433      2868      4179      4572      4575      4457      4017      4576
 -1      3183    6    0    1
 -2       392      2846      2857      2888      4577      3078      3462      4214      3510      4212
 -1      3184    6    0    1
 -2       626       643       601      2858       835       993       848      4385      3732      3872
 -1      3185    6    0    1
 -2       617      1021        96      2879      4342      1046       697      4505      4504      4558
 -1      3186    6    0    1
 -2      2437       302      1788      2898      4250      1791      4027      3672      4251      3945
 -1      3187    6    0    1
 -2       411       412      2433      2850       415      4578      4575      4179      3391      4572
 -1      3188    6    0    1
 -2       594       566       633      2878       870       866       839      3865      3045      3132
 -1      3189    6    0    1
 -2       620       640       548      2854       791       790       748      3784      4510      3780
 -1      3190    6    0    1
 -2      1816       269        27      2889      1825       270      1826      4200      3770      4579
 -1      3191    6    0    1
 -2       589      2865      2882      2895      4227      4485      4566      4228      4229      4016
 -1      3192    6    0    1
 -2      2315       457      2603      2609      2390      2708      3578      3632      2704      2675
 -1      3193    6    0    1
 -2      1364      1346      1376      2905      1509      1449      1435      4300      4347      3871
 -1      3194    6    0    1
 -2      2514      2528      2527      2839      2599      2566      2598      3202      4276      3796
 -1      3195    6    0    1
 -2      2062      2867      2077      2881      3956      4567      2180      4006      3844      4548
 -1      3196    6    0    1
 -2      1136      1123       145      2896      1176      1175      1172      3813      3923      4520
 -1      3197    6    0    1
 -2      2429      2441      2442      2840      2507      2478      2509      4157      4430      4279
 -1      3198    6    0    1
 -2       307      1786      2434      2897      1814      4580      2486      4581      4487      4383
 -1      3199    6    0    1
 -2       636       588       582      2860       947       946       948      4192      4356      4190
 -1      3200    6    0    1
 -2        31      1837      2852      2898      1846      4458      3753      4352      4375      4093
 -1      3201    6    0    1
 -2      1558      1583      2860      2901      1740      4362      4267      4268      3798      4146
 -1      3202    6    0    1
 -2      2513       391      2518      2888      4582      4065      2586      3708      4249      4283
 -1      3203    6    0    1
 -2       549       608       113      2847       726       722       724      4038      4313      4491
 -1      3204    6    0    1
 -2      1337       164      1021      2879      1420      1063      4476      4583      4564      4504
 -1      3205    6    0    1
 -2       269      1818        28      2523      1829      1828       271      3934      4073      2542
 -1      3206    6    0    1
 -2       610       621       652      2841      1014      1000       814      4216      3874      3965
 -1      3207    6    0    1
 -2       614       147      1135       613       767      1180      4412       772       771      4075
 -1      3208    6    0    1
 -2       551       605       149      2905       778       777       773      3841      3061      4561
 -1      3209    6    0    1
 -2      1216      1222      1231      2841      1286      1273      1329      4340      4292      3504
 -1      3210    6    0    1
 -2      2621      2604       275      2836      2685      4584      4407      3621      4078      4259
 -1      3211    6    0    1
 -2      2521      2771      2516      2872      4448      4585      2573      4336      4449      4586
 -1      3212    6    0    1
 -2      2436      2430      2770      2871      2485      4587      4450      3709      4588      4451
 -1      3213    6    0    1
 -2       556       596       643      2875       830       832       831      3938      3284      3734
 -1      3214    6    0    1
 -2       585       604       622      2855       889       964       963      3170      3933      3102
 -1      3215    6    0    1
 -2      1225      1216      1226      2862      1289      1331      1330      4198      4492      3140
 -1      3216    6    0    1
 -2       605       149      1126      1129       777      1184      4556      3235      1188      1190
 -1      3217    6    0    1
 -2      1870      2069      2059       335      4440      2131      4441      1899      2127      2129
 -1      3218    6    0    1
 -2       338      1872      2077      2881      1912      4547      2140      4555      4287      4548
 -1      3219    6    0    1
 -2      1570      1552      1586      2874      1717      1715      1680      4490      4221      4170
 -1      3220    6    0    1
 -2       562       639       630      2856       677       681       861      4290      4305      4303
 -1      3221    6    0    1
 -2      2072      2065      2058      2887      2188      2187      2189      3793      4365      3372
 -1      3222    6    0    1
 -2       392       521      2846      2888      2740      3506      4577      4214      3509      3510
 -1      3223    6    0    1
 -2       591      2849       584      2895      3257      4255       955      3258      3039      4261
 -1      3224    6    0    1
 -2       237       236      1354      2883       242      1451      1450      4055      4253      4180
 -1      3225    6    0    1
 -2      1337      2879      1021      2900      4583      4504      4476      4477      3626      4344
 -1      3226    6    0    1
 -2      2528      1235      2527      2839      4589      3815      2566      4276      3818      3796
 -1      3227    6    0    1
 -2      1958       362      2078      1973      1996      2155      3166      1998      1994      3165
 -1      3228    6    0    1
 -2       307      1784      1786      2897      1811      1807      1814      4581      4473      4487
 -1      3229    6    0    1
 -2      1234      2442      2441      2840      4590      2478      4453      4452      4279      4430
 -1      3230    6    0    1
 -2      1021      1023        96      2879      1048      1044      1046      4504      3484      4558
 -1      3231    6    0    1
 -2      1227      1226      1214      2837      1321      1320      1322      3122      3139      4334
 -1      3232    6    0    1
 -2      1543      1577      1562      2854      1672      1671      1633      3262      3309      3978
 -1      3233    6    0    1
 -2      1563      1565      2866      2891      1676      4591      4560      4592      3419      4525
 -1      3234    6    0    1
 -2      1552       258      2877      2896      1658      4109      4254      4222      4110      3730
 -1      3235    6    0    1
 -2       366      2074      2057      1959      2163      2168      2167      2008      4512      4573
 -1      3236    6    0    1
 -2      1358      1359      1357      2859      1538      1467      1483      3528      2916      2969
 -1      3237    6    0    1
 -2       220       221      2853      2889       225      4368      4185      4271      4024      4311
 -1      3238    6    0    1
 -2      2074      2068      2057      2867      2185      2183      2168      3880      4150      4574
 -1      3239    6    0    1
 -2      2430      2871      1784      2897      4588      4472      4593      4594      3689      4473
 -1      3240    6    0    1
 -2       551       149      1126      2905       773      1184      4353      3841      4561      4354
 -1      3241    6    0    1
 -2       511      2846       402      2857      3963      4545      2749      3053      3078      3515
 -1      3242    6    0    1
 -2       260      2842       261      2899      3375      3438       266      4043      4204      4467
 -1      3243    6    0    1
 -2      1555      1576      1568      2882      1728      1690      1723      4015      4084      4420
 -1      3244    6    0    1
 -2      1816        27      2853      2889      1826      3529      4310      4200      4579      4311
 -1      3245    6    0    1
 -2      1368      1023       164      2879      3622      1059      1418      3466      3484      4564
 -1      3246    6    0    1
 -2      2217      2331      2611      2908      4012      4595      4596      4166      3931      4597
 -1      3247    6    0    1
 -2      1545      2876      1560      2899      4479      4484      1666      3540      3692      4377
 -1      3248    6    0    1
 -2       235      2605        17       207      4106      2624       240      4323      2623       209
 -1      3249    6    0    1
 -2      2612      2328      2334       459      3468      2397      3550      2709      2394      2396
 -1      3250    6    0    1
 -2       294       295      2870      2908       299      3431      3925      3930      4367      4126
 -1      3251    6    0    1
 -2       220       221      1228      2853       225      1313      1312      4185      4368      3630
 -1      3252    6    0    1
 -2      2603      2609       434      2201      2675      2669      2673      3354      3549      2277
 -1      3253    6    0    1
 -2       610      1216       112      2862      4426      1284       719      4217      4492      4531
 -1      3254    6    0    1
 -2      1837       323        31      2852      1848       325      1846      4458      3656      3753
 -1      3255    6    0    1
 -2      2433      2850       421      2868      4572      4089      4598      4576      4017      4416
 -1      3256    6    0    1
 -2       219      1229       218      2852      1307      1306       223      4092      3636      4532
 -1      3257    6    0    1
 -2       568       604       570      2861       878       877       876      3019      4463      3901
 -1      3258    6    0    1
 -2       274       275      2604      2836       279      4584      4164      3612      4259      4078
 -1      3259    6    0    1
 -2       273      2870       274      2908      3926      3638       278      3932      4126      4165
 -1      3260    6    0    1
 -2        17      1122       235       207      1153      4219       240       209      1154      4323
 -1      3261    6    0    1
 -2       587       619       623      2884       904       971       970      4417      2954      4498
 -1      3262    6    0    1
 -2      1756      1754      2520      2892      1777      4599      4400      4112      4521      4401
 -1      3263    6    0    1
 -2       422       421      2433      2850       425      4598      4571      3154      4089      4572
 -1      3264    6    0    1
 -2       615       644       637      2877       804       988      1019      3554      4104      3905
 -1      3265    6    0    1
 -2      1784       307      2430      2897      1811      2484      4593      4473      4581      4594
 -1      3266    6    0    1
 -2       286      2520      1754      2892      2575      4599      1782      4600      4401      4521
 -1      3267    6    0    1
 -2      2605       258        18       207      3888       263      2626      2623      4324       208
 -1      3268    6    0    1
 -2      1567      1578      2875      2904      1621      3918      3228      3041      3919      3230
 -1      3269    6    0    1
 -2       573       587       575      2883       903       902       901      3591      4048      3572
 -1      3270    6    0    1
 -2      2884      2890      1346      2905      4418      4346      4517      3333      3765      4347
 -1      3271    6    0    1
 -2      2528      1218      1235      2839      4275      1305      4589      4276      3802      3818
 -1      3272    6    0    1
 -2       591       593       584      2849       958       957       955      3257      3270      4255
 -1      3273    6    0    1
 -2       598       623      2884      2905       807      4498      3292      3334      4534      3333
 -1      3274    6    0    1
 -2      2521      2516       285      2872      2573      2572      2568      4336      4586      4601
 -1      3275    6    0    1
 -2       306      2430      2436      2871      2483      2485      2481      4602      4588      3709
 -1      3276    6    0    1
 -2      2778       221      2776      2889      2783      2800      2803      4054      4024      3788
 -1      3277    6    0    1
 -2       587       623       624      2890       970       973       972      4049      4499      4019
 -1      3278    6    0    1
 -2      1124      1138      1563       198      1204      4549      4603      1203      1150      1641
 -1      3279    6    0    1
 -2      2442      1234      1217      2840      4590      1316      4278      4279      4452      3804
 -1      3280    6    0    1
 -2      1357      1137      1125       192      4536      1201      3007      1440      1144      1199
 -1      3281    6    0    1
 -2      1127       553       144      2874      4604       758      1167      4554      4542      4605
 -1      3282    6    0    1
 -2       549       606       595      2845       729       796       795      4037      4373      3648
 -1      3283    6    0    1
 -2       285      1755      2521      2872      1779      4370      2568      4601      4369      4336
 -1      3284    6    0    1
 -2       306      2436      1785      2871      2481      4306      1809      4602      3709      4307
 -1      3285    6    0    1
 -2      2528      2526       249      2839      2567      2539      2532      4276      4032      3679
 -1      3286    6    0    1
 -2       433      2609      2617      2213      2668      2672      2671      2274      3547      3416
 -1      3287    6    0    1
 -2      2430       473      2436      2770      2493      2494      2485      4587      2804      4450
 -1      3288    6    0    1
 -2      2516      2771      2521       504      4585      4448      2573      2588      2809      2590
 -1      3289    6    0    1
 -2       252      2440      2442      2840      2452      2479      2451      3498      4035      4279
 -1      3290    6    0    1
 -2      1786      2869      1787      2897      4526      4244      1808      4487      3694      4317
 -1      3291    6    0    1
 -2      1137      1357      1125      2859      4536      3007      1201      4248      2969      3008
 -1      3292    6    0    1
 -2      2433      2428       411      2868      2503      4606      4575      4576      4607      4457
 -1      3293    6    0    1
 -2       285      2516      1753      2872      2572      4608      1780      4601      4586      4513
 -1      3294    6    0    1
 -2      1784      2430       306      2871      4593      2483      1812      4472      4588      4602
 -1      3295    6    0    1
 -2      1818      2514        28      2523      3199      2543      1828      4073      2545      2542
 -1      3296    6    0    1
 -2      2434      2430       307      2897      2488      2484      2486      4383      4594      4581
 -1      3297    6    0    1
 -2      2520       287      1756      2515      2574      1767      4400      2577      2547      3890
 -1      3298    6    0    1
 -2      1581      1570       201      1130      1650      1648      1607      4537      4538      1207
 -1      3299    6    0    1
 -2      2433       421      2435      2868      4598      4609      2499      4576      4416      4529
 -1      3300    6    0    1
 -2      1863      1870      1868      2887      1904      1930      1948      4252      4443      3806
 -1      3301    6    0    1
 -2      1346      1355      2884      2905      1506      3543      4517      4347      3544      3333
 -1      3302    6    0    1
 -2       631       611       574      2880       909       894       907      4116      2993      3363
 -1      3303    6    0    1
 -2      1563      1565      1564      2866      1676      1748      1692      4560      4591      3758
 -1      3304    6    0    1
 -2      1130       612       145      2896      4610       761      1170      4539      4507      4520
 -1      3305    6    0    1
 -2      2525      2518       401      2888      2582      4149      4611      4568      4283      4247
 -1      3306    6    0    1
 -2       579       577       637      2899       921       923       922      4154      3954      3908
 -1      3307    6    0    1
 -2       567       569       595      2848       871       874       873      3501      3584      3649
 -1      3308    6    0    1
 -2      1786      1784       295      2897      1807      1803      1805      4487      4473      3434
 -1      3309    6    0    1
 -2      1025        74        11      1374      1038        76      1039      4569      4436      1391
 -1      3310    6    0    1
 -2       286      1754      1753      2892      1782      1776      1781      4600      4521      4514
 -1      3311    6    0    1
 -2      1544      1127      2874      2891      4553      4554      4489      4519      4612      4169
 -1      3312    6    0    1
 -2      1127      1130       200      2874      1171      1208      1205      4554      4557      4488
 -1      3313    6    0    1
 -2      1138      1124      1563      2866      1204      4603      4549      4282      4613      4560
 -1      3314    6    0    1
 -2      1557      1568      1584      2865      1726      1737      1736      4086      4447      3911
 -1      3315    6    0    1
 -2      2062      2077      2061      2881      2180      2141      2178      4006      4548      4361
 -1      3316    6    0    1
 -2      2334      2613      2612       459      4056      2681      3550      2396      2712      2709
 -1      3317    6    0    1
 -2      1076      1548        92      2851      4319      4379      1090      4202      4320      4380
 -1      3318    6    0    1
 -2      1870      2059      1863       335      4441      4196      1904      1899      2129      1903
 -1      3319    6    0    1
 -2      1544      1563       199      2891      1646      1642      1644      4519      4592      4614
 -1      3320    6    0    1
 -2      1225      1227      1215      2847      1327      1326      1292      4197      3123      4461
 -1      3321    6    0    1
 -2      1342      1374      1369      2856      1395      1399      1489      4394      4424      4123
 -1      3322    6    0    1
 -2      1548       181      1559      1076      1605      1637      1640      4319      1091      4201
 -1      3323    6    0    1
 -2      2518      2513       499       391      2586      2562      2584      4065      4582      2736
 -1      3324    6    0    1
 -2      1026       560        95      1023      3226       692      1031      1045      3681      1043
 -1      3325    6    0    1
 -2       512       402       511      2846      2764      2749       516      4550      4545      3963
 -1      3326    6    0    1
 -2      1338      1380      1364      2905      1468      1470      1438      3062      3136      4300
 -1      3327    6    0    1
 -2      1878      1861      1872      2881      1944      1916      1932      3489      3161      4287
 -1      3328    6    0    1
 -2      1123       258      1581      2896      4312      1609      4615      3923      4110      4541
 -1      3329    6    0    1
 -2      1558      1583      1572      2860      1740      1742      1733      4267      4362      4238
 -1      3330    6    0    1
 -2       367      2057      2062      1959      2166      2171      2170      2009      4573      4474
 -1      3331    6    0    1
 -2      1753      2872      2516      2892      4513      4586      4608      4514      3616      4616
 -1      3332    6    0    1
 -2       648       600       636      2902       818      1007       985      4070      3380      3957
 -1      3333    6    0    1
 -2        43      2781      2439       518      2789      4617      2471       522      2790      3959
 -1      3334    6    0    1
 -2      2438      2433       412      2850      2504      4578      3390      3392      4572      3391
 -1      3335    6    0    1
 -2      1972      1959      1968      2867      2010      2035      2034      3881      4475      3536
 -1      3336    6    0    1
 -2      1368       164      1337      2879      1418      1420      1422      3466      4564      4583
 -1      3337    6    0    1
 -2      2057      2068      2064      2867      2183      2182      2184      4574      4150      3882
 -1      3338    6    0    1
 -2      1756      2846       275      2892      3892      4288      1764      4112      3741      4260
 -1      3339    6    0    1
 -2      1785      1788       293      2871      1801      1790      1799      4307      3943      3898
 -1      3340    6    0    1
 -2       631       609       607      2843       943      1011      1012      4115      3474      3295
 -1      3341    6    0    1
 -2       583       584       580      2885       938       937       935      4240      4256      3450
 -1      3342    6    0    1
 -2      1130      2874       612      2896      4557      4506      4610      4539      4129      4507
 -1      3343    6    0    1
 -2      1753      2516       286      2892      4608      2571      1781      4514      4616      4600
 -1      3344    6    0    1
 -2      2436      1785      1788       305      4306      1801      3944      2480      1810      1796
 -1      3345    6    0    1
 -2       260      1545      1560      2899      1664      1666      1662      4043      3540      4377
 -1      3346    6    0    1
 -2       617      2879       654      2900      4505      3623       784      4343      3626      3625
 -1      3347    6    0    1
 -2      1858      1870      2065      2887      1901      4618      4364      4366      4443      4365
 -1      3348    6    0    1
 -2       562       565       117      1233       736       734       675      4289      4205      1240
 -1      3349    6    0    1
 -2       286      2516      2520      2892      2571      2576      2575      4600      4616      4401
 -1      3350    6    0    1
 -2       640      2865      2854      2882      4619      3826      4510      4511      4485      3725
 -1      3351    6    0    1
 -2      1786      1787      2434      2897      1808      4403      4580      4487      4317      4383
 -1      3352    6    0    1
 -2       625       641       626      2851       863       834       850      3950      4316      4293
 -1      3353    6    0    1
 -2       628       627       642      2859       854       865       829      3069      3142      3682
 -1      3354    6    0    1
 -2      1875      1878      1859      2881      1936      1933      1934      3442      3489      3673
 -1      3355    6    0    1
 -2      1560      1561      1552      2877      1714      1713      1663      4376      4410      4254
 -1      3356    6    0    1
 -2       604       585       570      2855       889       888       877      3933      3170      3903
 -1      3357    6    0    1
 -2       640       589      2865      2882       983      4227      4619      4511      4566      4485
 -1      3358    6    0    1
 -2      1786       296      1787      2869      1806      1792      1808      4526      3884      4244
 -1      3359    6    0    1
 -2      1858       334      2065      1870      1896      2123      4364      1901      1900      4618
 -1      3360    6    0    1
 -2       259      1552       258      2877      1659      1658       264      3686      4254      4109
 -1      3361    6    0    1
 -2      2319       454      2325      2616      2380      2381      2383      3576      2701      3575
 -1      3362    6    0    1
 -2       520       392      2846      2857      2725      4577      4535      4620      3462      3078
 -1      3363    6    0    1
 -2      1344        24       246      2848      1409       248      1410      3545      3570      3731
 -1      3364    6    0    1
 -2      1571       262      1585      2907      1668      1624      1670      3560      4189      4415
 -1      3365    6    0    1
 -2      1867      1866      1865      2844      1951      1940      1952      3446      3704      3346
 -1      3366    6    0    1
 -2      1226      1216      1231      2862      1331      1329      1332      3140      4492      3495
 -1      3367    6    0    1
 -2       625       563       641      2851       862       690       863      3950      4389      4316
 -1      3368    6    0    1
 -2       640       602      2854      2865       984      3675      4510      4619      3827      3826
 -1      3369    6    0    1
 -2      1232        14        86       563      1244        87      1245      4464       687      4465
 -1      3370    6    0    1
 -2      2622       275        29      2846      4408       280      2631      3767      4288      4621
 -1      3371    6    0    1
 -2       618       594       557      2878       837       836       707      3646      3865      3976
 -1      3372    6    0    1
 -2       302        33      1839      2437       303      1850      1849      4250      2455      4220
 -1      3373    6    0    1
 -2      1124       199      1563      2891      1202      1642      4603      4622      4614      4592
 -1      3374    6    0    1
 -2      1130       145      1123      2896      1170      1175      1174      4539      4520      3923
 -1      3375    6    0    1
 -2       553      2874      1127      2891      4542      4554      4604      4543      4169      4612
 -1      3376    6    0    1
 -2        30      2515      2519       281      2546      2550      2549       283      3891      4623
 -1      3377    6    0    1
 -2       285      1753      1755      2872      1780      1773      1779      4601      4513      4369
 -1      3378    6    0    1
 -2       306      1785      1784      2871      1809      1804      1812      4602      4307      4472
 -1      3379    6    0    1
 -2      1754       274      1753      2892      1775      1771      1776      4521      3615      4514
 -1      3380    6    0    1
 -2      1127      1544       199      2891      4553      1644      1206      4612      4519      4614
 -1      3381    6    0    1
 -2       333      2065      1871      1858      2122      4363      1893      1897      4364      1898
 -1      3382    6    0    1
 -2      1126      1376      1364       189      4413      1435      4433      1196      1401      1433
 -1      3383    6    0    1
 -2      1755      2872       272      2889      4369      4168      1769      4371      3789      4215
 -1      3384    6    0    1
 -2      1130      1127       144      2874      1171      1167      1169      4557      4554      4605
 -1      3385    6    0    1
 -2      1130      1123      1581      2896      1174      4615      4537      4539      3923      4541
 -1      3386    6    0    1
 -2       612      1130       144      2874      4610      1169       762      4506      4557      4605
 -1      3387    6    0    1
 -2      1131       258        18      1123      4224       263      1159      1160      4312      1156
 -1      3388    6    0    1
 -2      1754      1756       275      2892      1777      1764      1774      4521      4112      4260
 -1      3389    6    0    1
 -2      2523      1757       269      2889      4502      1759      3934      3924      4471      3770
 -1      3390    6    0    1
 -2       621       616       593      2873       944       959       999      3759      4090      3268
 -1      3391    6    0    1
 -2       608       610       112      2862       723       719       721      4314      4217      4531
 -1      3392    6    0    1
 -2       612       144       553      2874       762       758       763      4506      4605      4542
 -1      3393    6    0    1
 -2      1365      1339      1381      2894      1458      1474      1473      3206      4059      3861
 -1      3394    6    0    1
 -2      1077      1573       176      1574      3659      1591      1085      3587      1627      1626
 -1      3395    6    0    1
 -2      2723       391      2513      2888      2739      4582      4562      4563      4249      3708
 -1      3396    6    0    1
 -2       612       550       145      2896       766       765       761      4507      3947      4520
 -1      3397    6    0    1
 -2      1370      1349      1362      2864      1520      1514      1480      3601      3224      2979
 -1      3398    6    0    1
 -2      1133       561       599      2866      4624       757      4625      4565      3855      4522
 -1      3399    6    0    1
 -2       220      2776       221      2889      2801      2800       225      4271      3788      4024
 -1      3400    6    0    1
 -2       652       552      2841      2904       813      4456      3965      3670      4501      3966
 -1      3401    6    0    1
 -2      1124      1133       599      2866      1165      4625      4626      4613      4565      4522
 -1      3402    6    0    1
 -2       598       551       623      2905       805       808       807      3334      3841      4534
 -1      3403    6    0    1
 -2      1347      1348      1345      2861      1501      1500      1496      3657      4355      3278
 -1      3404    6    0    1
 -2        50         2       564      1134        51       660      3774      1140      1139      4627
 -1      3405    6    0    1
 -2      2611      2331      2217      2614      4595      4012      4596      2655      4516      4515
 -1      3406    6    0    1
 -2       168      1353      1025      1342      1430      4295      1040      1393      1432      4393
 -1      3407    6    0    1
 -2      1579      1548      1575      2851      1606      1697      1602      4381      4320      4136
 -1      3408    6    0    1
 -2      1346      1380      1355      2905      1508      1507      1506      4347      3136      3544
 -1      3409    6    0    1
 -2       450       275        29      2622      2346       280       461      2630      4408      2631
 -1      3410    6    0    1
 -2      1230      1215      1227      2847      1325      1326      1328      3478      4461      3123
 -1      3411    6    0    1
 -2      1076       181      1559      1071      1091      1637      4201      1121      1120      3845
 -1      3412    6    0    1
 -2       509      2746      2428      2868      2756      4628      4629      4315      4630      4607
 -1      3413    6    0    1
 -2      1573      1547      1564      2866      1693      1691      1694      3567      3633      3758
 -1      3414    6    0    1
 -2       317      1816        27      2853      1827      1826       319      3654      4310      3529
 -1      3415    6    0    1
 -2       603       602       588      2901       975       953       976      3035      3677      4357
 -1      3416    6    0    1
 -2       602       653       640      2854      1008       794       984      3675      3674      4510
 -1      3417    6    0    1
 -2      2443      2433      2438      2850      2500      2504      2491      3156      4572      3392
 -1      3418    6    0    1
 -2      1557      1554      1568      2865      1725      1722      1726      4086      4398      4447
 -1      3419    6    0    1
 -2       420       518      2868      2869      2743      4530      3098      3564      3961      3068
 -1      3420    6    0    1
 -2        31       302      1837      2898       304      1847      1846      4352      4251      4375
 -1      3421    6    0    1
 -2       642       564         2      1134       663       660       661      4480      4627      1139
 -1      3422    6    0    1
 -2       639       562         9      1233       677       676       673      4631      4289      1239
 -1      3423    6    0    1
 -2       363      2067      1970      2058      2158      3829      1999      2152      2159      4469
 -1      3424    6    0    1
 -2      2778      2776      2771      2872      2803      2827      2810      4335      3749      4449
 -1      3425    6    0    1
 -2      2775      2780      2770      2871      2796      2806      2823      3422      3710      4451
 -1      3426    6    0    1
 -2      2210        31      2903      2906      2229      3755      4350      4351      3969      3915
 -1      3427    6    0    1
 -2      2773      2846       521      2892      4509      3506      2819      3879      3741      4632
 -1      3428    6    0    1
 -2       338      1872      2061      2077      1912      4546      2139      2140      4547      2141
 -1      3429    6    0    1
 -2       362       363      1958      2058       377      1997      1996      2153      2152      3371
 -1      3430    6    0    1
 -2        25      1578      1567      2904      1613      1621      1620      3343      3919      3041
 -1      3431    6    0    1
 -2      2064      1859       338      2077      3999      1908      2136      2142      4559      2140
 -1      3432    6    0    1
 -2       593       616       584      2849       959       939       957      3270      3608      4255
 -1      3433    6    0    1
 -2      1133       561       142       599      4624       666      1147      4625       757       756
 -1      3434    6    0    1
 -2      1569      1582      1559      2858      1702      1696      1743      4044      4325      3846
 -1      3435    6    0    1
 -2      1232       641        14       563      4466       688      1244      4464       690       687
 -1      3436    6    0    1
 -2       143      1124       599      2891      1164      4626       755      4633      4622      4523
 -1      3437    6    0    1
 -2        22       252      2442      1217       254      2451      2450      1265      3803      4278
 -1      3438    6    0    1
 -2      1569      1549      1582      2875      1700      1703      1702      4045      4077      4327
 -1      3439    6    0    1
 -2      1788       302        31      2898      1791       304      1789      3945      4251      4352
 -1      3440    6    0    1
 -2        25       252      1578      2904       253      1614      1613      3343      4096      3919
 -1      3441    6    0    1
 -2       640       601       589      2882       982       981       983      4511      4199      4566
 -1      3442    6    0    1
 -2        89        86        92      1579       544       546       545      1599      4438      4378
 -1      3443    6    0    1
 -2      2429      1839        33      2437      4159      1850      2458      2459      4220      2455
 -1      3444    6    0    1
 -2      1124      2866       599      2891      4613      4522      4626      4622      4525      4523
 -1      3445    6    0    1
 -2       601       591       589      2895       980       956       981      3873      3258      4228
 -1      3446    6    0    1
 -2      2435      2428      2433      2868      2506      2503      2499      4529      4607      4576
 -1      3447    6    0    1
 -2        27      2886      2853      2889      3968      3974      3529      4579      3790      4311
 -1      3448    6    0    1
 -2       639         9        80      1233       673        81      4478      4631      1239      1238
 -1      3449    6    0    1
 -2       293      1788        31      2898      1790      1789       297      3899      3945      4352
 -1      3450    6    0    1
 -2      1358      1368      1360      2879      1541      1463      1540      3644      3466      3095
 -1      3451    6    0    1
 -2        65        62        68      1580       534       536       535      1590      3566      3661
 -1      3452    6    0    1
 -2       518      2869      2774      2897      3961      3982      2812      4634      3694      3701
 -1      3453    6    0    1
 -2      2608      2325       454      2616      3443      2381      2700      2664      3575      2701
 -1      3454    6    0    1
 -2       273       272      1755      2872       277      1769      1768      4277      4168      4369
 -1      3455    6    0    1
 -2       142      1133       599      1124      1147      4625       756      1163      1165      4626
 -1      3456    6    0    1
 -2       293       294      1785      2871       298      1800      1799      3898      4274      4307
 -1      3457    6    0    1
 -2      1572      1560      1545      2876      1681      1666      1682      4173      4484      4479
 -1      3458    6    0    1
 -2        97        98      1024       547       104      1050      1049       700       699      3289
 -1      3459    6    0    1
 -2      1131      1132      1122      2838      1212      1211      1209      3812      4332      3852
 -1      3460    6    0    1
 -2      2526      2528      2514      2839      2567      2599      2578      4032      4276      3202
 -1      3461    6    0    1
 -2      2442      2440      2429      2840      2479      2490      2509      4279      4035      4157
 -1      3462    6    0    1
 -2       320      1817      2526      1818      1824      4030      2540      1830      1834      4635
 -1      3463    6    0    1
 -2      1581      1552      1570      2896      1660      1717      1650      4541      4222      4540
 -1      3464    6    0    1
 -2      1816      1815      1817      2839      1833      1831      1835      3775      3366      4031
 -1      3465    6    0    1
 -2      1122      1128        17       235      1155      1152      1153      4219      4218       240
 -1      3466    6    0    1
 -2      1838      1836      1837      2840      1852      1854      1856      4036      3368      4374
 -1      3467    6    0    1
 -2       654       622       547      2900       789       787       783      3625      3103      3260
 -1      3468    6    0    1
 -2       638         5        68      1133       664        69      3776      4636      1146      1145
 -1      3469    6    0    1
 -2       336      1874      2073      2059      1906      3715      2132      2130      4141      2134
 -1      3470    6    0    1
 -2       604       568       594      2864       878       869       879      3922      3022      3863
 -1      3471    6    0    1
 -2      1028         4        56      1373      1032        58      1033      4637      1387      3744
 -1      3472    6    0    1
 -2      2514       320      2526      1818      2544      2540      2578      3199      1830      4635
 -1      3473    6    0    1
 -2      2077      2057      2064      2867      2181      2184      2142      4567      4574      3882
 -1      3474    6    0    1
 -2      1553      1550      1551      2849      1704      1617      1705      4124      4272      3339
 -1      3475    6    0    1
 -2      1233       565       117      1224      4205       734      1240      1301      3253      1298
 -1      3476    6    0    1
 -2      2781       518      2774      2897      2790      2812      2814      4638      4634      3701
 -1      3477    6    0    1
 -2       602       589       583      2865       954       951       952      3827      4227      4239
 -1      3478    6    0    1
 -2       249      1372        19      1219      1405      1404       251      4280      3737      1250
 -1      3479    6    0    1
 -2      1025      1022      1353       168      1070      4000      4295      1040      1068      1430
 -1      3480    6    0    1
 -2       604       594       646      2864       879      1002      1001      3922      3863      2918
 -1      3481    6    0    1
 -2      1348      1362      1349      2864      1515      1514      1503      4269      2979      3224
 -1      3482    6    0    1
 -2      2433       483       411      2428      2501      2768      4575      2503      2477      4606
 -1      3483    6    0    1
 -2      1341      1367      1358      2859      1486      1485      1484      3641      3465      3528
 -1      3484    6    0    1
 -2      1215      1230      1221      2845      1325      1258      1295      4360      3476      4232
 -1      3485    6    0    1
 -2      1351      1348      1350      2855      1516      1510      1517      3088      4414      3085
 -1      3486    6    0    1
 -2      1375      1363      1353      2878      1495      1534      1487      4496      3455      3996
 -1      3487    6    0    1
 -2      2525      2513      2518      2888      2596      2586      2582      4568      3708      4283
 -1      3488    6    0    1
 -2      1124      1563      2866      2891      4603      4560      4613      4622      4592      4525
 -1      3489    6    0    1
 -2      1968      1959      1976      2867      2035      2013      2036      3536      4475      3787
 -1      3490    6    0    1
 -2      1127       199      1124      2891      1206      1202      1168      4612      4614      4622
 -1      3491    6    0    1
 -2      2778      2517        20       221      4051      2535      2782      2783      4060       226
 -1      3492    6    0    1
 -2       581       576       578      2907       917       915       918      3593      4210      3795
 -1      3493    6    0    1
 -2        21      2432      2780       218      2447      3399      2786       222      4428      2785
 -1      3494    6    0    1
 -2       608       549       607      2847       726       797       799      4313      4038      3325
 -1      3495    6    0    1
 -2      2523       284      1757      2521      2541      1762      4502      2570      2569      4470
 -1      3496    6    0    1
 -2      1337      1371      2879      2900      1461      4639      4583      4477      3032      3626
 -1      3497    6    0    1
 -2       587       573       619      2883       903       895       904      4048      3591      3453
 -1      3498    6    0    1
 -2       567       554       566      2893       822       820       823      3502      3395      3104
 -1      3499    6    0    1
 -2      1863      1874       336      2059      1907      1906      1902      4196      4141      2130
 -1      3500    6    0    1
 -2      2075      2061      1872      2881      2116      4546      4284      4286      4361      4287
 -1      3501    6    0    1
 -2       113       114       549      1215       124       725       724      1291      1290      4358
 -1      3502    6    0    1
 -2      1123      1581       201      1130      4615      1607      1157      1174      4537      1207
 -1      3503    6    0    1
 -2       411      2428      2746      2868      4606      4628      2766      4457      4607      4630
 -1      3504    6    0    1
 -2      1556      1553      1554      2885      1718      1708      1719      4339      4125      4399
 -1      3505    6    0    1
 -2       520       392       521      2846      2725      2740       525      4535      4577      3506
 -1      3506    6    0    1
 -2      1027        10        74       639      1035        75      1036      4301       678      4396
 -1      3507    6    0    1
 -2      2065      1870      2069      2887      4618      4440      2128      4365      4443      4442
 -1      3508    6    0    1
 -2      2513       499       391      2723      2562      2736      4582      4562      2733      2739
 -1      3509    6    0    1
 -2      1228      1214       220      2853      1314      1310      1312      3630      4186      4185
 -1      3510    6    0    1
 -2      2770      2774      2871      2897      2822      3955      4451      4640      3701      3689
 -1      3511    6    0    1
 -2       638        62         6      1079      3719        63       669      4008      1081      1080
 -1      3512    6    0    1
 -2      1214      1229       219      2852      1311      1307      1309      4183      3636      4092
 -1      3513    6    0    1
 -2      2616      2211      2205       431      3574      2269      4041      2663      2268      2265
 -1      3514    6    0    1
 -2       581       578       616      2907       918       927       929      3593      3795      3609
 -1      3515    6    0    1
 -2      2069      2065       334      1870      2128      2123      2126      4440      4618      1900
 -1      3516    6    0    1
 -2       593       652       621      2873       998      1000       999      3268      3669      3759
 -1      3517    6    0    1
 -2       591       584       589      2895       955       950       956      3258      4261      4228
 -1      3518    6    0    1
 -2       391       499      2518       390      2736      2584      4065       394      2737      4046
 -1      3519    6    0    1
 -2      1235      1218      1228      2839      1305      1335      1315      3818      3802      3628
 -1      3520    6    0    1
 -2       617       654       547      2900       784       783       701      4343      3625      3260
 -1      3521    6    0    1
 -2      1127       143       553      2891      1166       759      4604      4612      4633      4543
 -1      3522    6    0    1
 -2       176      1073      1077      1574      1110      1112      1085      1626      3134      3587
 -1      3523    6    0    1
 -2      2060      2065      1871       333      2124      4363      3712      2125      2122      1893
 -1      3524    6    0    1
 -2      1234      1229      1217      2840      1308      1333      1316      4452      3634      3804
 -1      3525    6    0    1
 -2       637       644       590      2877       988       987       934      3905      4104      4297
 -1      3526    6    0    1
 -2       180      1559       181      1071      1638      1637       187      1119      3845      1120
 -1      3527    6    0    1
 -2       583       582       588      2860       936       946       945      4395      4190      4356
 -1      3528    6    0    1
 -2        20       221      2527      1235       226      3816      2534      1259      1261      3815
 -1      3529    6    0    1
 -2      2314      2617       456      2327      3454      2706      2385      2389      3415      2387
 -1      3530    6    0    1
 -2      2528       249        19      1218      2532       251      2530      4275      3801      1253
 -1      3531    6    0    1
 -2      1234        21       218      2441      1262       222      1263      4453      2444      4427
 -1      3532    6    0    1
 -2      1546      1568      1576      2882      1688      1690      1687      3666      4420      4084
 -1      3533    6    0    1
 -2        74        80        77      1374       541       540       539      4436      4422      1392
 -1      3534    6    0    1
 -2      1572      1561      1560      2876      1744      1714      1681      4173      4444      4484
 -1      3535    6    0    1
 -2       599       553       143      2891       760       759       755      4523      4543      4633
 -1      3536    6    0    1
 -2      2435       421      2722      2868      4609      2741      4527      4529      4416      4528
 -1      3537    6    0    1
 -2       610       608       609      2862       723      1010      1013      4217      4314      3473
 -1      3538    6    0    1
 -2      1570      1586      1544      2874      1680      1679      1649      4490      4170      4489
 -1      3539    6    0    1
 -2        92        13       650       563        93       685      4386      4387       682       686
 -1      3540    6    0    1
 -2        50        56        53      1373       531       530       529      3745      3744      1383
 -1      3541    6    0    1
 -2      1756      1754       287      2520      1777      1783      1767      4400      4599      2574
 -1      3542    6    0    1
 -2       649        56         1       564      2976        57       658       659      2977       655
 -1      3543    6    0    1
 -2       143      1127      1124      2891      1166      1168      1164      4633      4612      4622
 -1      3544    6    0    1
 -2      1859      2064       337      1874      3999      2135      1909      1910      3598      1905
 -1      3545    6    0    1
 -2       246      1379      1344      2848      1408      1460      1410      3731      3480      3545
 -1      3546    6    0    1
 -2      2319      2602       454      2616      4445      2696      2380      3576      2662      2701
 -1      3547    6    0    1
 -2      2058      2065      2067      2887      2187      2186      2159      3372      4365      3833
 -1      3548    6    0    1
 -2      2770      2871      2430      2897      4451      4588      4587      4640      3689      4594
 -1      3549    6    0    1
 -2      2774      2775      2770      2871      2824      2823      2822      3955      3422      4451
 -1      3550    6    0    1
 -2      1126      1128      1376       189      1186      3869      4413      1196      1151      1401
 -1      3551    6    0    1
 -2      2776      2773      2771      2872      2826      2825      2827      3749      3877      4449
 -1      3552    6    0    1
 -2       420       519       518      2869      2727       523      2743      3564      3048      3961
 -1      3553    6    0    1
 -2      1572      1556      1558      2860      1732      1730      1733      4238      4321      4267
 -1      3554    6    0    1
 -2       633       562       630      2856       860       861       840      3131      4290      4303
 -1      3555    6    0    1
 -2      2773       521      2779      2892      2819      2793      2821      3879      4632      4641
 -1      3556    6    0    1
 -2      2324      2903        27      2906      4348      3532      2344      4349      3915      3970
 -1      3557    6    0    1
 -2        56        50        47       564       531       528       527      2977      3774       656
 -1      3558    6    0    1
 -2      1137        50         3      1373      1142        52      1143      4155      3745      1382
 -1      3559    6    0    1
 -2      1554      1551      1555      2895      1709      1711      1710      4437      3340      3937
 -1      3560    6    0    1
 -2      2069      2067      2065      2887      2195      2186      2128      4442      3833      4365
 -1      3561    6    0    1
 -2        86        83        92       563       543       542       546      4465       683      4387
 -1      3562    6    0    1
 -2       576       631       574      2880       908       907       905      4309      4116      3363
 -1      3563    6    0    1
 -2       611       595       569      2848       884       874       882      2989      3649      3584
 -1      3564    6    0    1
 -2       411       483      2433       412      2768      2501      4575       415      2769      4578
 -1      3565    6    0    1
 -2       623       613       624      2890       809      1015       973      4499      3761      4019
 -1      3566    6    0    1
 -2      1858      1868      1870      2887      1929      1930      1901      4366      3806      4443
 -1      3567    6    0    1
 -2      2618      2610       295      2908      2720      4642      4643      4644      4645      4367
 -1      3568    6    0    1
 -2      2608      2211      2616       431      3444      3574      2664      2660      2268      2663
 -1      3569    6    0    1
 -2      2433      2435       421       478      2499      4609      4598      2498      2473      2744
 -1      3570    6    0    1
 -2       654       617       647      2879       784       851       997      3623      4505      3211
 -1      3571    6    0    1
 -2       455       456      2314      2606       467      2385      2384      2703      2702      3819
 -1      3572    6    0    1
 -2       620       601       640      2882       847       982       791      3697      4199      4511
 -1      3573    6    0    1
 -2      1354      1346      1355      2884      1452      1506      1505      4181      4517      3543
 -1      3574    6    0    1
 -2       255        25      1550      2873       256      1616      1615      4435      3485      4273
 -1      3575    6    0    1
 -2       364       365      1962      2066       379      2003      2002      2161      2160      3991
 -1      3576    6    0    1
 -2       626       556       643      2875       833       831       835      4294      3938      3734
 -1      3577    6    0    1
 -2       568       570       569      2861       876       875       872      3019      3901      3585
 -1      3578    6    0    1
 -2        96        95       560      1023       102       692       691      1044      1043      3681
 -1      3579    6    0    1
 -2       606       114       115      1221       727       125       728      4262      1294      1293
 -1      3580    6    0    1
 -2      1861       340        42       422      1914      2109      3177      3153      2113       426
 -1      3581    6    0    1
 -2       610       111       112      1216       718       122       719      4426      1285      1284
 -1      3582    6    0    1
 -2       360       400        39      1963      2095       403      2094      1990      3025      3251
 -1      3583    6    0    1
 -2      1545       260       261      2899      1664       266      1665      3540      4043      4467
 -1      3584    6    0    1
 -2      2771      2872      2773      2892      4449      3877      2825      4646      3616      3879
 -1      3585    6    0    1
 -2       555       628       642      2859       827       829       782      2915      3069      3682
 -1      3586    6    0    1
 -2       510        32       296      2869      2637       301      4552      3158      4647      3884
 -1      3587    6    0    1
 -2       473      2432      2436      2780      2446      2495      2494      2787      3399      3398
 -1      3588    6    0    1
 -2      2517       504      2521      2778      2536      2590      2591      4051      2784      4052
 -1      3589    6    0    1
 -2      1548        92        16      1076      4379        94      1604      4319      1090      1089
 -1      3590    6    0    1
 -2       559       626       601      2858       849       848       846      3867      4385      3872
 -1      3591    6    0    1
 -2       331      1862        38       390      1891      3421      2085      2087      3307       393
 -1      3592    6    0    1
 -2       306      1784       307      2430      1812      1811       311      2483      4593      2484
 -1      3593    6    0    1
 -2       286      1753       285      2516      1781      1780       290      2571      4608      2572
 -1      3594    6    0    1
 -2        80        74        71       639       541       538       537      4478      4396       674
 -1      3595    6    0    1
 -2        59        68        62       638       532       536       533       665      3776      3719
 -1      3596    6    0    1
 -2      2515        30      1756       281      2546      1766      3890      3891       283      1765
 -1      3597    6    0    1
 -2       456      2617      2314      2606      2706      3454      2385      2702      2670      3819
 -1      3598    6    0    1
 -2      2334       235      2605       460      2350      4106      3889      2349      2337      2625
 -1      3599    6    0    1
 -2         5       638       561      1133       664       668       667      1146      4636      4624
 -1      3600    6    0    1
 -2      2521       284      1757      1755      2569      1762      4470      4370      1778      1770
 -1      3601    6    0    1
 -2       167       166      1020      1340       173      1067      1066      1427      1426      3176
 -1      3602    6    0    1
 -2      1588      1578       252      2904      1656      1614      1612      4094      3919      4096
 -1      3603    6    0    1
 -2      1356      1024       165       166      3557      1065      1423      1424      1064       172
 -1      3604    6    0    1
 -2      1576      1569      1559      2858      1729      1743      1686      4083      4044      3846
 -1      3605    6    0    1
 -2       619       598       623      2884       969       807       971      2954      3292      4498
 -1      3606    6    0    1
 -2       273       274      2336      2908       278      2370      2369      3932      4165      4648
 -1      3607    6    0    1
 -2       579       578       577      2899       920       916       921      4154      3794      3954
 -1      3608    6    0    1
 -2       258      1581        18      1123      1609      1608       263      4312      4615      1156
 -1      3609    6    0    1
 -2      1353      1022       167       168      4000      1069      1429      1430      1068       174
 -1      3610    6    0    1
 -2       505      2771      2779      2516      2808      2811      2792      2589      4585      4649
 -1      3611    6    0    1
 -2       509        44      2428      2746       513      2476      4629      2756      2755      4628
 -1      3612    6    0    1
 -2        65        68         8      1580       535        70        66      1590      3661      1594
 -1      3613    6    0    1
 -2       579       590       582      2876       933       932       931      4153      4497      4191
 -1      3614    6    0    1
 -2      2770      2781      2430       474      2807      4650      4587      2805      2788      2492
 -1      3615    6    0    1
 -2       210        19      1372      1219       212      1404      1403      1251      1250      3737
 -1      3616    6    0    1
 -2       230      1223      1549       231      1317      4076      1652       233      1318      1651
 -1      3617    6    0    1
 -2       434      2609       433      2213      2669      2668       445      2273      3547      2274
 -1      3618    6    0    1
 -2      1376      1346       235      2890      1449      1448      1402      3870      4346      4402
 -1      3619    6    0    1
 -2       220       219      2777      2886       224      2798      2797      4270      3821      4246
 -1      3620    6    0    1
 -2      1027        74      1025      2856      1036      1038      1042      4304      4397      4296
 -1      3621    6    0    1
 -2      2060      1871      2076       333      3712      3713      2092      2125      1893      2121
 -1      3622    6    0    1
 -2      1343       211       210      1224      1443       213      1444      3254      1303      1302
 -1      3623    6    0    1
 -2       259      1560      1552      2877      1661      1663      1659      3686      4376      4254
 -1      3624    6    0    1
 -2      1558      1566      1583      2901      1739      1741      1740      4268      3209      3798
 -1      3625    6    0    1
 -2      2524       505      2779      2516      2563      2792      4570      2592      2589      4649
 -1      3626    6    0    1
 -2        98        99      1020       618       105      1053      1052       703       702      3056
 -1      3627    6    0    1
 -2      2516      2872      2771      2892      4586      4449      4585      4616      3616      4646
 -1      3628    6    0    1
 -2      1358      1357      1341      2859      1483      1442      1484      3528      2969      3641
 -1      3629    6    0    1
 -2       555       151       150      1125       779       161       780      3314      1192      1191
 -1      3630    6    0    1
 -2      2315       457       458      2603      2390       469      2391      3578      2708      2707
 -1      3631    6    0    1
 -2      1785       294      1784      2871      1800      1802      1804      4307      4274      4472
 -1      3632    6    0    1
 -2       632       561       629      2866       857       858       845      4391      3855      3721
 -1      3633    6    0    1
 -2       273      1755      1753      2872      1768      1773      1772      4277      4369      4513
 -1      3634    6    0    1
 -2       146      1132       614       147      1177      4331       768       157      1178       767
 -1      3635    6    0    1
 -2      2525      2518       494       401      2582      2581      2558      4611      4149      2761
 -1      3636    6    0    1
 -2       572       573       571      2894       891       890       885      2984      3592      3190
 -1      3637    6    0    1
 -2       258       437      2220      2605      2223      2236      2235      3888      2627      3887
 -1      3638    6    0    1
 -2       474      2781      2430      2439      2788      4650      2492      2472      4617      2496
 -1      3639    6    0    1
 -2       636       590       648      2902       949       986       985      3957      4298      4070
 -1      3640    6    0    1
 -2      1339       237      1354      2883      1454      1450      1455      4058      4055      4180
 -1      3641    6    0    1
 -2      2336      2611      2331      2908      4651      4595      2371      4648      4597      3931
 -1      3642    6    0    1
 -2        97        96       617      1021       103       697       696      1047      1046      4342
 -1      3643    6    0    1
 -2      1027       630        10       639      4302       679      1035      4301       681       678
 -1      3644    6    0    1
 -2      1337      1371      1360      2879      1461      1465      1464      4583      4639      3095
 -1      3645    6    0    1
 -2      1859       337      2064       338      1909      2135      3999      1908       352      2136
 -1      3646    6    0    1
 -2      1788        33       302      2437      1795       303      1791      4027      2455      4250
 -1      3647    6    0    1
 -2       369        41       412      1961      2103       416      2107      2015      3563      3490
 -1      3648    6    0    1
 -2       554       115       116      1219       730       126       731      3393      1297      1296
 -1      3649    6    0    1
 -2        16        89        92      1579        90       545        94      1603      1599      4378
 -1      3650    6    0    1
 -2      2525       401      2747      2888      4611      2762      4652      4568      4247      4653
 -1      3651    6    0    1
 -2       556       108       109      1223       709       119       710      4039      1277      1276
 -1      3652    6    0    1
 -2      1078      1076        92      2851      1093      1090      1086      3951      4202      4380
 -1      3653    6    0    1
 -2        17      2605       235       460      2624      4106       240       472      2625      2337
 -1      3654    6    0    1
 -2       554       567       606      2893       822       824       732      3395      3502      4263
 -1      3655    6    0    1
 -2        32      1787       296      2869      1793      1792       301      4647      4244      3884
 -1      3656    6    0    1
 -2      1562       179       178      1072      1631       185      1632      3980      1116      1115
 -1      3657    6    0    1
 -2      1546       180       179      1074      1634       186      1635      3665      1118      1117
 -1      3658    6    0    1
 -2       599       143       142      1124       755       153       756      4626      1164      1163
 -1      3659    6    0    1
 -2      1337       165      1021       164      1421      1062      4476      1420       171      1063
 -1      3660    6    0    1
 -2       559       133       134      1071       749       140       750      3929      1107      1106
 -1      3661    6    0    1
 -2       553       648       612      2874       817       819       763      4542      4128      4506
 -1      3662    6    0    1
 -2       620       132       133      1074       746       139       747      3696      1104      1103
 -1      3663    6    0    1
 -2       494      2518       400       401      2581      4009      2760      2761      4149       404
 -1      3664    6    0    1
 -2       294      2222       295      2908      2256      2255       299      3930      4654      4367
 -1      3665    6    0    1
 -2      1563      1544      1565      2891      1646      1677      1676      4592      4519      3419
 -1      3666    6    0    1
 -2       520       521      2773      2846       525      2819      2818      4535      3506      4509
 -1      3667    6    0    1
 -2        86        15      1236      1579        88      1248      1247      4438      1598      4459
 -1      3668    6    0    1
 -2      1547      1563      1564      2866      1643      1692      1691      3633      4560      3758
 -1      3669    6    0    1
 -2       565       116       117      1224       733       127       734      3253      1299      1298
 -1      3670    6    0    1
 -2       610       652       552      2841       814       813       720      4216      3965      4456
 -1      3671    6    0    1
 -2      1374        80        12      1237      4422        82      1396      4423      1242      1241
 -1      3672    6    0    1
 -2        18       437       258      2605       449      2223       263      2626      2627      3888
 -1      3673    6    0    1
 -2      1346      1364      1380      2905      1509      1470      1508      4347      4300      3136
 -1      3674    6    0    1
 -2        31       323      2210      2903       325      2230      2229      3755      3756      4350
 -1      3675    6    0    1
 -2       455      2325       454      2608      2382      2381       466      2699      3443      2700
 -1      3676    6    0    1
 -2       130       129      1073       558       136      1095      1094       738       737      3133
 -1      3677    6    0    1
 -2       215      1235      2528      1218      1260      4589      2531      1252      1305      4275
 -1      3678    6    0    1
 -2       272      2886        27      2889      4163      3968       276      4215      3790      4579
 -1      3679    6    0    1
 -2       130       131       635      1075       137       741       740      1098      1097      2936
 -1      3680    6    0    1
 -2      1217      1234      2442       227      1316      4590      4278      1266      1264      2449
 -1      3681    6    0    1
 -2      1586      1561      1583      2902      1716      1745      1746      4132      4411      3799
 -1      3682    6    0    1
 -2      2620      2611      2336      2908      2695      4651      4655      4656      4597      4648
 -1      3683    6    0    1
 -2       436      2214      2612       435      2279      3469      2677       447      2280      2676
 -1      3684    6    0    1
 -2       652       596       552      2904       812       810       813      3670      3101      4501
 -1      3685    6    0    1
 -2      1337      1360      1368      2879      1464      1463      1422      4583      3095      3466
 -1      3686    6    0    1
 -2      1363      1370      1353      2878      1521      1477      1534      3455      3602      3996
 -1      3687    6    0    1
 -2      1549      1569      1567      2875      1700      1699      1701      4077      4045      3228
 -1      3688    6    0    1
 -2      2061      2075      1872       338      2116      4284      4546      2139      2138      1912
 -1      3689    6    0    1
 -2      2616      2205      2602       431      4041      4446      2662      2663      2265      2658
 -1      3690    6    0    1
 -2         4      1028      1367      1373      1032      4657      1388      1387      4637      1390
 -1      3691    6    0    1
 -2      2619      2618      2610       295      2651      2720      2715      4328      4643      4642
 -1      3692    6    0    1
 -2       421       420      1857       342       424      3838      4088      2145      2146      1920
 -1      3693    6    0    1
 -2       605       551       598      2905       778       805       806      3061      3841      3334
 -1      3694    6    0    1
 -2       235      1128        17      1376      4218      1152       240      1402      3869      1400
 -1      3695    6    0    1
 -2       358      1960       402       401      1984      3611      2149      2148      4091       405
 -1      3696    6    0    1
 -2      2211      2608       432       431      3444      2661      2267      2268      2660       443
 -1      3697    6    0    1
 -2       548       640       653      2854       790       794       793      3780      4510      3674
 -1      3698    6    0    1
 -2      2057       367       366      1959      2166       381      2167      4573      2009      2008
 -1      3699    6    0    1
 -2      1237        80      1233      2856      1242      1238      1274      4122      4425      4206
 -1      3700    6    0    1
 -2       148       551       149      1126       774       773       159      1183      4353      1184
 -1      3701    6    0    1
 -2       512      2747       402      2888      2759      2763      2764      4551      4653      4211
 -1      3702    6    0    1
 -2      2781      2770      2430      2897      2807      4587      4650      4638      4640      4594
 -1      3703    6    0    1
 -2       644       550       612      2896       800       766       801      4067      3947      4507
 -1      3704    6    0    1
 -2      2747       401       402      2888      2762       405      2763      4653      4247      4211
 -1      3705    6    0    1
 -2       521       392      2723      2888      2740      2738      2735      3509      4214      4563
 -1      3706    6    0    1
 -2      2431      2434       308      1787      2489      2487      2460      4242      4403      1798
 -1      3707    6    0    1
 -2      1129      1338       191       190      2973      1437      1197      1198      1436       195
 -1      3708    6    0    1
 -2      2723       392       391      2888      2738       395      2739      4563      4214      4249
 -1      3709    6    0    1
 -2       131       132       548      1072       138       744       743      1101      1100      3779
 -1      3710    6    0    1
 -2      1552      1581       258      2896      1660      1609      1658      4222      4541      4110
 -1      3711    6    0    1
 -2       608       112       113      1225       721       123       722      4544      1288      1287
 -1      3712    6    0    1
 -2       600       553       599      2891       815       760       816      3378      4543      4523
 -1      3713    6    0    1
 -2       410       411      2746      2868       414      2766      2765      3114      4457      4630
 -1      3714    6    0    1
 -2         7        62        65      1580        64       534        67      1589      3566      1590
 -1      3715    6    0    1
 -2       421       420      2722      2868       424      2742      2741      4416      3098      4528
 -1      3716    6    0    1
 -2       520        37       392      2857      2724       396      2725      4620      3341      3462
 -1      3717    6    0    1
 -2       511       402        40      2857      2749       406      2750      3053      3515      3055
 -1      3718    6    0    1
 -2       552       110       111      1222       715       121       716      4455      1283      1282
 -1      3719    6    0    1
 -2        86        89        15      1579       544        91        88      4438      1599      1598
 -1      3720    6    0    1
 -2       177      1075      1543       178      1113      2938      1629       184      1114      1628
 -1      3721    6    0    1
 -2      1878      1872      1859      2881      1932      1913      1933      3489      4287      3673
 -1      3722    6    0    1
 -2       647       617       560      2879       851       698       852      3211      4505      3227
 -1      3723    6    0    1
 -2       100        99       557      1022       106       706       705      1056      1055      3997
 -1      3724    6    0    1
 -2      1757        27       269      2889      1758       270      1759      4471      4579      3770
 -1      3725    6    0    1
 -2      2210      2203        31      2906      2231      2228      2229      4351      4133      3969
 -1      3726    6    0    1
 -2        53        56         4      1373       530        58        54      1383      3744      1387
 -1      3727    6    0    1
 -2      2746       509       410      2868      2756      2767      2765      4630      4315      3114
 -1      3728    6    0    1
 -2      1870       334      2069       335      1900      2126      4440      1899       349      2127
 -1      3729    6    0    1
 -2       420       518      2722      2868      2743      2732      2742      3098      4530      4528
 -1      3730    6    0    1
 -2      2430      2439      2781      2897      2496      4617      4650      4594      4063      4638
 -1      3731    6    0    1
 -2       478       421      2433       422      2744      4598      2498      2745       425      4571
 -1      3732    6    0    1
 -2      2217      2611      2222      2908      4596      4658      2257      4166      4597      4654
 -1      3733    6    0    1
 -2      1236      1232        86      2851      1275      1245      1247      4137      4421      4439
 -1      3734    6    0    1
 -2      1582      1575      1548      2851      1698      1697      1695      4326      4136      4320
 -1      3735    6    0    1
 -2      1574       176      1073       177      1626      1110      3134      1625       183      1111
 -1      3736    6    0    1
 -2       640       589       602      2865       983       954       984      4619      4227      3827
 -1      3737    6    0    1
 -2       427       296      2607       510      2232      3987      2645      2638      4552      2644
 -1      3738    6    0    1
 -2       199      1544      1127       200      1644      4553      1206       204      1645      1205
 -1      3739    6    0    1
 -2      2336      2331       273      2908      2371      2363      2369      4648      3931      3932
 -1      3740    6    0    1
 -2       200       201      1570      1130       205      1648      1647      1208      1207      4538
 -1      3741    6    0    1
 -2       594       633       557      2878       839       838       836      3865      3132      3976
 -1      3742    6    0    1
 -2      1571       261       262      2907      1667       267      1668      3560      4188      4189
 -1      3743    6    0    1
 -2      2604       274      2610       451      4164      4659      2691      2683      2372      2690
 -1      3744    6    0    1
 -2        30      1756       287      2515      1766      1767       292      2546      3890      2547
 -1      3745    6    0    1
 -2      1079         6       638       629      1080       669      4008      3981       670       672
 -1      3746    6    0    1
 -2       519      2774       518      2869      2813      2812       523      3048      3982      3961
 -1      3747    6    0    1
 -2      1137      1125      1134      2859      1201      1194      1161      4248      3008      4481
 -1      3748    6    0    1
 -2       198      1563      1124       199      1641      4603      1203       203      1642      1202
 -1      3749    6    0    1
 -2      1127       143       144       553      1166       154      1167      4604       759       758
 -1      3750    6    0    1
 -2      2434      2439      2430      2897      2510      2496      2488      4383      4063      4594
 -1      3751    6    0    1
 -2        53         3        50      1373        55        52       529      1383      1382      3745
 -1      3752    6    0    1
 -2       632       599       561      2866       856       757       857      4391      4522      3855
 -1      3753    6    0    1
 -2      1130       144       145       612      1169       155      1170      4610       762       761
 -1      3754    6    0    1
 -2        34       314      2431      1787       315      4241      2461      1797      1794      4242
 -1      3755    6    0    1
 -2      1138      1133      1124      2866      1162      1165      1204      4282      4565      4613
 -1      3756    6    0    1
 -2      2779      2516      2771      2892      4649      4585      2811      4641      4616      4646
 -1      3757    6    0    1
 -2       340      1861      1877       422      1914      1919      1918      2113      3153      3286
 -1      3758    6    0    1
 -2       329       391       392      1860      2117       395      2119      1885      4072      3481
 -1      3759    6    0    1
 -2      1957       371       410       411      2021      2176      3847      4178      2174       414
 -1      3760    6    0    1
 -2      1963       360       400      1975      1990      2095      3025      1992      1988      3107
 -1      3761    6    0    1
 -2      2622        29       511      2846      2631      2632      2633      3767      4621      3963
 -1      3762    6    0    1
 -2       164      1023      1368       163      1059      3622      1418       170      1060      1417
 -1      3763    6    0    1
 -2      1342      1369      1375      2856      1489      1490      1488      4394      4123      4409
 -1      3764    6    0    1
 -2      1755      2521       284       285      4370      2569      1778      1779      2568       289
 -1      3765    6    0    1
 -2        50         2        47       564        51        49       528      3774       660       656
 -1      3766    6    0    1
 -2       192      1125      1357       191      1199      3007      1440       196      1200      1439
 -1      3767    6    0    1
 -2        13        92        83       563        93       542        84       682      4387       683
 -1      3768    6    0    1
 -2        56        47         1       564       527        48        57      2977       656       655
 -1      3769    6    0    1
 -2      1785      2436       306       305      4306      2481      1809      1810      2480       310
 -1      3770    6    0    1
 -2        86        14        83       563        87        85       543      4465       687       683
 -1      3771    6    0    1
 -2        77        11        74      1374        79        76       539      1392      1391      4436
 -1      3772    6    0    1
 -2       342      1857       421       341      1920      4088      2145       356      1921      2144
 -1      3773    6    0    1
 -2       358      1960       401       359      1984      4091      2148       373      1985      2147
 -1      3774    6    0    1
 -2      2437      1788        33       305      4027      1795      2455      2456      1796       309
 -1      3775    6    0    1
 -2      1755       272      1757      2889      1769      1760      1770      4371      4215      4471
 -1      3776    6    0    1
 -2      1372       249        24      2893      1405       250      1411      3525      4235      3487
 -1      3777    6    0    1
 -2      1550      1585       255      2873      1657      1623      1615      4273      3524      4435
 -1      3778    6    0    1
 -2       552       596       645      2904       810       811       717      4501      3101      4002
 -1      3779    6    0    1
 -2      1757       269        28      2523      1759       271      1761      4502      3934      2542
 -1      3780    6    0    1
 -2      2524      2516      2779      2892      2592      4649      4570      3739      4616      4641
 -1      3781    6    0    1
 -2      1553      1556      1587      2885      1718      1721      1720      4125      4339      3327
 -1      3782    6    0    1
 -2        71        74        10       639       538        75        73       674      4396       678
 -1      3783    6    0    1
 -2        62         6        59       638        63        61       533      3719       669       665
 -1      3784    6    0    1
 -2        34       314      2428      2431       315      4660      2462      2461      4241      2464
 -1      3785    6    0    1
 -2       294      2217      2222      2908      2248      2257      2256      3930      4166      4654
 -1      3786    6    0    1
 -2      1026       649        95       627      3539       657      1031      3143       695       694
 -1      3787    6    0    1
 -2      2434       307       308      1786      2486       312      2487      4580      1814      1813
 -1      3788    6    0    1
 -2      2620       274      2610      2908      4661      4659      2692      4656      4165      4645
 -1      3789    6    0    1
 -2       286       287      1754      2520       291      1783      1782      2575      2574      4599
 -1      3790    6    0    1
 -2       317        27      2324      2903       319      2344      2343      3757      3532      4348
 -1      3791    6    0    1
 -2      1372        24      1361      2893      1411      1414      1416      3525      3487      3090
 -1      3792    6    0    1
 -2      2077      2062      2057      2867      2180      2171      2181      4567      3956      4574
 -1      3793    6    0    1
 -2        12        77        80      1374        78       540        82      1396      1392      4422
 -1      3794    6    0    1
 -2        92        13      1078       650        93      1087      1086      4386       685      4503
 -1      3795    6    0    1
 -2      1756        29       275      2846      1763       280      1764      3892      4621      4288
 -1      3796    6    0    1
 -2       235      1346       236      2890      1448      1447       241      4402      4346      4147
 -1      3797    6    0    1
 -2       149       605       150      1129       777       776       160      1188      3235      1189
 -1      3798    6    0    1
 -2      2059       336      1863       335      2130      1902      4196      2129       350      1903
 -1      3799    6    0    1
 -2      1787      2434       308      1786      4403      2487      1798      1808      4580      1813
 -1      3800    6    0    1
 -2       603       588       651      2901       976       978       977      3035      4357      3642
 -1      3801    6    0    1
 -2       451      2604       274       275      2683      4164      2372      2373      4584       279
 -1      3802    6    0    1
 -2      2336      2620       452      2611      4655      2688      2376      4651      2695      2694
 -1      3803    6    0    1
 -2        22      1588      1220       231      1610      4114      1268       234      1611      1267
 -1      3804    6    0    1
 -2      1963        39       361      1973      3251      2093      1991      1995      4662      1993
 -1      3805    6    0    1
 -2       645       109       110      1220       712       120       713      4001      1280      1279
 -1      3806    6    0    1
 -2      2070       367      2062      1976      2169      2170      2172      3786      2011      4460
 -1      3807    6    0    1
 -2       625      1078       134       650      3949      1088       753       754      4503       684
 -1      3808    6    0    1
 -2      2606       433      2200       432      2666      2270      3820      2665       444      2271
 -1      3809    6    0    1
 -2      1549      1567      1578      2875      1701      1621      1655      4077      3228      3918
 -1      3810    6    0    1
 -2      2524      2520      2516      2892      2600      2576      2592      3739      4401      4616
 -1      3811    6    0    1
 -2       330       391       329      1860      2118      2117       344      1884      4072      1885
 -1      3812    6    0    1
 -2       295      2610      2619      2908      4642      2715      4328      4367      4645      4080
 -1      3813    6    0    1
 -2       411      1957       371       370      4178      2021      2174      2175      2020       385
 -1      3814    6    0    1
 -2       430      2205      2602      2614      2266      4446      2657      2653      4494      2659
 -1      3815    6    0    1
 -2       317      2324      2333      2903      2343      2375      2340      3757      4348      3321
 -1      3816    6    0    1
 -2      2219      2210       323      2903      2261      2230      2226      3318      4350      3756
 -1      3817    6    0    1
 -2      1862       331      1873       390      1891      1887      1892      3307      2087      3604
 -1      3818    6    0    1
 -2      1337      1356      1371      2900      1425      1462      1461      4477      3558      3032
 -1      3819    6    0    1
 -2       412      1974       369      1961      3824      2017      2107      3490      2019      2015
 -1      3820    6    0    1
 -2      2324        27      2317      2906      2344      2341      2345      4349      3970      4118
 -1      3821    6    0    1
 -2      1356      1377      1371      2900      1478      1529      1462      3558      3245      3032
 -1      3822    6    0    1
 -2         3      1137      1373      1341      1143      4155      1382      1385      4156      1386
 -1      3823    6    0    1
 -2      2064      2073       337      1874      2137      2133      2135      3598      3715      1905
 -1      3824    6    0    1
 -2      1558      1577      1566      2901      1734      1675      1739      4268      3310      3209
 -1      3825    6    0    1
 -2       459      2612      2328       458      2709      3468      2394       470      2710      2393
 -1      3826    6    0    1
 -2       483      2746       411      2428      2754      2766      2768      2477      4628      4606
 -1      3827    6    0    1
 -2        71         9        80       639        72        81       537       674       673      4478
 -1      3828    6    0    1
 -2        68        59         5       638       532        60        69      3776       665       664
 -1      3829    6    0    1
 -2      1235      2528      2527       215      4589      2566      3815      1260      2531      2533
 -1      3830    6    0    1
 -2      2442      1234      2441       227      4590      4453      2478      2449      1264      2445
 -1      3831    6    0    1
 -2      2435      2722       421       478      4527      2741      4609      2473      2731      2744
 -1      3832    6    0    1
 -2        39      2071       361      1973      2097      2096      2093      4662      4177      1993
 -1      3833    6    0    1
 -2       452      2331      2336      2611      2377      2371      2376      2694      4595      4651
 -1      3834    6    0    1
 -2       145      1136       550       146      1172      4028       765       156      1173       764
 -1      3835    6    0    1
 -2        38      1862       331       332      3421      1891      2085      2086      1890       346
 -1      3836    6    0    1
 -2        95         1       649      1026       101       658       657      1031      1030      3539
 -1      3837    6    0    1
 -2       488       314        44      2428      2639      2640       489      2463      4660      2476
 -1      3838    6    0    1
 -2       339       340        42      1861       354      2109      2110      1915      1914      3177
 -1      3839    6    0    1
 -2         2       642      1134       151       661      4480      1139       162       662      1141
 -1      3840    6    0    1
 -2       361       360        39      1963       375      2094      2093      1991      1990      3251
 -1      3841    6    0    1
 -2       189      1364      1126       190      1433      4433      1196       194      1434      1195
 -1      3842    6    0    1
 -2       431      2205      2602       430      2265      4446      2658       442      2266      2657
 -1      3843    6    0    1
 -2       390       499      2518       500      2737      2584      4046      2728       502      2585
 -1      3844    6    0    1
 -2       435      2603       434      2201      2674      2673       446      2276      3354      2277
 -1      3845    6    0    1
 -2       649         1        56      1026       658        57      2976      3539      1030      1029
 -1      3846    6    0    1
 -2       147      1135       613       148      1180      4075       771       158      1181       770
 -1      3847    6    0    1
 -2      2620      2336       274      2908      4655      2370      4661      4656      4648      4165
 -1      3848    6    0    1
 -2       420      1857       342      1876      3838      1920      2146      3900      1923      1882
 -1      3849    6    0    1
 -2      1964       358      1960       402      1980      1984      1986      3513      2149      3611
 -1      3850    6    0    1
 -2       341      1857       421      1877      1921      4088      2144      1917      1922      4266
 -1      3851    6    0    1
 -2      2781      2774      2770      2897      2814      2822      2807      4638      3701      4640
 -1      3852    6    0    1
 -2       401      1960      1975       359      4091      1989      3983      2147      1985      1987
 -1      3853    6    0    1
 -2       451      2604       275       450      2683      4584      2373       462      2684      2346
 -1      3854    6    0    1
 -2       368        41       369      1961      2104      2103       383      2014      3563      2015
 -1      3855    6    0    1
 -2        10       100       630      1027       107       680       679      1035      1037      4302
 -1      3856    6    0    1
 -2        14       108       641      1232       118       689       688      1244      1246      4466
 -1      3857    6    0    1
 -2       484      2433       483       412      2502      2501       486      2753      4578      2769
 -1      3858    6    0    1
 -2      2215      2203      2210      2906      2300      2231      2298      2943      4133      4351
 -1      3859    6    0    1
 -2      2324      2317      2329      2906      2345      2414      2413      4349      4118      2945
 -1      3860    6    0    1
 -2      2607       296       427      2615      3987      2232      2645      2646      3988      2647
 -1      3861    6    0    1
 -2        34       314       488      2428       315      2639       490      2462      4660      2463
 -1      3862    6    0    1
 -2      2334      2605      2613       460      3889      2682      4056      2349      2625      2711
 -1      3863    6    0    1
 -2       562       117         9      1233       675       128       676      4289      1240      1239
 -1      3864    6    0    1
 -2      2618       295      2222      2908      4643      2255      4663      4644      4367      4654
 -1      3865    6    0    1
 -2      1078        13       134       650      1087       141      1088      4503       685       684
 -1      3866    6    0    1
 -2      2222      2611      2618      2908      4658      2656      4663      4654      4597      4644
 -1      3867    6    0    1
 -2      2065       333       334      1858      2122       348      2123      4364      1897      1896
 -1      3868    6    0    1
 -2      1217      2442        22       227      4278      2450      1265      1266      2449       228
 -1      3869    6    0    1
 -2       392      1864       329      1860      3461      1879      2119      3481      1886      1885
 -1      3870    6    0    1
 -2       371       410      1977      1957      2176      3848      1981      2021      3847      2023
 -1      3871    6    0    1
 -2      2518       400       495       494      4009      2748      2580      2581      2760       497
 -1      3872    6    0    1
 -2        16       181      1548      1076       188      1605      1604      1089      1091      4319
 -1      3873    6    0    1
 -2      2771      2773      2779      2892      2825      2821      2811      4646      3879      4641
 -1      3874    6    0    1
 -2       296       427        32       510      2232       438       301      4552      2638      2637
 -1      3875    6    0    1
 -2       308        34      2431      1787       313      2461      2460      1798      1797      4242
 -1      3876    6    0    1
 -2       284      1757        28      2523      1762      1761       288      2541      4502      2542
 -1      3877    6    0    1
 -2       437      2613      2220      2605      2680      4057      2236      2627      2682      3887
 -1      3878    6    0    1
 -2       168      1025        11      1342      1040      1039       175      1393      4393      1394
 -1      3879    6    0    1
 -2      2222      2618       429       428      4663      2650      2262      2260      2649       440
 -1      3880    6    0    1
 -2      2430       473      2770       474      2493      2804      4587      2492       476      2805
 -1      3881    6    0    1
 -2       505      2771      2516       504      2808      4585      2589       507      2809      2588
 -1      3882    6    0    1
 -2      1876       387        37      1864      4664       389      3792      1883      4665      3791
 -1      3883    6    0    1
 -2      2331       452       453      2611      2377       464      2378      4595      2694      2693
 -1      3884    6    0    1
 -2        40      1977      1964       407      3743      1983      3742       408      4667      4666
 -1      3885    6    0    1
 -2      1581       201        18      1123      1607       206      1608      4615      1157      1156
 -1      3886    6    0    1
 -2       129         6      1079       629       135      1080      1082       671       670      3981
 -1      3887    6    0    1
 -2        12      1369      1374      1237      1397      1399      1396      1241      4121      4423
 -1      3888    6    0    1
 -2       491      2519        45       281      2548      2557       492      2634      4623      2641
 -1      3889    6    0    1
 -2       361      2071       362      1973      2096      2151       376      1993      4177      1994
 -1      3890    6    0    1
 -2      1757       272        27      2889      1760       276      1758      4471      4215      4579
 -1      3891    6    0    1
 -2       479       478      2433       422       481      2498      2497      2729      2745      4571
 -1      3892    6    0    1
 -2      1877       421       341       422      4266      2144      1917      3286       425      2143
 -1      3893    6    0    1
 -2       401      1975       400       359      3983      3107       404      2147      1987      2150
 -1      3894    6    0    1
 -2      2514        28       320      1818      2543       322      2544      3199      1828      1830
 -1      3895    6    0    1
 -2       330       391      1860      1873      2118      4072      1884      1888      4111      1889
 -1      3896    6    0    1
 -2      2528        19       215      1218      2530       216      2531      4275      1253      1252
 -1      3897    6    0    1
 -2       370       411      1957      1974      2175      4178      2020      2018      4434      2022
 -1      3898    6    0    1
 -2        24       320      1817      2526       321      1824      1823      2538      2540      4030
 -1      3899    6    0    1
 -2       326      2440        25      1838      2454      2453       327      1842      4033      1840
 -1      3900    6    0    1
 -2       142         5       561      1133       152       667       666      1147      1146      4624
 -1      3901    6    0    1
 -2         4      1028       163      1367      1032      1034       169      1388      4657      1389
 -1      3902    6    0    1
 -2      2610      2618      2620      2908      2720      2721      2692      4645      4644      4656
 -1      3903    6    0    1
 -2       428      2619       296       295      2643      4462      2258      2259      4328       300
 -1      3904    6    0    1
 -2      2611       453      2331      2614      2693      2378      4595      2655      2698      4516
 -1      3905    6    0    1
 -2      2336       452      2620       451      2376      2688      4655      2374       463      2689
 -1      3906    6    0    1
 -2      1547      1138         8       198      4281      1148      1595      1596      1150       202
 -1      3907    6    0    1
 -2         7      1077      1573       176      1084      3659      1592       182      1085      1591
 -1      3908    6    0    1
 -2       430      2217      2205      2614      2263      2254      2266      2653      4515      4494
 -1      3909    6    0    1
 -2       392        37       387      1864       396       389      2083      3461      3791      4665
 -1      3910    6    0    1
 -2       390      2518      2522       500      4046      2587      3306      2728      2585      2553
 -1      3911    6    0    1
 -2      2615       296       427      2619      3988      2232      2647      2648      4462      2642
 -1      3912    6    0    1
 -2       410      1977        40       407      3848      3743       413      2102      4667       408
 -1      3913    6    0    1
 -2      2076      1871       332       333      3713      1894      2089      2121      1893       347
 -1      3914    6    0    1
 -2      2067      1970       364       363      3829      2000      2157      2158      1999       378
 -1      3915    6    0    1
 -2      1376      1128        17       189      3869      1152      1400      1401      1151       193
 -1      3916    6    0    1
 -2         3      1137      1341       192      1143      4156      1385       197      1144      1384
 -1      3917    6    0    1
 -2      2602       454       453      2319      2696       465      2697      4445      2380      2379
 -1      3918    6    0    1
 -2      2071      2078       362      1973      2156      2155      2151      4177      3165      1994
 -1      3919    6    0    1
 -2       390      2522        38       500      3306      2551       393      2728      2553       503
 -1      3920    6    0    1
 -2        41      2438       484       412      2465      2467       487       416      3390      2753
 -1      3921    6    0    1
 -2       429      2217       430      2614      2264      2263       441      2652      4515      2653
 -1      3922    6    0    1
 -2       429      2222      2217      2611      2262      2257      2264      2654      4658      4596
 -1      3923    6    0    1
 -2        15      1236      1579      1575      1248      4459      1598      1601      4134      1602
 -1      3924    6    0    1
 -2       341       340      1877       422       355      1918      1917      2143      2113      3286
 -1      3925    6    0    1
 -2      1975       360       400       359      1988      2095      3107      1987       374      2150
 -1      3926    6    0    1
 -2      1864       387       392       329      4665      2083      3461      1879      2079      2119
 -1      3927    6    0    1
 -2      1977       410       371       407      3848      2176      1981      4667      2102      2082
 -1      3928    6    0    1
 -2       420       387        37      1876      2084       389       423      3900      4664      3792
 -1      3929    6    0    1
 -2       330       391      1873       390      2118      4111      1888      2120       394      3604
 -1      3930    6    0    1
 -2      2619       296       427       428      4462      2232      2642      2643      2258       439
 -1      3931    6    0    1
 -2       370       411      1974       412      2175      4434      2018      2173       415      3824
 -1      3932    6    0    1
 -2       407      1964        40       402      4666      3742       408      2101      3513       406
 -1      3933    6    0    1
 -2       484      2438      2433       412      2467      2504      2502      2753      3390      4578
 -1      3934    6    0    1
 -2      2620      2610       274       451      2692      4659      4661      2689      2690      2372
 -1      3935    6    0    1
 -2      2613      2334       460       459      4056      2349      2711      2712      2396       471
 -1      3936    6    0    1
 -2        35       387      1864       329       388      4665      1880       343      2079      1879
 -1      3937    6    0    1
 -2       371        36      1977       407       386      1982      1981      2082       409      4667
 -1      3938    6    0    1
 -2      1972       366      2074       365      2006      2163      3857      2005       380      2164
 -1      3939    6    0    1
 -2      1839        33       326      2429      1850       328      1851      4159      2458      2457
 -1      3940    6    0    1
 -2      2529       400       495      2518      3026      2748      2556      2583      4009      2580
 -1      3941    6    0    1
 -2       342       387       420      1876      2080      2084      2146      1882      4664      3900
 -1      3942    6    0    1
 -2      1964       407       358       402      4666      2081      1980      3513      2101      2149
 -1      3943    6    0    1
 -2      1235      2527        20       215      3815      2534      1259      1260      2533       217
 -1      3944    6    0    1
 -2      2441      1234        21       227      4453      1262      2444      2445      1264       229
 -1      3945    6    0    1
 -2       422       479        42      2443      2729       482       426      3151      2470      2469
 -1      3946    6    0    1
 -2       342        35       387      1876       357       388      2080      1882      1881      4664
 -1      3947    6    0    1
 -2       407        36      1964       358       409      1979      4666      2081       372      1980
 -1      3948    6    0    1
 -2        39      2529       400       495      2555      3026       403       498      2556      2748
 -1      3949    6    0    1
 -2        15      1236      1575       230      1248      4134      1601       232      1249      1600
 -1      3950    6    0    1
 -2      2220      2613       437       436      4057      2680      2236      2282      2679       448
 -1      3951    6    0    1
 -2      2070       368       367      1976      2106       382      2169      3786      2012      2011
 -1      3952    6    0    1
 -2      2073       337      1874       336      2133      1905      3715      2132       351      1906
 -1      3953    6    0    1
 -2      1873       331       330       390      1887       345      1888      3604      2087      2120
 -1      3954    6    0    1
 -2      1974       369       370       412      2017       384      2018      3824      2107      2173
 -1      3955    6    0    1
 -2      1369        12       211      1237      1397       214      1398      4121      1241      1243
 -1      3956    6    0    1
 -2      2747      2525       494       401      4652      2558      2758      2762      4611      2761
 -1      3957    6    0    1
 -2       339      1872      2075       338      1911      4284      2111       353      1912      2138
 -1      3958    6    0    1
 -2      2217       429      2611      2614      2264      2654      4596      4515      2652      2655
 -1      3959    6    0    1
 -2        30      2519       491       281      2549      2548       493       283      4623      2634
 -1      3960    6    0    1
 -2       422      2433       479      2443      4571      2497      2729      3151      2500      2470
 -1      3961    6    0    1
 -2      2620      2618      2611      2908      2721      2656      2695      4656      4644      4597
 -1      3962    6    0    1
 -2       499      2513        46      2723      2562      2561       501      2733      4562      2734
 -1      3963    6    0    1
 -2       429      2618      2222      2611      2650      4663      2262      2654      2656      4658
 -1      3964    6    0    1
 -2       274      2336      2620       451      2370      4655      4661      2372      2374      2689
 -1      3965    6    0    1
 -2      2222      2618       428       295      4663      2649      2260      2255      4643      2259
 -1      3966    6    0    1
 -2      2621       275       450      2622      4407      2346      2686      2687      4408      2630
 -1      3967    6    0    1
 -2       275      2604      2621       450      4584      2685      4407      2346      2684      2686
 -1      3968    6    0    1
 -2       494        45      2525      2747       496      2559      2558      2758      2757      4652
 -1      3969    6    0    1
 -2      2722      2435        43       478      4527      2474      2730      2731      2473       480
 -1      3970    6    0    1
 -2        21      2432       473      2780      2447      2446       475      2786      3399      2787
 -1      3971    6    0    1
 -2        20       504      2517      2778       506      2536      2535      2782      2784      4051
 -1      3972    6    0    1
 -2       428      2618      2619       295      2649      2651      2643      2259      4643      4328
 -1      3973    6    0    1
 -2        46       505      2779      2524       508      2792      2791      2564      2563      4570
 -1      3974    6    0    1
 -2        35       387      1876      1864       388      4664      1881      1880      4665      1883
 -1      3975    6    0    1
 -2      1964      1977        36       407      1983      1982      1979      4666      4667       409
 -1      3976    6    0    1
 -2        43      2781       474      2439      2789      2788       477      2471      4617      2472
 -1      3977    6    0    1
 -2        44      2746       483      2428      2755      2754       485      2476      4628      2477
 -1      3978    6    0    1
 -2        44       509      2428       314       513      4629      2476      2640      2636      4660
 -1      3979    6    0    1
 -2       511        29       512      2846      2632      2629       516      3963      4621      4550
 -1      3980    6    0    1
 -2      2326      2321      2215      2207      2427      4668      2942      3212      3184      2297
 -1      3981    6    0    1
 -2      2326      2215      2321      2329      2942      4668      2427      2416      2941      2410
 -1      3982    6    0    1
 -2      2894       586      2855       572      2985      2933      3087      2984       897      3405
 -1      3983    6    0    1
 -2      2894      2855       586      1366      3087      2933      2985      2957      2934      2931
 -1      3984    6    0    1
 -2      1566       558      1543      1574      3208      2939      1674      1673      3052      1630
 -1      3985    6    0    1
 -2      1566      1543       558      2901      1674      2939      3208      3209      3036      3037
 -1      3986    6    0    1
 -2      2900      1362      2855      2864      2980      3842      2930      2921      2979      3186
 -1      3987    6    0    1
 -2      2900      2855      1362      1377      2930      3842      2980      3245      3711      1482
 -1      3988    6    0    1
 -2      2878      1361      1343      1363      3181      1493      2949      3455      1492      1491
 -1      3989    6    0    1
 -2      2878      1343      1361       566      2949      1493      3181      3045      3044      3180
 -1      3990    6    0    1
 -2      1574      2866       632       558      3458      4391      4669      3052      3457       842
 -1      3991    6    0    1
 -2       632      1566      1574       558      3207      1673      4669       842      3208      3052
 -1      3992    6    0    1
 -2      1352      2900      2879      1371      2928      3626      4670      1527      3032      4639
 -1      3993    6    0    1
 -2      2879      2900      1352       592      3626      2928      4670      3624      2929      2927
 -1      3994    6    0    1
 -2      2879      1360      1352      1371      3095      1530      4670      4639      1465      1527
 -1      3995    6    0    1
 -2      1352      1360      2879       592      1530      3095      4670      2927      3050      3624
 -1      3996    6    0    1
 -2      2846       520       519      2836      4535       524      3137      3076      4005      3047
 -1      3997    6    0    1
 -2      2880      2894       611       571      3358      4671      2993      3618      3190       883
 -1      3998    6    0    1
 -2      2880       611      2894      1365      2993      4671      3358      2991      2988      3206
 -1      3999    6    0    1
 -2      2848       611      2894       571      2989      4671      3192      3187       883      3190
 -1      4000    6    0    1
 -2      2848      2894       611      1365      3192      4671      2989      2990      3206      2988
 -1      4001    6    0    1
 -2      2887      1971      1970      1958      3172      2030      3832      3173      2029      2001
 -1      4002    6    0    1
 -2      2887      1970      1971      2834      3832      2030      3172      3345      3831      3344
 -1      4003    6    0    1
 -2      1565      2866      1566      1564      4591      4672      1750      1748      3758      1749
 -1      4004    6    0    1
 -2      2878       646      1340       618      3864      2917      3603      3646       785      2970
 -1      4005    6    0    1
 -2      2878      1340       646      2864      3603      2917      3864      3182      2919      2918
 -1      4006    6    0    1
 -2      2859      1028      1023      1026      3921      1061      3483      3141      1041      1045
 -1      4007    6    0    1
 -2      2859      1023      1028      1367      3483      1061      3921      3465      3482      4657
 -1      4008    6    0    1
 -2      2879       597       592      1360      3072       966      3624      3095      3094      3050
 -1      4009    6    0    1
 -2      2879       592       597       647      3624       966      3072      3211       995       994
 -1      4010    6    0    1
 -2      2878      1375      1343      2856      4496      1494      2949      2951      4409      2946
 -1      4011    6    0    1
 -2      2878      1343      1375      1363      2949      1494      4496      3455      1491      1495
 -1      4012    6    0    1
 -2      2850      1861      1869      2833      3155      1942      3275      3204      3159      3273
 -1      4013    6    0    1
 -2      2850      1869      1861      1877      3275      1942      3155      3287      1928      1919
 -1      4014    6    0    1
 -2      2879       627       628      2859      3145       854      3071      3073      3142      3069
 -1      4015    6    0    1
 -2      2879       628       627       560      3071       854      3145      3227       853       693
 -1      4016    6    0    1
 -2       600      2901       632       651      3377      3210      1004      1005      3642      1006
 -1      4017    6    0    1
 -2       632      2901       600      2891      3210      3377      1004      4524      3376      3378
 -1      4018    6    0    1
 -2      2867        41       417      2070      3589       419      3843      3706      2105      2108
 -1      4019    6    0    1
 -2      2867       417        41      2833      3843       419      3589      3538      3520      3562
 -1      4020    6    0    1
 -2      2857       520       519      2846      4620       524      3046      3078      4535      3137
 -1      4021    6    0    1
 -2      2857       519       520        37      3046       524      4620      3341      2726      2724
 -1      4022    6    0    1
 -2      2866      1079      1073      1077      3972      1096      3456      3588      1092      1112
 -1      4023    6    0    1
 -2      2899      1587      2876      2885      3329      4174      3692      3328      3327      3691
 -1      4024    6    0    1
 -2      2899      2876      1587      1545      3692      4174      3329      3540      4479      1683
 -1      4025    6    0    1
 -2        39      1973      2063      2071      4662      3349      2098      2097      4177      2100
 -1      4026    6    0    1
 -2      2063      1973        39      1963      3349      4662      2098      3348      1995      3251
 -1      4027    6    0    1
 -2      2901       653      1543       603      3676      4673      3036      3035      1009      2972
 -1      4028    6    0    1
 -2      2901      1543       653      2854      3036      4673      3676      3311      3262      3674
 -1      4029    6    0    1
 -2       635      1543       653       603      2940      4673       792       844      2972      1009
 -1      4030    6    0    1
 -2       635       653      1543      2854       792      4673      2940      3263      3674      3262
 -1      4031    6    0    1
 -2      2905       613       623      2890      3764       809      4534      3765      3761      4499
 -1      4032    6    0    1
 -2      2905       623       613       551      4534       809      3764      3841       808       775
 -1      4033    6    0    1
 -2      2894      1347      2855      1381      3658      3850      3087      3861      1513      3849
 -1      4034    6    0    1
 -2      2894      2855      1347      2861      3087      3850      3658      3191      3902      3657
 -1      4035    6    0    1
 -2      1028      1373      2859      1367      4637      3640      3921      4657      1390      3465
 -1      4036    6    0    1
 -2      2859      1373      1028        56      3640      4637      3921      3404      3744      1033
 -1      4037    6    0    1
 -2      2858       625      1071       559      4384      3948      3837      3867       752      3929
 -1      4038    6    0    1
 -2      2858      1071       625      2851      3837      3948      4384      4172      3952      3950
 -1      4039    6    0    1
 -2      2850      1961      1966      1974      3577      2044      3463      3825      2019      2028
 -1      4040    6    0    1
 -2      2850      1966      1961      2833      3463      2044      3577      3204      3081      3492
 -1      4041    6    0    1
 -2      2216      2906       293      2203      3777      4003      2250      2251      4133      2227
 -1      4042    6    0    1
 -2      2907      1585      2843       262      4415      3523      3594      4189      1624      3316
 -1      4043    6    0    1
 -2      2907      2843      1585      2873      3594      3523      4415      3595      3385      3524
 -1      4044    6    0    1
 -2      2906      2330       293      2317      3619      3942      4003      4118      2364      4117
 -1      4045    6    0    1
 -2      2906       293      2330      2216      4003      3942      3619      3777      2250      3586
 -1      4046    6    0    1
 -2        68      1547         8      1580      3660      1595        70      3661      1597      1594
 -1      4047    6    0    1
 -2         8      1547        68      1138      1595      3660        70      1148      4281      1149
 -1      4048    6    0    1
 -2      2519       512        45       281      4674       517      2557      4623      2628      2641
 -1      4049    6    0    1
 -2      2515      2846      2519       281      3505      4675      2550      3891      3893      4623
 -1      4050    6    0    1
 -2      2515      2519      2846      2888      2550      4675      3505      3508      3986      3510
 -1      4051    6    0    1
 -2      2846       512      2519       281      4550      4674      4675      3893      2628      4623
 -1      4052    6    0    1
 -2      2846      2519       512      2888      4675      4674      4550      3510      3986      4551
 -1      4053    6    0    1
 -2      2892       521      2524      2846      4632      3526      3739      3741      3506      3527
 -1      4054    6    0    1
 -2      2892      2524       521      2779      3739      3526      4632      4641      4570      2793
 -1      4055    6    0    1
 -2      2058      1970      2887      2067      4469      3832      3372      2159      3829      3833
 -1      4056    6    0    1
 -2      2058      2887      1970      1958      3372      3832      4469      3371      3173      2001
 -1      4057    6    0    1
 -2      1134       564      2859       642      4627      3403      4481      4480       663      3682
 -1      4058    6    0    1
 -2      1134      2859       564        50      4481      3403      4627      1140      3746      3774
 -1      4059    6    0    1
 -2       556      1232      2851       641      4508      4421      4098       711      4466      4316
 -1      4060    6    0    1
 -2      2851      1232       556      1223      4421      4508      4098      4099      1278      4039
 -1      4061    6    0    1
 -2      2862       255      2873      2841      3003      4435      3387      3004      3002      3875
 -1      4062    6    0    1
 -2      2862      2873       255        26      3387      4435      3003      3075      3386       257
 -1      4063    6    0    1
 -2      2067      1962       364      1970      4085      2002      2157      3829      2004      2000
 -1      4064    6    0    1
 -2      2067       364      1962      2066      2157      2002      4085      2162      2161      3991
 -1      4065    6    0    1
 -2      2908      2604      2610      2619      4082      2691      4645      4080      2716      2715
 -1      4066    6    0    1
 -2      2908      2610      2604       274      4645      2691      4082      4165      4659      4164
 -1      4067    6    0    1
 -2      1027       557      2856      1022      4432      4236      4304      1058      3997      4237
 -1      4068    6    0    1
 -2      1027      2856       557       630      4304      4236      4432      4302      4303       708
 -1      4069    6    0    1
 -2       558      1079      2866       629      4483      3972      3457       739      3981      3721
 -1      4070    6    0    1
 -2       558      2866      1079      1073      3457      3972      4483      3133      3456      1096
 -1      4071    6    0    1
 -2      2885      1572      1556      1587      4175      1732      4339      3327      1685      1721
 -1      4072    6    0    1
 -2      2885      1556      1572      2860      4339      1732      4175      4140      4321      4238
 -1      4073    6    0    1
 -2      1959      2074      2867      1972      4512      3880      4475      2010      3857      3881
 -1      4074    6    0    1
 -2      1959      2867      2074      2057      4475      3880      4512      4573      4574      2168
 -1      4075    6    0    1
 -2      1023      1367       163      1028      3482      1389      1060      1061      4657      1034
 -1      4076    6    0    1
 -2       163      1367      1023      1368      1389      3482      1060      1417      1419      3622
 -1      4077    6    0    1
 -2      2431      2428      2869       314      2464      4676      3962      4241      4660      4243
 -1      4078    6    0    1
 -2       509      2428      2869      2868      4629      4676      4677      4315      4607      3068
 -1      4079    6    0    1
 -2       509      2869      2428       314      4677      4676      4629      2636      4243      4660
 -1      4080    6    0    1
 -2      2070      1961       368      1976      3705      2014      2106      3786      2016      2012
 -1      4081    6    0    1
 -2       368      1961      2070        41      2014      3705      2106      2104      3563      2105
 -1      4082    6    0    1
 -2      1354      2890      2883       236      4518      4050      4180      1451      4147      4253
 -1      4083    6    0    1
 -2      2883      2890      1354      2884      4050      4518      4180      3452      4418      4181
 -1      4084    6    0    1
 -2       151      2859      1125       555      4482      3008      1192       779      2915      3314
 -1      4085    6    0    1
 -2      1125      2859       151      1134      3008      4482      1192      1194      4481      1141
 -1      4086    6    0    1
 -2      2526      1818      2839      2514      4635      3203      4032      2578      3199      3202
 -1      4087    6    0    1
 -2      2839      1818      2526      1817      3203      4635      4032      4031      1834      4030
 -1      4088    6    0    1
 -2      2429      1838       326      1839      4337      1842      2457      4159      1855      1851
 -1      4089    6    0    1
 -2      2429       326      1838      2440      2457      1842      4337      2490      2454      4033
 -1      4090    6    0    1
 -2      2846       281        29       512      3893       282      4621      4550      2628      2629
 -1      4091    6    0    1
 -2      2846        29       281      1756      4621       282      3893      3892      1763      1765
 -1      4092    6    0    1
 -2      2076      1862       332      1871      3738      1890      2089      3713      1895      1894
 -1      4093    6    0    1
 -2      2076       332      1862        38      2089      1890      3738      2088      2086      3421
 -1      4094    6    0    1
 -2      1233       639      2856        80      4631      4305      4206      1238      4478      4425
 -1      4095    6    0    1
 -2      1233      2856       639       562      4206      4305      4631      4289      4290       677
 -1      4096    6    0    1
 -2      1573        62         7      1580      3565        64      1592      1593      3566      1589
 -1      4097    6    0    1
 -2      1573         7        62      1077      1592        64      3565      3659      1084      1083
 -1      4098    6    0    1
 -2      1025      1374      2856        74      4569      4424      4296      1038      4436      4397
 -1      4099    6    0    1
 -2      2856      1374      1025      1342      4424      4569      4296      4394      1395      4393
 -1      4100    6    0    1
 -2      2897       518      2439      2781      4634      3959      4063      4638      2790      4617
 -1      4101    6    0    1
 -2      2897      2439       518      2869      4063      3959      4634      3694      3960      3961
 -1      4102    6    0    1
 -2       638      1133      2866       561      4636      4565      3720       668      4624      3855
 -1      4103    6    0    1
 -2      2866      1133       638        68      4565      4636      3720      3662      1145      3776
 -1      4104    6    0    1
 -2      2869       314        32      1787      4243       316      4647      4244      1794      1793
 -1      4105    6    0    1
 -2      2869        32       314       509      4647       316      4243      4677      2635      2636
 -1      4106    6    0    1
 -2      2075      1861       339        42      4285      1915      2111      2112      3177      2110
 -1      4107    6    0    1
 -2      2075       339      1861      1872      2111      1915      4285      4284      1911      1916
 -1      4108    6    0    1
 -2      2773      2777      2870      2776      2829      4245      3896      2826      2802      3750
 -1      4109    6    0    1
 -2      2773      2870      2777      2772      3896      4245      2829      2820      4182      2828
 -1      4110    6    0    1
 -2      2777      2774      2870      2775      2830      3699      4245      2799      2824      3747
 -1      4111    6    0    1
 -2      2777      2870      2774      2772      4245      3699      2830      2828      4182      2817
 -1      4112    6    0    1
 -2      2614      2319       453      2331      4495      2379      2698      4516      2368      2378
 -1      4113    6    0    1
 -2      2614       453      2319      2602      2698      2379      4495      2659      2697      4445
 -1      4114    6    0    1
 -2      2609       456      2327       457      2705      2387      3548      2704       468      2388
 -1      4115    6    0    1
 -2      2609      2327       456      2617      3548      2387      2705      2672      3415      2706
 -1      4116    6    0    1
 -2       509       510      2869        32       514      3158      4677      2635      2637      4647
 -1      4117    6    0    1
 -2      2869       510       509      2868      3158       514      4677      3068      3157      4315
 -1      4118    6    0    1
 -2      2321      2316      2215      2207      2409      4678      4668      3184      3293      2297
 -1      4119    6    0    1
 -2      2202      2316      2215      2906      3294      4678      2296      3913      3914      2943
 -1      4120    6    0    1
 -2      2202      2215      2316      2207      2296      4678      3294      2294      2297      3293
 -1      4121    6    0    1
 -2      2215      2329      2316      2321      2941      2411      4678      4668      2410      2409
 -1      4122    6    0    1
 -2      2316      2329      2215      2906      2411      2941      4678      3914      2945      2943
 -1      4123    6    0    1
 -2      2866      1566      1574       632      4672      1673      3458      4391      3207      4669
 -1      4124    6    0    1
 -2      2866      1574      1566      1564      3458      1673      4672      3758      1751      1749
 -1      4125    6    0    1
 -2       632      1566      1565      2866      3207      1750      4679      4391      4672      4591
 -1      4126    6    0    1
 -2      1565      1566       632      2901      1750      3207      4679      3418      3209      3210
 -1      4127    6    0    1
 -2      1565      2891       632      2866      3419      4524      4679      4591      4525      4391
 -1      4128    6    0    1
 -2       632      2891      1565      2901      4524      3419      4679      3210      3376      3418
 -1      4129    6    0    1
 -2      2519       512      2747        45      4674      2759      4680      2557       517      2757
 -1      4130    6    0    1
 -2      2747       512      2519      2888      2759      4674      4680      4653      4551      3986
 -1      4131    6    0    1
 -2      2747      2525      2519        45      4652      2560      4680      2757      2559      2557
 -1      4132    6    0    1
 -2      2519      2525      2747      2888      2560      4652      4680      3986      4568      4653
 -1      4133    6    0    1
 -2      2428      2869      2435      2431      4676      4681      2506      2464      3962      2505
 -1      4134    6    0    1
 -2      2428      2435      2869      2868      2506      4681      4676      4607      4529      3068
 -1      4135    6    0    1
 -2       518      2435      2869      2431      4101      4681      3961      3958      2505      3962
 -1      4136    6    0    1
 -2       518      2869      2435      2868      3961      4681      4101      4530      3068      4529
 -3
    1PSTEP                         1           1           1          
  100CL  101 1.000000000        4681                     0    1           1
 -4  DISP        4    1
 -5  D1          1    2    1    0
 -5  D2          1    2    2    0
 -5  D3          1    2    3    0
 -5  ALL         1    2    0    0    1ALL
 -1         1 0.00000E+00 0.00000E+00 0.00000E+00
 -1         2 0.00000E+00 0.00000E+00 0.00000E+00
 -1         3-3.47963E-06-1.04296E-05-2.83746E-07
 -1         4-5.69478E-06-7.89628E-06 1.77623E-06
 -1         5 0.00000E+00 0.00000E+00 0.00000E+00
 -1         6 0.00000E+00 0.00000E+00 0.00000E+00
 -1         7-5.60263E-06 7.80726E-06 1.77739E-06
 -1         8-3.42400E-06 1.03179E-05-2.26115E-07
 -1         9 0.00000E+00 0.00000E+00 0.00000E+00
 -1        10 0.00000E+00 0.00000E+00 0.00000E+00
 -1        11-6.43314E-06 2.50557E-05-6.20690E-06
 -1        12-5.52778E-06 2.61944E-05 3.05715E-07
 -1        13 0.00000E+00 0.00000E+00 0.00000E+00
 -1        14 0.00000E+00 0.00000E+00 0.00000E+00
 -1        15-5.54422E-06-2.63008E-05 2.88414E-07
 -1        16-6.41838E-06-2.52916E-05-6.39420E-06
 -1        17 2.71412E-04-3.21734E-05 2.74674E-04
 -1        18 2.70359E-04 3.31946E-05 2.74037E-04
 -1        19 3.54338E-06 8.33448E-05-2.30986E-04
 -1        20-1.79457E-04 5.78096E-04-1.01748E-03
 -1        21-1.86195E-04-5.82926E-04-1.01777E-03
 -1        22 3.57720E-06-8.47967E-05-2.27014E-04
 -1        23 5.98511E-06 1.09665E-05-1.37542E-04
 -1        24-5.25509E-05 3.49143E-05-8.60095E-05
 -1        25-5.36841E-05-3.35530E-05-8.67215E-05
 -1        26 5.69324E-06-1.10850E-05-1.37127E-04
 -1        27 3.67686E-04 1.74616E-05-1.10934E-04
 -1        28-9.84582E-05-1.10641E-04 9.43570E-05
 -1        29 7.92292E-03-1.37743E-04-7.51679E-03
 -1        30 7.94926E-03-4.27139E-04-7.11651E-03
 -1        31 3.63870E-04-1.30920E-05-1.13162E-04
 -1        32 7.92393E-03 1.36623E-04-7.51002E-03
 -1        33-1.03656E-04 1.12897E-04 9.31245E-05
 -1        34 7.94335E-03 4.23481E-04-7.11406E-03
 -1        35-2.53627E-03 1.45666E-06-8.83403E-03
 -1        36 1.07911E-02-8.90534E-06-8.92434E-03
 -1        37-2.20427E-06-3.33389E-06-8.88941E-03
 -1        38-5.30310E-04 7.37946E-05-2.12523E-02
 -1        39 8.86803E-03-5.63389E-05-2.12941E-02
 -1        40 8.26639E-03-2.60842E-06-8.96532E-03
 -1        41 8.86171E-03 4.33283E-05-2.12896E-02
 -1        42-5.37735E-04-8.93222E-05-2.12476E-02
 -1        43 3.68215E-04-5.00739E-04-7.04484E-03
 -1        44 7.95799E-03 4.20951E-04-7.20731E-03
 -1        45 7.96406E-03-4.25087E-04-7.20948E-03
 -1        46 3.71637E-04 4.95188E-04-7.05593E-03
 -1        47 0.00000E+00 0.00000E+00 0.00000E+00
 -1        48 0.00000E+00 0.00000E+00 0.00000E+00
 -1        49 0.00000E+00 0.00000E+00 0.00000E+00
 -1        50-2.12706E-06-6.77810E-06-1.98290E-07
 -1        51-9.64363E-07-3.54149E-06-1.65704E-07
 -1        52-2.96708E-06-9.03736E-06-2.37738E-07
 -1        53-5.06478E-06-9.75736E-06 9.96164E-07
 -1        54-5.53472E-06-8.91800E-06 1.55556E-06
 -1        55-4.29037E-06-1.02208E-05 3.25140E-07
 -1        56-3.91624E-06-4.88244E-06 1.81725E-06
 -1        57-2.07807E-06-2.54972E-06 1.34184E-06
 -1        58-5.16725E-06-6.59659E-06 1.81266E-06
 -1        59 0.00000E+00 0.00000E+00 0.00000E+00
 -1        60 0.00000E+00 0.00000E+00 0.00000E+00
 -1        61 0.00000E+00 0.00000E+00 0.00000E+00
 -1        62-3.88630E-06 4.80267E-06 1.82411E-06
 -1        63-2.04497E-06 2.53032E-06 1.38120E-06
 -1        64-5.11720E-06 6.49615E-06 1.82957E-06
 -1        65-4.99159E-06 9.62692E-06 1.02235E-06
 -1        66-4.23870E-06 1.00969E-05 3.69949E-07
 -1        67-5.45650E-06 8.79475E-06 1.57045E-06
 -1        68-2.09982E-06 6.70627E-06-1.53005E-07
 -1        69-9.69848E-07 3.49954E-06-1.53831E-07
 -1        70-2.88973E-06 8.93829E-06-1.74407E-07
 -1        71 0.00000E+00 0.00000E+00 0.00000E+00
 -1        72 0.00000E+00 0.00000E+00 0.00000E+00
 -1        73 0.00000E+00 0.00000E+00 0.00000E+00
 -1        74-3.84527E-06 1.57291E-05-6.70597E-06
 -1        75-1.64690E-06 8.54077E-06-5.10302E-06
 -1        76-5.52828E-06 2.09279E-05-6.43058E-06
 -1        77-6.18777E-06 2.60833E-05-3.73057E-06
 -1        78-5.80919E-06 2.62317E-05-1.68123E-06
 -1        79-6.38853E-06 2.56420E-05-5.41425E-06
 -1        80-2.29877E-06 1.74057E-05-2.71609E-08
 -1        81-5.15314E-07 9.27469E-06-3.23776E-07
 -1        82-4.11567E-06 2.25635E-05 2.96897E-07
 -1        83 0.00000E+00 0.00000E+00 0.00000E+00
 -1        84 0.00000E+00 0.00000E+00 0.00000E+00
 -1        85 0.00000E+00 0.00000E+00 0.00000E+00
 -1        86-2.28513E-06-1.73956E-05-2.69768E-08
 -1        87-5.18815E-07-9.22307E-06-3.18112E-07
 -1        88-4.10833E-06-2.25943E-05 2.93770E-07
 -1        89-6.20446E-06-2.62144E-05-3.86055E-06
 -1        90-6.38419E-06-2.58175E-05-5.58952E-06
 -1        91-5.82871E-06-2.63585E-05-1.74972E-06
 -1        92-3.79959E-06-1.57468E-05-6.86391E-06
 -1        93-1.68381E-06-8.43918E-06-4.96992E-06
 -1        94-5.50622E-06-2.09914E-05-6.61170E-06
 -1        95 0.00000E+00 0.00000E+00 0.00000E+00
 -1        96 0.00000E+00 0.00000E+00 0.00000E+00
 -1        97 0.00000E+00 0.00000E+00 0.00000E+00
 -1        98 0.00000E+00 0.00000E+00 0.00000E+00
 -1        99 0.00000E+00 0.00000E+00 0.00000E+00
 -1       100 0.00000E+00 0.00000E+00 0.00000E+00
 -1       101 0.00000E+00 0.00000E+00 0.00000E+00
 -1       102 0.00000E+00 0.00000E+00 0.00000E+00
 -1       103 0.00000E+00 0.00000E+00 0.00000E+00
 -1       104 0.00000E+00 0.00000E+00 0.00000E+00
 -1       105 0.00000E+00 0.00000E+00 0.00000E+00
 -1       106 0.00000E+00 0.00000E+00 0.00000E+00
 -1       107 0.00000E+00 0.00000E+00 0.00000E+00
 -1       108 0.00000E+00 0.00000E+00 0.00000E+00
 -1       109 0.00000E+00 0.00000E+00 0.00000E+00
 -1       110 0.00000E+00 0.00000E+00 0.00000E+00
 -1       111 0.00000E+00 0.00000E+00 0.00000E+00
 -1       112 0.00000E+00 0.00000E+00 0.00000E+00
 -1       113 0.00000E+00 0.00000E+00 0.00000E+00
 -1       114 0.00000E+00 0.00000E+00 0.00000E+00
 -1       115 0.00000E+00 0.00000E+00 0.00000E+00
 -1       116 0.00000E+00 0.00000E+00 0.00000E+00
 -1       117 0.00000E+00 0.00000E+00 0.00000E+00
 -1       118 0.00000E+00 0.00000E+00 0.00000E+00
 -1       119 0.00000E+00 0.00000E+00 0.00000E+00
 -1       120 0.00000E+00 0.00000E+00 0.00000E+00
 -1       121 0.00000E+00 0.00000E+00 0.00000E+00
 -1       122 0.00000E+00 0.00000E+00 0.00000E+00
 -1       123 0.00000E+00 0.00000E+00 0.00000E+00
 -1       124 0.00000E+00 0.00000E+00 0.00000E+00
 -1       125 0.00000E+00 0.00000E+00 0.00000E+00
 -1       126 0.00000E+00 0.00000E+00 0.00000E+00
 -1       127 0.00000E+00 0.00000E+00 0.00000E+00
 -1       128 0.00000E+00 0.00000E+00 0.00000E+00
 -1       129 0.00000E+00 0.00000E+00 0.00000E+00
 -1       130 0.00000E+00 0.00000E+00 0.00000E+00
 -1       131 0.00000E+00 0.00000E+00 0.00000E+00
 -1       132 0.00000E+00 0.00000E+00 0.00000E+00
 -1       133 0.00000E+00 0.00000E+00 0.00000E+00
 -1       134 0.00000E+00 0.00000E+00 0.00000E+00
 -1       135 0.00000E+00 0.00000E+00 0.00000E+00
 -1       136 0.00000E+00 0.00000E+00 0.00000E+00
 -1       137 0.00000E+00 0.00000E+00 0.00000E+00
 -1       138 0.00000E+00 0.00000E+00 0.00000E+00
 -1       139 0.00000E+00 0.00000E+00 0.00000E+00
 -1       140 0.00000E+00 0.00000E+00 0.00000E+00
 -1       141 0.00000E+00 0.00000E+00 0.00000E+00
 -1       142 0.00000E+00 0.00000E+00 0.00000E+00
 -1       143 0.00000E+00 0.00000E+00 0.00000E+00
 -1       144 0.00000E+00 0.00000E+00 0.00000E+00
 -1       145 0.00000E+00 0.00000E+00 0.00000E+00
 -1       146 0.00000E+00 0.00000E+00 0.00000E+00
 -1       147 0.00000E+00 0.00000E+00 0.00000E+00
 -1       148 0.00000E+00 0.00000E+00 0.00000E+00
 -1       149 0.00000E+00 0.00000E+00 0.00000E+00
 -1       150 0.00000E+00 0.00000E+00 0.00000E+00
 -1       151 0.00000E+00 0.00000E+00 0.00000E+00
 -1       152 0.00000E+00 0.00000E+00 0.00000E+00
 -1       153 0.00000E+00 0.00000E+00 0.00000E+00
 -1       154 0.00000E+00 0.00000E+00 0.00000E+00
 -1       155 0.00000E+00 0.00000E+00 0.00000E+00
 -1       156 0.00000E+00 0.00000E+00 0.00000E+00
 -1       157 0.00000E+00 0.00000E+00 0.00000E+00
 -1       158 0.00000E+00 0.00000E+00 0.00000E+00
 -1       159 0.00000E+00 0.00000E+00 0.00000E+00
 -1       160 0.00000E+00 0.00000E+00 0.00000E+00
 -1       161 0.00000E+00 0.00000E+00 0.00000E+00
 -1       162 0.00000E+00 0.00000E+00 0.00000E+00
 -1       163-5.74408E-06-3.14217E-06 8.90880E-07
 -1       164-6.05508E-06 1.93859E-06-5.37573E-07
 -1       165-6.56084E-06 7.06268E-06-2.07377E-06
 -1       166-7.10449E-06 1.21720E-05-3.51436E-06
 -1       167-7.13295E-06 1.72526E-05-4.85475E-06
 -1       168-6.70640E-06 2.18439E-05-6.11079E-06
 -1       169-5.66445E-06-5.65577E-06 1.50568E-06
 -1       170-5.87605E-06-5.93744E-07 2.09425E-07
 -1       171-6.32655E-06 4.50119E-06-1.32039E-06
 -1       172-6.86699E-06 9.62042E-06-2.80763E-06
 -1       173-7.22339E-06 1.47514E-05-4.20937E-06
 -1       174-6.96503E-06 1.96625E-05-5.55205E-06
 -1       175-6.48697E-06 2.37018E-05-6.37503E-06
 -1       176-5.69856E-06 3.03262E-06 9.20202E-07
 -1       177-6.07538E-06-2.11410E-06-6.15989E-07
 -1       178-6.58128E-06-7.19545E-06-2.10487E-06
 -1       179-7.03170E-06-1.23165E-05-3.59488E-06
 -1       180-7.09331E-06-1.73775E-05-5.04398E-06
 -1       181-6.69186E-06-2.19377E-05-6.26139E-06
 -1       182-5.60220E-06 5.50883E-06 1.50172E-06
 -1       183-5.86417E-06 4.55048E-07 1.66399E-07
 -1       184-6.31962E-06-4.64114E-06-1.35928E-06
 -1       185-6.82189E-06-9.74348E-06-2.84668E-06
 -1       186-7.11575E-06-1.48721E-05-4.34158E-06
 -1       187-6.92679E-06-1.97547E-05-5.71055E-06
 -1       188-6.47174E-06-2.38305E-05-6.56628E-06
 -1       189 8.56911E-05-3.44070E-05 5.28665E-05
 -1       190 2.70672E-05-2.89702E-05 7.22305E-06
 -1       191 7.45405E-06-1.95448E-05-6.34585E-07
 -1       192-2.18286E-07-1.26708E-05-1.64521E-06
 -1       193 1.54270E-04-3.58006E-05 1.22935E-04
 -1       194 4.94440E-05-3.24312E-05 2.16800E-05
 -1       195 1.49772E-05-2.41043E-05 1.71443E-06
 -1       196 2.73552E-06-1.55490E-05-1.47879E-06
 -1       197-2.00482E-06-1.10513E-05-1.14764E-06
 -1       198-5.47674E-08 1.25621E-05-1.49264E-06
 -1       199 7.16339E-06 1.93139E-05-9.72741E-07
 -1       200 2.69567E-05 2.86129E-05 6.88499E-06
 -1       201 8.42800E-05 3.47815E-05 5.07310E-05
 -1       202-1.87945E-06 1.09414E-05-1.04258E-06
 -1       203 2.77044E-06 1.53811E-05-1.46607E-06
 -1       204 1.47130E-05 2.38458E-05 1.37322E-06
 -1       205 4.89503E-05 3.26410E-05 2.16401E-05
 -1       206 1.54021E-04 3.59495E-05 1.21993E-04
 -1       207 3.13233E-04 4.25102E-07 3.32650E-04
 -1       208 3.01428E-04 2.04632E-05 3.23607E-04
 -1       209 3.02499E-04-1.93040E-05 3.23953E-04
 -1       210-9.84506E-06 2.39199E-05-1.68175E-05
 -1       211-6.07904E-06 2.64441E-05 5.09885E-06
 -1       212-1.65916E-06 3.90994E-05-6.80435E-05
 -1       213-7.15970E-06 2.51230E-05 9.86221E-07
 -1       214-5.45759E-06 2.61139E-05 3.71624E-06
 -1       215-1.60843E-04 3.72039E-04-5.88093E-04
 -1       216-8.52552E-05 2.44399E-04-4.10037E-04
 -1       217-1.94331E-04 4.82354E-04-7.82307E-04
 -1       218 1.44948E-04-3.60970E-04-1.11397E-03
 -1       219 3.01940E-04-1.17663E-04-1.23278E-03
 -1       220 2.96568E-04 1.16606E-04-1.22788E-03
 -1       221 1.30626E-04 3.58558E-04-1.10802E-03
 -1       222 2.21085E-06-4.75350E-04-1.02547E-03
 -1       223 2.45844E-04-2.46308E-04-1.17858E-03
 -1       224 3.20198E-04 7.07316E-07-1.23518E-03
 -1       225 2.36497E-04 2.44756E-04-1.17565E-03
 -1       226 2.05649E-06 4.70312E-04-1.02438E-03
 -1       227-1.64674E-04-3.73066E-04-5.87150E-04
 -1       228-8.84767E-05-2.46047E-04-4.08867E-04
 -1       229-2.00642E-04-4.83994E-04-7.81546E-04
 -1       230-6.41888E-06-2.64886E-05 5.35790E-06
 -1       231-7.43504E-06-2.42145E-05-1.69199E-05
 -1       232-5.58343E-06-2.61429E-05 3.86750E-06
 -1       233-7.16033E-06-2.55143E-05 1.04464E-06
 -1       234-4.69319E-06-3.41468E-05-6.39134E-05
 -1       235 2.23584E-04-5.40141E-06 1.59488E-04
 -1       236 1.92847E-04-2.85117E-06 1.24071E-04
 -1       237 1.52094E-04-2.02611E-06 1.02423E-04
 -1       238 1.02918E-04 3.93089E-06 6.73816E-05
 -1       239 5.40844E-05 1.21210E-05-1.61784E-06
 -1       240 2.45260E-04-7.64603E-06 1.98460E-04
 -1       241 2.06825E-04-4.72602E-06 1.36749E-04
 -1       242 1.72682E-04-3.90645E-06 1.13051E-04
 -1       243 1.29558E-04 5.30955E-07 8.83380E-05
 -1       244 7.96009E-05 8.59254E-06 3.92097E-05
 -1       245 2.92525E-05 1.31010E-05-5.58098E-05
 -1       246-4.18117E-05 2.01757E-05-1.32302E-04
 -1       247-1.82995E-05 1.53902E-05-1.33815E-04
 -1       248-5.63022E-05 2.49295E-05-1.20467E-04
 -1       249-7.88272E-05 6.49086E-05-1.89889E-04
 -1       250-7.51034E-05 4.77102E-05-1.32127E-04
 -1       251-4.27948E-05 7.85604E-05-2.28470E-04
 -1       252-8.19222E-05-6.56043E-05-1.93105E-04
 -1       253-7.73255E-05-4.84578E-05-1.32923E-04
 -1       254-4.68730E-05-7.84763E-05-2.31450E-04
 -1       255-4.42430E-05-1.95911E-05-1.31655E-04
 -1       256-5.83149E-05-2.39261E-05-1.21172E-04
 -1       257-1.92961E-05-1.53793E-05-1.33533E-04
 -1       258 2.23406E-04 3.83786E-06 1.60292E-04
 -1       259 1.91780E-04 5.05653E-06 1.23924E-04
 -1       260 1.54004E-04-5.36950E-07 1.02392E-04
 -1       261 1.07702E-04-6.67711E-06 7.05318E-05
 -1       262 5.56220E-05-1.06238E-05-2.16486E-07
 -1       263 2.44627E-04 6.82061E-06 1.98399E-04
 -1       264 2.06910E-04 3.45052E-06 1.37958E-04
 -1       265 1.72607E-04 4.14815E-06 1.13026E-04
 -1       266 1.32582E-04-3.91411E-06 9.06990E-05
 -1       267 8.21716E-05-8.59701E-06 4.21353E-05
 -1       268 2.90512E-05-1.27257E-05-5.51704E-05
 -1       269 1.31765E-04-3.41871E-05 1.77927E-05
 -1       270 2.35134E-04-8.62560E-06-3.58310E-05
 -1       271 2.99432E-05-6.68292E-05 6.13225E-05
 -1       272 1.11159E-03-2.88545E-06-5.97439E-05
 -1       273 2.35588E-03-4.56784E-05-3.34002E-04
 -1       274 4.16815E-03-1.09012E-04-1.36514E-03
 -1       275 6.30483E-03-1.69811E-04-3.72847E-03
 -1       276 6.75811E-04 7.91412E-06-6.55481E-05
 -1       277 1.65957E-03-2.16422E-05-1.20139E-04
 -1       278 3.20031E-03-7.65854E-05-7.15274E-04
 -1       279 5.22762E-03-1.49082E-04-2.34363E-03
 -1       280 7.21036E-03-1.70031E-04-5.36808E-03
 -1       281 7.97619E-03-2.67817E-04-7.40013E-03
 -1       282 7.95673E-03-2.02997E-04-7.47651E-03
 -1       283 7.97585E-03-3.42977E-04-7.28620E-03
 -1       284 7.09344E-04-2.03752E-04 4.49714E-04
 -1       285 2.28756E-03-2.90454E-04 3.68205E-04
 -1       286 4.42940E-03-3.94392E-04-6.93415E-04
 -1       287 6.57476E-03-4.68465E-04-3.17415E-03
 -1       288 2.10833E-04-1.57019E-04 2.93358E-04
 -1       289 1.40432E-03-2.47151E-04 4.97039E-04
 -1       290 3.31003E-03-3.44435E-04-1.42586E-06
 -1       291 5.54847E-03-4.40745E-04-1.74565E-03
 -1       292 7.40824E-03-4.65797E-04-4.98179E-03
 -1       293 1.11061E-03 8.35857E-06-5.48470E-05
 -1       294 2.34660E-03 4.32833E-05-3.39717E-04
 -1       295 4.16700E-03 1.13306E-04-1.37158E-03
 -1       296 6.30971E-03 1.63254E-04-3.72527E-03
 -1       297 6.70897E-04-3.72331E-06-6.55606E-05
 -1       298 1.66457E-03 2.64009E-05-1.23453E-04
 -1       299 3.19690E-03 7.51120E-05-7.18609E-04
 -1       300 5.22773E-03 1.46009E-04-2.33880E-03
 -1       301 7.21294E-03 1.67199E-04-5.37205E-03
 -1       302 1.28838E-04 3.41210E-05 1.49762E-05
 -1       303 2.62032E-05 6.82624E-05 5.97943E-05
 -1       304 2.29957E-04 1.21424E-05-4.04483E-05
 -1       305 7.02484E-04 2.07343E-04 4.49701E-04
 -1       306 2.28025E-03 2.92928E-04 3.66960E-04
 -1       307 4.42207E-03 3.91862E-04-6.93732E-04
 -1       308 6.56804E-03 4.65833E-04-3.17229E-03
 -1       309 2.04231E-04 1.59768E-04 2.93940E-04
 -1       310 1.39955E-03 2.49190E-04 4.95869E-04
 -1       311 3.30268E-03 3.44924E-04-2.31241E-06
 -1       312 5.54110E-03 4.39633E-04-1.74267E-03
 -1       313 7.40357E-03 4.62477E-04-4.97897E-03
 -1       314 7.96861E-03 2.63176E-04-7.40022E-03
 -1       315 7.96969E-03 3.39577E-04-7.28326E-03
 -1       316 7.95089E-03 1.98490E-04-7.47301E-03
 -1       317 9.48356E-05 1.46809E-05-1.66959E-04
 -1       318 3.55477E-05 1.40931E-05-1.60244E-04
 -1       319 1.97281E-04 1.59297E-05-1.49935E-04
 -1       320-2.39284E-04-3.14307E-05-1.39639E-04
 -1       321-1.90222E-04 1.31796E-05-1.59390E-04
 -1       322-2.19147E-04-7.06894E-05-4.84265E-05
 -1       323 9.51998E-05-1.31831E-05-1.66184E-04
 -1       324 3.49977E-05-1.34549E-05-1.59749E-04
 -1       325 1.97897E-04-1.38993E-05-1.49923E-04
 -1       326-2.44563E-04 3.38317E-05-1.41417E-04
 -1       327-1.92738E-04-1.18046E-05-1.59463E-04
 -1       328-2.24196E-04 7.25502E-05-4.99620E-05
 -1       329-2.62511E-03 7.57527E-05-9.84070E-03
 -1       330-2.78718E-03 1.51193E-04-1.27831E-02
 -1       331-2.88894E-03 1.41768E-04-1.73013E-02
 -1       332-2.93415E-03 9.42252E-05-2.26013E-02
 -1       333-2.96425E-03 4.89013E-05-2.76982E-02
 -1       334-2.98809E-03 1.74730E-05-3.16928E-02
 -1       335-3.00301E-03-3.29735E-06-3.38821E-02
 -1       336-3.00477E-03-1.99443E-05-3.38812E-02
 -1       337-2.99273E-03-3.97137E-05-3.16899E-02
 -1       338-2.97173E-03-6.91125E-05-2.76940E-02
 -1       339-2.94115E-03-1.11137E-04-2.25968E-02
 -1       340-2.89639E-03-1.55270E-04-1.72970E-02
 -1       341-2.79119E-03-1.60832E-04-1.27821E-02
 -1       342-2.62029E-03-8.97596E-05-9.84632E-03
 -1       343-2.55181E-03 3.80652E-05-9.08682E-03
 -1       344-2.71187E-03 1.22499E-04-1.10831E-02
 -1       345-2.84762E-03 1.55172E-04-1.48846E-02
 -1       346-2.91649E-03 1.18884E-04-1.99153E-02
 -1       347-2.95034E-03 7.04920E-05-2.52341E-02
 -1       348-2.97745E-03 3.18889E-05-2.98833E-02
 -1       349-2.99700E-03 6.23180E-06-3.30455E-02
 -1       350-3.00590E-03-1.17956E-05-3.41647E-02
 -1       351-3.00061E-03-2.89088E-05-3.30441E-02
 -1       352-2.98305E-03-5.34546E-05-2.98798E-02
 -1       353-2.95697E-03-8.82043E-05-2.52303E-02
 -1       354-2.92384E-03-1.34482E-04-1.99107E-02
 -1       355-2.85387E-03-1.66991E-04-1.48810E-02
 -1       356-2.71012E-03-1.31891E-04-1.10833E-02
 -1       357-2.56181E-03-4.53642E-05-9.08841E-03
 -1       358 1.08986E-02-7.93314E-05-9.92351E-03
 -1       359 1.10879E-02-1.49967E-04-1.28381E-02
 -1       360 1.12063E-02-1.30827E-04-1.73562E-02
 -1       361 1.12639E-02-7.64679E-05-2.26672E-02
 -1       362 1.13074E-02-3.58346E-05-2.77669E-02
 -1       363 1.13412E-02-1.54872E-05-3.17615E-02
 -1       364 1.13598E-02-9.96527E-06-3.39510E-02
 -1       365 1.13579E-02-8.65932E-06-3.39501E-02
 -1       366 1.13371E-02-1.73438E-06-3.17592E-02
 -1       367 1.13006E-02 2.04656E-05-2.77630E-02
 -1       368 1.12573E-02 6.39962E-05-2.26625E-02
 -1       369 1.11990E-02 1.22441E-04-1.73516E-02
 -1       370 1.10813E-02 1.43222E-04-1.28355E-02
 -1       371 1.08909E-02 7.66311E-05-9.93020E-03
 -1       372 1.08127E-02-4.39680E-05-9.17581E-03
 -1       373 1.09993E-02-1.24104E-04-1.11511E-02
 -1       374 1.11575E-02-1.49639E-04-1.49373E-02
 -1       375 1.12399E-02-1.03188E-04-1.99768E-02
 -1       376 1.12873E-02-5.30519E-05-2.53019E-02
 -1       377 1.13259E-02-2.37650E-05-2.99517E-02
 -1       378 1.13535E-02-1.15302E-05-3.31142E-02
 -1       379 1.13613E-02-9.35635E-06-3.42333E-02
 -1       380 1.13499E-02-6.37891E-06-3.31126E-02
 -1       381 1.13204E-02 7.31166E-06-2.99487E-02
 -1       382 1.12802E-02 3.97736E-05-2.52978E-02
 -1       383 1.12331E-02 9.25019E-05-1.99717E-02
 -1       384 1.11508E-02 1.42667E-04-1.49315E-02
 -1       385 1.09909E-02 1.18246E-04-1.11504E-02
 -1       386 1.08218E-02 3.49163E-05-9.17836E-03
 -1       387-1.31024E-03 1.38940E-07-8.84352E-03
 -1       388-1.92689E-03 7.32793E-07-8.83932E-03
 -1       389-6.71626E-04-1.27985E-06-8.85950E-03
 -1       390-4.77386E-04 1.06974E-04-1.63980E-02
 -1       391-3.22251E-04 1.33584E-04-1.23035E-02
 -1       392-9.53009E-05 7.51595E-05-9.74409E-03
 -1       393-5.10182E-04 9.16603E-05-1.86328E-02
 -1       394-4.12207E-04 1.27449E-04-1.41646E-02
 -1       395-2.07717E-04 1.12124E-04-1.08154E-02
 -1       396-2.54949E-05 3.28722E-05-9.10585E-03
 -1       397 4.16736E-03 9.54785E-06-2.12545E-02
 -1       398 1.82721E-03 4.12179E-05-2.12494E-02
 -1       399 6.50841E-03-2.22617E-05-2.12699E-02
 -1       400 8.80365E-03-9.52599E-05-1.64273E-02
 -1       401 8.63637E-03-1.27440E-04-1.23356E-02
 -1       402 8.38972E-03-8.54700E-05-9.80233E-03
 -1       403 8.84116E-03-7.62075E-05-1.86681E-02
 -1       404 8.73337E-03-1.19179E-04-1.41920E-02
 -1       405 8.51618E-03-1.12879E-04-1.08615E-02
 -1       406 8.30090E-03-4.62598E-05-9.17634E-03
 -1       407 9.57342E-03-7.43358E-06-8.92367E-03
 -1       408 8.93626E-03-5.42538E-06-8.93686E-03
 -1       409 1.01863E-02-8.16298E-06-8.92447E-03
 -1       410 8.37895E-03 7.90615E-05-9.81366E-03
 -1       411 8.63107E-03 1.19586E-04-1.23330E-02
 -1       412 8.79430E-03 8.61141E-05-1.64222E-02
 -1       413 8.29675E-03 4.04059E-05-9.17345E-03
 -1       414 8.51113E-03 1.04466E-04-1.08615E-02
 -1       415 8.72760E-03 1.11176E-04-1.41869E-02
 -1       416 8.83386E-03 6.50823E-05-1.86631E-02
 -1       417 4.15991E-03-2.40246E-05-2.12482E-02
 -1       418 1.82073E-03-5.59739E-05-2.12443E-02
 -1       419 6.50178E-03 9.07826E-06-2.12649E-02
 -1       420-8.14486E-05-8.53911E-05-9.75125E-03
 -1       421-3.31178E-04-1.41515E-04-1.23026E-02
 -1       422-4.84446E-04-1.18637E-04-1.63947E-02
 -1       423-2.15232E-05-4.13693E-05-9.10146E-03
 -1       424-2.08852E-04-1.18966E-04-1.08148E-02
 -1       425-4.20774E-04-1.37673E-04-1.41619E-02
 -1       426-5.17456E-04-1.05414E-04-1.86283E-02
 -1       427 6.78234E-03 2.01166E-04-3.92316E-03
 -1       428 5.22838E-03 2.71267E-04-1.60469E-03
 -1       429 3.87940E-03 2.40237E-04-3.96572E-04
 -1       430 2.87310E-03 1.77401E-04 1.55755E-04
 -1       431 2.16559E-03 1.23585E-04 3.77748E-04
 -1       432 1.67689E-03 8.56918E-05 4.47697E-04
 -1       433 1.33555E-03 6.19131E-05 4.57051E-04
 -1       434 1.08946E-03 4.52246E-05 4.44883E-04
 -1       435 8.97714E-04 3.41924E-05 4.34439E-04
 -1       436 7.24504E-04 2.69653E-05 4.28247E-04
 -1       437 5.35372E-04 2.17574E-05 4.11529E-04
 -1       438 7.40289E-03 1.72746E-04-5.60015E-03
 -1       439 6.00129E-03 2.59239E-04-2.59368E-03
 -1       440 4.51607E-03 2.65866E-04-8.94465E-04
 -1       441 3.33611E-03 2.09659E-04-6.09957E-05
 -1       442 2.48853E-03 1.47730E-04 2.95510E-04
 -1       443 1.89953E-03 1.02100E-04 4.25740E-04
 -1       444 1.49179E-03 7.20846E-05 4.57575E-04
 -1       445 1.20357E-03 5.25168E-05 4.52049E-04
 -1       446 9.89044E-04 3.89474E-05 4.39148E-04
 -1       447 8.11097E-04 2.99080E-05 4.31708E-04
 -1       448 6.33971E-04 2.49747E-05 4.23705E-04
 -1       449 4.11095E-04 3.28456E-05 3.72828E-04
 -1       450 6.77031E-03-2.09213E-04-3.92613E-03
 -1       451 5.22747E-03-2.75920E-04-1.60086E-03
 -1       452 3.88017E-03-2.38308E-04-4.02891E-04
 -1       453 2.87253E-03-1.79446E-04 1.53576E-04
 -1       454 2.16567E-03-1.26110E-04 3.79098E-04
 -1       455 1.67743E-03-8.76281E-05 4.49629E-04
 -1       456 1.33721E-03-6.13053E-05 4.57873E-04
 -1       457 1.09056E-03-4.19810E-05 4.45346E-04
 -1       458 8.98654E-04-2.93671E-05 4.33843E-04
 -1       459 7.24196E-04-2.32608E-05 4.28429E-04
 -1       460 5.36127E-04-1.87392E-05 4.10684E-04
 -1       461 7.40177E-03-1.76257E-04-5.59510E-03
 -1       462 6.00478E-03-2.60384E-04-2.60188E-03
 -1       463 4.51313E-03-2.65432E-04-8.96213E-04
 -1       464 3.33700E-03-2.10701E-04-6.33201E-05
 -1       465 2.48853E-03-1.50055E-04 2.95089E-04
 -1       466 1.89976E-03-1.04882E-04 4.28024E-04
 -1       467 1.49306E-03-7.29069E-05 4.58671E-04
 -1       468 1.20465E-03-5.05204E-05 4.53130E-04
 -1       469 9.90301E-04-3.47614E-05 4.39005E-04
 -1       470 8.11711E-04-2.53310E-05 4.30964E-04
 -1       471 6.33034E-04-2.18336E-05 4.23872E-04
 -1       472 4.14723E-04-3.10956E-05 3.71782E-04
 -1       473 9.63304E-05-7.15030E-04-1.92207E-03
 -1       474 5.24304E-04-6.84722E-04-3.81252E-03
 -1       475-9.44362E-05-6.63995E-04-1.37778E-03
 -1       476 3.29462E-04-7.18701E-04-2.71148E-03
 -1       477 5.81165E-04-5.99089E-04-5.30631E-03
 -1       478-2.05385E-04-2.80014E-04-1.15915E-02
 -1       479-4.78112E-04-1.26161E-04-1.64234E-02
 -1       480 4.00942E-05-3.91885E-04-9.26446E-03
 -1       481-3.73121E-04-1.84875E-04-1.39922E-02
 -1       482-5.18837E-04-1.05326E-04-1.88245E-02
 -1       483 8.50794E-03 2.53935E-04-1.16020E-02
 -1       484 8.78773E-03 9.32930E-05-1.64423E-02
 -1       485 8.26199E-03 3.49010E-04-9.31046E-03
 -1       486 8.67936E-03 1.58441E-04-1.39971E-02
 -1       487 8.83596E-03 6.42861E-05-1.88578E-02
 -1       488 7.95063E-03 4.22212E-04-7.16069E-03
 -1       489 7.95432E-03 4.21583E-04-7.18399E-03
 -1       490 7.94701E-03 4.22845E-04-7.13747E-03
 -1       491 7.95666E-03-4.26115E-04-7.16292E-03
 -1       492 7.96036E-03-4.25602E-04-7.18618E-03
 -1       493 7.95296E-03-4.26628E-04-7.13970E-03
 -1       494 8.51849E-03-2.60651E-04-1.16044E-02
 -1       495 8.79698E-03-1.02335E-04-1.64470E-02
 -1       496 8.26800E-03-3.53511E-04-9.31214E-03
 -1       497 8.68906E-03-1.67005E-04-1.40010E-02
 -1       498 8.84291E-03-7.56407E-05-1.88625E-02
 -1       499-1.98593E-04 2.68731E-04-1.15962E-02
 -1       500-4.70410E-04 1.14472E-04-1.64270E-02
 -1       501 4.92130E-05 3.81075E-04-9.26442E-03
 -1       502-3.64589E-04 1.73265E-04-1.39957E-02
 -1       503-5.11342E-04 9.14419E-05-1.88292E-02
 -1       504 9.98979E-05 7.14616E-04-1.92155E-03
 -1       505 5.29899E-04 6.81384E-04-3.81526E-03
 -1       506-9.16923E-05 6.62546E-04-1.37731E-03
 -1       507 3.34953E-04 7.15701E-04-2.71293E-03
 -1       508 5.89491E-04 5.98101E-04-5.29911E-03
 -1       509 7.97922E-03 2.38979E-04-7.52128E-03
 -1       510 7.92898E-03 9.18418E-05-7.60253E-03
 -1       511 7.91840E-03-9.01099E-05-7.61043E-03
 -1       512 7.98685E-03-2.44674E-04-7.52095E-03
 -1       513 7.98673E-03 3.23978E-04-7.39871E-03
 -1       514 7.95749E-03 1.66437E-04-7.58620E-03
 -1       515 7.91509E-03 5.19676E-07-7.62171E-03
 -1       516 7.96066E-03-1.68990E-04-7.59232E-03
 -1       517 7.99315E-03-3.27403E-04-7.40168E-03
 -1       518 4.06463E-04-2.55778E-04-7.37731E-03
 -1       519 3.74643E-04-6.91054E-05-7.44259E-03
 -1       520 3.74434E-04 5.00155E-05-7.46608E-03
 -1       521 4.14646E-04 2.51450E-04-7.37892E-03
 -1       522 3.71543E-04-3.70976E-04-7.26141E-03
 -1       523 3.96817E-04-1.47266E-04-7.46077E-03
 -1       524 3.65995E-04-8.47917E-06-7.46195E-03
 -1       525 3.96514E-04 1.41190E-04-7.47156E-03
 -1       526 3.64384E-04 3.64114E-04-7.27367E-03
 -1       527-1.86507E-06-2.91795E-06 1.17427E-06
 -1       528-1.29788E-06-3.39321E-06 2.40394E-07
 -1       529-3.70126E-06-8.78083E-06 3.46016E-07
 -1       530-4.92657E-06-7.51574E-06 1.61869E-06
 -1       531-3.21698E-06-6.05553E-06 9.67349E-07
 -1       532-1.29474E-06 3.35885E-06 2.58280E-07
 -1       533-1.85239E-06 2.87802E-06 1.19218E-06
 -1       534-4.87510E-06 7.40352E-06 1.62866E-06
 -1       535-3.66026E-06 8.67141E-06 3.90470E-07
 -1       536-3.19426E-06 5.98130E-06 9.87245E-07
 -1       537-7.43928E-07 8.96677E-06-1.78598E-06
 -1       538-1.27809E-06 8.71481E-06-4.54499E-06
 -1       539-5.31621E-06 2.15199E-05-5.67541E-06
 -1       540-4.52656E-06 2.23404E-05-1.77956E-06
 -1       541-3.05873E-06 1.64957E-05-4.07643E-06
 -1       542-1.28236E-06-8.63634E-06-4.50448E-06
 -1       543-7.53487E-07-8.87812E-06-1.75404E-06
 -1       544-4.51469E-06-2.23685E-05-1.83704E-06
 -1       545-5.28747E-06-2.15831E-05-5.81982E-06
 -1       546-3.01385E-06-1.64863E-05-4.15815E-06
 -1       547 0.00000E+00 0.00000E+00 0.00000E+00
 -1       548 0.00000E+00 0.00000E+00 0.00000E+00
 -1       549 0.00000E+00 0.00000E+00 0.00000E+00
 -1       550 0.00000E+00 0.00000E+00 0.00000E+00
 -1       551 0.00000E+00 0.00000E+00 0.00000E+00
 -1       552 0.00000E+00 0.00000E+00 0.00000E+00
 -1       553 0.00000E+00 0.00000E+00 0.00000E+00
 -1       554 0.00000E+00 0.00000E+00 0.00000E+00
 -1       555 0.00000E+00 0.00000E+00 0.00000E+00
 -1       556 0.00000E+00 0.00000E+00 0.00000E+00
 -1       557 0.00000E+00 0.00000E+00 0.00000E+00
 -1       558 0.00000E+00 0.00000E+00 0.00000E+00
 -1       559 0.00000E+00 0.00000E+00 0.00000E+00
 -1       560 0.00000E+00 0.00000E+00 0.00000E+00
 -1       561 0.00000E+00 0.00000E+00 0.00000E+00
 -1       562 0.00000E+00 0.00000E+00 0.00000E+00
 -1       563 0.00000E+00 0.00000E+00 0.00000E+00
 -1       564 0.00000E+00 0.00000E+00 0.00000E+00
 -1       565 0.00000E+00 0.00000E+00 0.00000E+00
 -1       566 0.00000E+00 0.00000E+00 0.00000E+00
 -1       567 0.00000E+00 0.00000E+00 0.00000E+00
 -1       568 0.00000E+00 0.00000E+00 0.00000E+00
 -1       569 0.00000E+00 0.00000E+00 0.00000E+00
 -1       570 0.00000E+00 0.00000E+00 0.00000E+00
 -1       571 0.00000E+00 0.00000E+00 0.00000E+00
 -1       572 0.00000E+00 0.00000E+00 0.00000E+00
 -1       573 0.00000E+00 0.00000E+00 0.00000E+00
 -1       574 0.00000E+00 0.00000E+00 0.00000E+00
 -1       575 0.00000E+00 0.00000E+00 0.00000E+00
 -1       576 0.00000E+00 0.00000E+00 0.00000E+00
 -1       577 0.00000E+00 0.00000E+00 0.00000E+00
 -1       578 0.00000E+00 0.00000E+00 0.00000E+00
 -1       579 0.00000E+00 0.00000E+00 0.00000E+00
 -1       580 0.00000E+00 0.00000E+00 0.00000E+00
 -1       581 0.00000E+00 0.00000E+00 0.00000E+00
 -1       582 0.00000E+00 0.00000E+00 0.00000E+00
 -1       583 0.00000E+00 0.00000E+00 0.00000E+00
 -1       584 0.00000E+00 0.00000E+00 0.00000E+00
 -1       585 0.00000E+00 0.00000E+00 0.00000E+00
 -1       586 0.00000E+00 0.00000E+00 0.00000E+00
 -1       587 0.00000E+00 0.00000E+00 0.00000E+00
 -1       588 0.00000E+00 0.00000E+00 0.00000E+00
 -1       589 0.00000E+00 0.00000E+00 0.00000E+00
 -1       590 0.00000E+00 0.00000E+00 0.00000E+00
 -1       591 0.00000E+00 0.00000E+00 0.00000E+00
 -1       592 0.00000E+00 0.00000E+00 0.00000E+00
 -1       593 0.00000E+00 0.00000E+00 0.00000E+00
 -1       594 0.00000E+00 0.00000E+00 0.00000E+00
 -1       595 0.00000E+00 0.00000E+00 0.00000E+00
 -1       596 0.00000E+00 0.00000E+00 0.00000E+00
 -1       597 0.00000E+00 0.00000E+00 0.00000E+00
 -1       598 0.00000E+00 0.00000E+00 0.00000E+00
 -1       599 0.00000E+00 0.00000E+00 0.00000E+00
 -1       600 0.00000E+00 0.00000E+00 0.00000E+00
 -1       601 0.00000E+00 0.00000E+00 0.00000E+00
 -1       602 0.00000E+00 0.00000E+00 0.00000E+00
 -1       603 0.00000E+00 0.00000E+00 0.00000E+00
 -1       604 0.00000E+00 0.00000E+00 0.00000E+00
 -1       605 0.00000E+00 0.00000E+00 0.00000E+00
 -1       606 0.00000E+00 0.00000E+00 0.00000E+00
 -1       607 0.00000E+00 0.00000E+00 0.00000E+00
 -1       608 0.00000E+00 0.00000E+00 0.00000E+00
 -1       609 0.00000E+00 0.00000E+00 0.00000E+00
 -1       610 0.00000E+00 0.00000E+00 0.00000E+00
 -1       611 0.00000E+00 0.00000E+00 0.00000E+00
 -1       612 0.00000E+00 0.00000E+00 0.00000E+00
 -1       613 0.00000E+00 0.00000E+00 0.00000E+00
 -1       614 0.00000E+00 0.00000E+00 0.00000E+00
 -1       615 0.00000E+00 0.00000E+00 0.00000E+00
 -1       616 0.00000E+00 0.00000E+00 0.00000E+00
 -1       617 0.00000E+00 0.00000E+00 0.00000E+00
 -1       618 0.00000E+00 0.00000E+00 0.00000E+00
 -1       619 0.00000E+00 0.00000E+00 0.00000E+00
 -1       620 0.00000E+00 0.00000E+00 0.00000E+00
 -1       621 0.00000E+00 0.00000E+00 0.00000E+00
 -1       622 0.00000E+00 0.00000E+00 0.00000E+00
 -1       623 0.00000E+00 0.00000E+00 0.00000E+00
 -1       624 0.00000E+00 0.00000E+00 0.00000E+00
 -1       625 0.00000E+00 0.00000E+00 0.00000E+00
 -1       626 0.00000E+00 0.00000E+00 0.00000E+00
 -1       627 0.00000E+00 0.00000E+00 0.00000E+00
 -1       628 0.00000E+00 0.00000E+00 0.00000E+00
 -1       629 0.00000E+00 0.00000E+00 0.00000E+00
 -1       630 0.00000E+00 0.00000E+00 0.00000E+00
 -1       631 0.00000E+00 0.00000E+00 0.00000E+00
 -1       632 0.00000E+00 0.00000E+00 0.00000E+00
 -1       633 0.00000E+00 0.00000E+00 0.00000E+00
 -1       634 0.00000E+00 0.00000E+00 0.00000E+00
 -1       635 0.00000E+00 0.00000E+00 0.00000E+00
 -1       636 0.00000E+00 0.00000E+00 0.00000E+00
 -1       637 0.00000E+00 0.00000E+00 0.00000E+00
 -1       638 0.00000E+00 0.00000E+00 0.00000E+00
 -1       639 0.00000E+00 0.00000E+00 0.00000E+00
 -1       640 0.00000E+00 0.00000E+00 0.00000E+00
 -1       641 0.00000E+00 0.00000E+00 0.00000E+00
 -1       642 0.00000E+00 0.00000E+00 0.00000E+00
 -1       643 0.00000E+00 0.00000E+00 0.00000E+00
 -1       644 0.00000E+00 0.00000E+00 0.00000E+00
 -1       645 0.00000E+00 0.00000E+00 0.00000E+00
 -1       646 0.00000E+00 0.00000E+00 0.00000E+00
 -1       647 0.00000E+00 0.00000E+00 0.00000E+00
 -1       648 0.00000E+00 0.00000E+00 0.00000E+00
 -1       649 0.00000E+00 0.00000E+00 0.00000E+00
 -1       650 0.00000E+00 0.00000E+00 0.00000E+00
 -1       651 0.00000E+00 0.00000E+00 0.00000E+00
 -1       652 0.00000E+00 0.00000E+00 0.00000E+00
 -1       653 0.00000E+00 0.00000E+00 0.00000E+00
 -1       654 0.00000E+00 0.00000E+00 0.00000E+00
 -1       655 0.00000E+00 0.00000E+00 0.00000E+00
 -1       656 0.00000E+00 0.00000E+00 0.00000E+00
 -1       657 0.00000E+00 0.00000E+00 0.00000E+00
 -1       658 0.00000E+00 0.00000E+00 0.00000E+00
 -1       659 0.00000E+00 0.00000E+00 0.00000E+00
 -1       660 0.00000E+00 0.00000E+00 0.00000E+00
 -1       661 0.00000E+00 0.00000E+00 0.00000E+00
 -1       662 0.00000E+00 0.00000E+00 0.00000E+00
 -1       663 0.00000E+00 0.00000E+00 0.00000E+00
 -1       664 0.00000E+00 0.00000E+00 0.00000E+00
 -1       665 0.00000E+00 0.00000E+00 0.00000E+00
 -1       666 0.00000E+00 0.00000E+00 0.00000E+00
 -1       667 0.00000E+00 0.00000E+00 0.00000E+00
 -1       668 0.00000E+00 0.00000E+00 0.00000E+00
 -1       669 0.00000E+00 0.00000E+00 0.00000E+00
 -1       670 0.00000E+00 0.00000E+00 0.00000E+00
 -1       671 0.00000E+00 0.00000E+00 0.00000E+00
 -1       672 0.00000E+00 0.00000E+00 0.00000E+00
 -1       673 0.00000E+00 0.00000E+00 0.00000E+00
 -1       674 0.00000E+00 0.00000E+00 0.00000E+00
 -1       675 0.00000E+00 0.00000E+00 0.00000E+00
 -1       676 0.00000E+00 0.00000E+00 0.00000E+00
 -1       677 0.00000E+00 0.00000E+00 0.00000E+00
 -1       678 0.00000E+00 0.00000E+00 0.00000E+00
 -1       679 0.00000E+00 0.00000E+00 0.00000E+00
 -1       680 0.00000E+00 0.00000E+00 0.00000E+00
 -1       681 0.00000E+00 0.00000E+00 0.00000E+00
 -1       682 0.00000E+00 0.00000E+00 0.00000E+00
 -1       683 0.00000E+00 0.00000E+00 0.00000E+00
 -1       684 0.00000E+00 0.00000E+00 0.00000E+00
 -1       685 0.00000E+00 0.00000E+00 0.00000E+00
 -1       686 0.00000E+00 0.00000E+00 0.00000E+00
 -1       687 0.00000E+00 0.00000E+00 0.00000E+00
 -1       688 0.00000E+00 0.00000E+00 0.00000E+00
 -1       689 0.00000E+00 0.00000E+00 0.00000E+00
 -1       690 0.00000E+00 0.00000E+00 0.00000E+00
 -1       691 0.00000E+00 0.00000E+00 0.00000E+00
 -1       692 0.00000E+00 0.00000E+00 0.00000E+00
 -1       693 0.00000E+00 0.00000E+00 0.00000E+00
 -1       694 0.00000E+00 0.00000E+00 0.00000E+00
 -1       695 0.00000E+00 0.00000E+00 0.00000E+00
 -1       696 0.00000E+00 0.00000E+00 0.00000E+00
 -1       697 0.00000E+00 0.00000E+00 0.00000E+00
 -1       698 0.00000E+00 0.00000E+00 0.00000E+00
 -1       699 0.00000E+00 0.00000E+00 0.00000E+00
 -1       700 0.00000E+00 0.00000E+00 0.00000E+00
 -1       701 0.00000E+00 0.00000E+00 0.00000E+00
 -1       702 0.00000E+00 0.00000E+00 0.00000E+00
 -1       703 0.00000E+00 0.00000E+00 0.00000E+00
 -1       704 0.00000E+00 0.00000E+00 0.00000E+00
 -1       705 0.00000E+00 0.00000E+00 0.00000E+00
 -1       706 0.00000E+00 0.00000E+00 0.00000E+00
 -1       707 0.00000E+00 0.00000E+00 0.00000E+00
 -1       708 0.00000E+00 0.00000E+00 0.00000E+00
 -1       709 0.00000E+00 0.00000E+00 0.00000E+00
 -1       710 0.00000E+00 0.00000E+00 0.00000E+00
 -1       711 0.00000E+00 0.00000E+00 0.00000E+00
 -1       712 0.00000E+00 0.00000E+00 0.00000E+00
 -1       713 0.00000E+00 0.00000E+00 0.00000E+00
 -1       714 0.00000E+00 0.00000E+00 0.00000E+00
 -1       715 0.00000E+00 0.00000E+00 0.00000E+00
 -1       716 0.00000E+00 0.00000E+00 0.00000E+00
 -1       717 0.00000E+00 0.00000E+00 0.00000E+00
 -1       718 0.00000E+00 0.00000E+00 0.00000E+00
 -1       719 0.00000E+00 0.00000E+00 0.00000E+00
 -1       720 0.00000E+00 0.00000E+00 0.00000E+00
 -1       721 0.00000E+00 0.00000E+00 0.00000E+00
 -1       722 0.00000E+00 0.00000E+00 0.00000E+00
 -1       723 0.00000E+00 0.00000E+00 0.00000E+00
 -1       724 0.00000E+00 0.00000E+00 0.00000E+00
 -1       725 0.00000E+00 0.00000E+00 0.00000E+00
 -1       726 0.00000E+00 0.00000E+00 0.00000E+00
 -1       727 0.00000E+00 0.00000E+00 0.00000E+00
 -1       728 0.00000E+00 0.00000E+00 0.00000E+00
 -1       729 0.00000E+00 0.00000E+00 0.00000E+00
 -1       730 0.00000E+00 0.00000E+00 0.00000E+00
 -1       731 0.00000E+00 0.00000E+00 0.00000E+00
 -1       732 0.00000E+00 0.00000E+00 0.00000E+00
 -1       733 0.00000E+00 0.00000E+00 0.00000E+00
 -1       734 0.00000E+00 0.00000E+00 0.00000E+00
 -1       735 0.00000E+00 0.00000E+00 0.00000E+00
 -1       736 0.00000E+00 0.00000E+00 0.00000E+00
 -1       737 0.00000E+00 0.00000E+00 0.00000E+00
 -1       738 0.00000E+00 0.00000E+00 0.00000E+00
 -1       739 0.00000E+00 0.00000E+00 0.00000E+00
 -1       740 0.00000E+00 0.00000E+00 0.00000E+00
 -1       741 0.00000E+00 0.00000E+00 0.00000E+00
 -1       742 0.00000E+00 0.00000E+00 0.00000E+00
 -1       743 0.00000E+00 0.00000E+00 0.00000E+00
 -1       744 0.00000E+00 0.00000E+00 0.00000E+00
 -1       745 0.00000E+00 0.00000E+00 0.00000E+00
 -1       746 0.00000E+00 0.00000E+00 0.00000E+00
 -1       747 0.00000E+00 0.00000E+00 0.00000E+00
 -1       748 0.00000E+00 0.00000E+00 0.00000E+00
 -1       749 0.00000E+00 0.00000E+00 0.00000E+00
 -1       750 0.00000E+00 0.00000E+00 0.00000E+00
 -1       751 0.00000E+00 0.00000E+00 0.00000E+00
 -1       752 0.00000E+00 0.00000E+00 0.00000E+00
 -1       753 0.00000E+00 0.00000E+00 0.00000E+00
 -1       754 0.00000E+00 0.00000E+00 0.00000E+00
 -1       755 0.00000E+00 0.00000E+00 0.00000E+00
 -1       756 0.00000E+00 0.00000E+00 0.00000E+00
 -1       757 0.00000E+00 0.00000E+00 0.00000E+00
 -1       758 0.00000E+00 0.00000E+00 0.00000E+00
 -1       759 0.00000E+00 0.00000E+00 0.00000E+00
 -1       760 0.00000E+00 0.00000E+00 0.00000E+00
 -1       761 0.00000E+00 0.00000E+00 0.00000E+00
 -1       762 0.00000E+00 0.00000E+00 0.00000E+00
 -1       763 0.00000E+00 0.00000E+00 0.00000E+00
 -1       764 0.00000E+00 0.00000E+00 0.00000E+00
 -1       765 0.00000E+00 0.00000E+00 0.00000E+00
 -1       766 0.00000E+00 0.00000E+00 0.00000E+00
 -1       767 0.00000E+00 0.00000E+00 0.00000E+00
 -1       768 0.00000E+00 0.00000E+00 0.00000E+00
 -1       769 0.00000E+00 0.00000E+00 0.00000E+00
 -1       770 0.00000E+00 0.00000E+00 0.00000E+00
 -1       771 0.00000E+00 0.00000E+00 0.00000E+00
 -1       772 0.00000E+00 0.00000E+00 0.00000E+00
 -1       773 0.00000E+00 0.00000E+00 0.00000E+00
 -1       774 0.00000E+00 0.00000E+00 0.00000E+00
 -1       775 0.00000E+00 0.00000E+00 0.00000E+00
 -1       776 0.00000E+00 0.00000E+00 0.00000E+00
 -1       777 0.00000E+00 0.00000E+00 0.00000E+00
 -1       778 0.00000E+00 0.00000E+00 0.00000E+00
 -1       779 0.00000E+00 0.00000E+00 0.00000E+00
 -1       780 0.00000E+00 0.00000E+00 0.00000E+00
 -1       781 0.00000E+00 0.00000E+00 0.00000E+00
 -1       782 0.00000E+00 0.00000E+00 0.00000E+00
 -1       783 0.00000E+00 0.00000E+00 0.00000E+00
 -1       784 0.00000E+00 0.00000E+00 0.00000E+00
 -1       785 0.00000E+00 0.00000E+00 0.00000E+00
 -1       786 0.00000E+00 0.00000E+00 0.00000E+00
 -1       787 0.00000E+00 0.00000E+00 0.00000E+00
 -1       788 0.00000E+00 0.00000E+00 0.00000E+00
 -1       789 0.00000E+00 0.00000E+00 0.00000E+00
 -1       790 0.00000E+00 0.00000E+00 0.00000E+00
 -1       791 0.00000E+00 0.00000E+00 0.00000E+00
 -1       792 0.00000E+00 0.00000E+00 0.00000E+00
 -1       793 0.00000E+00 0.00000E+00 0.00000E+00
 -1       794 0.00000E+00 0.00000E+00 0.00000E+00
 -1       795 0.00000E+00 0.00000E+00 0.00000E+00
 -1       796 0.00000E+00 0.00000E+00 0.00000E+00
 -1       797 0.00000E+00 0.00000E+00 0.00000E+00
 -1       798 0.00000E+00 0.00000E+00 0.00000E+00
 -1       799 0.00000E+00 0.00000E+00 0.00000E+00
 -1       800 0.00000E+00 0.00000E+00 0.00000E+00
 -1       801 0.00000E+00 0.00000E+00 0.00000E+00
 -1       802 0.00000E+00 0.00000E+00 0.00000E+00
 -1       803 0.00000E+00 0.00000E+00 0.00000E+00
 -1       804 0.00000E+00 0.00000E+00 0.00000E+00
 -1       805 0.00000E+00 0.00000E+00 0.00000E+00
 -1       806 0.00000E+00 0.00000E+00 0.00000E+00
 -1       807 0.00000E+00 0.00000E+00 0.00000E+00
 -1       808 0.00000E+00 0.00000E+00 0.00000E+00
 -1       809 0.00000E+00 0.00000E+00 0.00000E+00
 -1       810 0.00000E+00 0.00000E+00 0.00000E+00
 -1       811 0.00000E+00 0.00000E+00 0.00000E+00
 -1       812 0.00000E+00 0.00000E+00 0.00000E+00
 -1       813 0.00000E+00 0.00000E+00 0.00000E+00
 -1       814 0.00000E+00 0.00000E+00 0.00000E+00
 -1       815 0.00000E+00 0.00000E+00 0.00000E+00
 -1       816 0.00000E+00 0.00000E+00 0.00000E+00
 -1       817 0.00000E+00 0.00000E+00 0.00000E+00
 -1       818 0.00000E+00 0.00000E+00 0.00000E+00
 -1       819 0.00000E+00 0.00000E+00 0.00000E+00
 -1       820 0.00000E+00 0.00000E+00 0.00000E+00
 -1       821 0.00000E+00 0.00000E+00 0.00000E+00
 -1       822 0.00000E+00 0.00000E+00 0.00000E+00
 -1       823 0.00000E+00 0.00000E+00 0.00000E+00
 -1       824 0.00000E+00 0.00000E+00 0.00000E+00
 -1       825 0.00000E+00 0.00000E+00 0.00000E+00
 -1       826 0.00000E+00 0.00000E+00 0.00000E+00
 -1       827 0.00000E+00 0.00000E+00 0.00000E+00
 -1       828 0.00000E+00 0.00000E+00 0.00000E+00
 -1       829 0.00000E+00 0.00000E+00 0.00000E+00
 -1       830 0.00000E+00 0.00000E+00 0.00000E+00
 -1       831 0.00000E+00 0.00000E+00 0.00000E+00
 -1       832 0.00000E+00 0.00000E+00 0.00000E+00
 -1       833 0.00000E+00 0.00000E+00 0.00000E+00
 -1       834 0.00000E+00 0.00000E+00 0.00000E+00
 -1       835 0.00000E+00 0.00000E+00 0.00000E+00
 -1       836 0.00000E+00 0.00000E+00 0.00000E+00
 -1       837 0.00000E+00 0.00000E+00 0.00000E+00
 -1       838 0.00000E+00 0.00000E+00 0.00000E+00
 -1       839 0.00000E+00 0.00000E+00 0.00000E+00
 -1       840 0.00000E+00 0.00000E+00 0.00000E+00
 -1       841 0.00000E+00 0.00000E+00 0.00000E+00
 -1       842 0.00000E+00 0.00000E+00 0.00000E+00
 -1       843 0.00000E+00 0.00000E+00 0.00000E+00
 -1       844 0.00000E+00 0.00000E+00 0.00000E+00
 -1       845 0.00000E+00 0.00000E+00 0.00000E+00
 -1       846 0.00000E+00 0.00000E+00 0.00000E+00
 -1       847 0.00000E+00 0.00000E+00 0.00000E+00
 -1       848 0.00000E+00 0.00000E+00 0.00000E+00
 -1       849 0.00000E+00 0.00000E+00 0.00000E+00
 -1       850 0.00000E+00 0.00000E+00 0.00000E+00
 -1       851 0.00000E+00 0.00000E+00 0.00000E+00
 -1       852 0.00000E+00 0.00000E+00 0.00000E+00
 -1       853 0.00000E+00 0.00000E+00 0.00000E+00
 -1       854 0.00000E+00 0.00000E+00 0.00000E+00
 -1       855 0.00000E+00 0.00000E+00 0.00000E+00
 -1       856 0.00000E+00 0.00000E+00 0.00000E+00
 -1       857 0.00000E+00 0.00000E+00 0.00000E+00
 -1       858 0.00000E+00 0.00000E+00 0.00000E+00
 -1       859 0.00000E+00 0.00000E+00 0.00000E+00
 -1       860 0.00000E+00 0.00000E+00 0.00000E+00
 -1       861 0.00000E+00 0.00000E+00 0.00000E+00
 -1       862 0.00000E+00 0.00000E+00 0.00000E+00
 -1       863 0.00000E+00 0.00000E+00 0.00000E+00
 -1       864 0.00000E+00 0.00000E+00 0.00000E+00
 -1       865 0.00000E+00 0.00000E+00 0.00000E+00
 -1       866 0.00000E+00 0.00000E+00 0.00000E+00
 -1       867 0.00000E+00 0.00000E+00 0.00000E+00
 -1       868 0.00000E+00 0.00000E+00 0.00000E+00
 -1       869 0.00000E+00 0.00000E+00 0.00000E+00
 -1       870 0.00000E+00 0.00000E+00 0.00000E+00
 -1       871 0.00000E+00 0.00000E+00 0.00000E+00
 -1       872 0.00000E+00 0.00000E+00 0.00000E+00
 -1       873 0.00000E+00 0.00000E+00 0.00000E+00
 -1       874 0.00000E+00 0.00000E+00 0.00000E+00
 -1       875 0.00000E+00 0.00000E+00 0.00000E+00
 -1       876 0.00000E+00 0.00000E+00 0.00000E+00
 -1       877 0.00000E+00 0.00000E+00 0.00000E+00
 -1       878 0.00000E+00 0.00000E+00 0.00000E+00
 -1       879 0.00000E+00 0.00000E+00 0.00000E+00
 -1       880 0.00000E+00 0.00000E+00 0.00000E+00
 -1       881 0.00000E+00 0.00000E+00 0.00000E+00
 -1       882 0.00000E+00 0.00000E+00 0.00000E+00
 -1       883 0.00000E+00 0.00000E+00 0.00000E+00
 -1       884 0.00000E+00 0.00000E+00 0.00000E+00
 -1       885 0.00000E+00 0.00000E+00 0.00000E+00
 -1       886 0.00000E+00 0.00000E+00 0.00000E+00
 -1       887 0.00000E+00 0.00000E+00 0.00000E+00
 -1       888 0.00000E+00 0.00000E+00 0.00000E+00
 -1       889 0.00000E+00 0.00000E+00 0.00000E+00
 -1       890 0.00000E+00 0.00000E+00 0.00000E+00
 -1       891 0.00000E+00 0.00000E+00 0.00000E+00
 -1       892 0.00000E+00 0.00000E+00 0.00000E+00
 -1       893 0.00000E+00 0.00000E+00 0.00000E+00
 -1       894 0.00000E+00 0.00000E+00 0.00000E+00
 -1       895 0.00000E+00 0.00000E+00 0.00000E+00
 -1       896 0.00000E+00 0.00000E+00 0.00000E+00
 -1       897 0.00000E+00 0.00000E+00 0.00000E+00
 -1       898 0.00000E+00 0.00000E+00 0.00000E+00
 -1       899 0.00000E+00 0.00000E+00 0.00000E+00
 -1       900 0.00000E+00 0.00000E+00 0.00000E+00
 -1       901 0.00000E+00 0.00000E+00 0.00000E+00
 -1       902 0.00000E+00 0.00000E+00 0.00000E+00
 -1       903 0.00000E+00 0.00000E+00 0.00000E+00
 -1       904 0.00000E+00 0.00000E+00 0.00000E+00
 -1       905 0.00000E+00 0.00000E+00 0.00000E+00
 -1       906 0.00000E+00 0.00000E+00 0.00000E+00
 -1       907 0.00000E+00 0.00000E+00 0.00000E+00
 -1       908 0.00000E+00 0.00000E+00 0.00000E+00
 -1       909 0.00000E+00 0.00000E+00 0.00000E+00
 -1       910 0.00000E+00 0.00000E+00 0.00000E+00
 -1       911 0.00000E+00 0.00000E+00 0.00000E+00
 -1       912 0.00000E+00 0.00000E+00 0.00000E+00
 -1       913 0.00000E+00 0.00000E+00 0.00000E+00
 -1       914 0.00000E+00 0.00000E+00 0.00000E+00
 -1       915 0.00000E+00 0.00000E+00 0.00000E+00
 -1       916 0.00000E+00 0.00000E+00 0.00000E+00
 -1       917 0.00000E+00 0.00000E+00 0.00000E+00
 -1       918 0.00000E+00 0.00000E+00 0.00000E+00
 -1       919 0.00000E+00 0.00000E+00 0.00000E+00
 -1       920 0.00000E+00 0.00000E+00 0.00000E+00
 -1       921 0.00000E+00 0.00000E+00 0.00000E+00
 -1       922 0.00000E+00 0.00000E+00 0.00000E+00
 -1       923 0.00000E+00 0.00000E+00 0.00000E+00
 -1       924 0.00000E+00 0.00000E+00 0.00000E+00
 -1       925 0.00000E+00 0.00000E+00 0.00000E+00
 -1       926 0.00000E+00 0.00000E+00 0.00000E+00
 -1       927 0.00000E+00 0.00000E+00 0.00000E+00
 -1       928 0.00000E+00 0.00000E+00 0.00000E+00
 -1       929 0.00000E+00 0.00000E+00 0.00000E+00
 -1       930 0.00000E+00 0.00000E+00 0.00000E+00
 -1       931 0.00000E+00 0.00000E+00 0.00000E+00
 -1       932 0.00000E+00 0.00000E+00 0.00000E+00
 -1       933 0.00000E+00 0.00000E+00 0.00000E+00
 -1       934 0.00000E+00 0.00000E+00 0.00000E+00
 -1       935 0.00000E+00 0.00000E+00 0.00000E+00
 -1       936 0.00000E+00 0.00000E+00 0.00000E+00
 -1       937 0.00000E+00 0.00000E+00 0.00000E+00
 -1       938 0.00000E+00 0.00000E+00 0.00000E+00
 -1       939 0.00000E+00 0.00000E+00 0.00000E+00
 -1       940 0.00000E+00 0.00000E+00 0.00000E+00
 -1       941 0.00000E+00 0.00000E+00 0.00000E+00
 -1       942 0.00000E+00 0.00000E+00 0.00000E+00
 -1       943 0.00000E+00 0.00000E+00 0.00000E+00
 -1       944 0.00000E+00 0.00000E+00 0.00000E+00
 -1       945 0.00000E+00 0.00000E+00 0.00000E+00
 -1       946 0.00000E+00 0.00000E+00 0.00000E+00
 -1       947 0.00000E+00 0.00000E+00 0.00000E+00
 -1       948 0.00000E+00 0.00000E+00 0.00000E+00
 -1       949 0.00000E+00 0.00000E+00 0.00000E+00
 -1       950 0.00000E+00 0.00000E+00 0.00000E+00
 -1       951 0.00000E+00 0.00000E+00 0.00000E+00
 -1       952 0.00000E+00 0.00000E+00 0.00000E+00
 -1       953 0.00000E+00 0.00000E+00 0.00000E+00
 -1       954 0.00000E+00 0.00000E+00 0.00000E+00
 -1       955 0.00000E+00 0.00000E+00 0.00000E+00
 -1       956 0.00000E+00 0.00000E+00 0.00000E+00
 -1       957 0.00000E+00 0.00000E+00 0.00000E+00
 -1       958 0.00000E+00 0.00000E+00 0.00000E+00
 -1       959 0.00000E+00 0.00000E+00 0.00000E+00
 -1       960 0.00000E+00 0.00000E+00 0.00000E+00
 -1       961 0.00000E+00 0.00000E+00 0.00000E+00
 -1       962 0.00000E+00 0.00000E+00 0.00000E+00
 -1       963 0.00000E+00 0.00000E+00 0.00000E+00
 -1       964 0.00000E+00 0.00000E+00 0.00000E+00
 -1       965 0.00000E+00 0.00000E+00 0.00000E+00
 -1       966 0.00000E+00 0.00000E+00 0.00000E+00
 -1       967 0.00000E+00 0.00000E+00 0.00000E+00
 -1       968 0.00000E+00 0.00000E+00 0.00000E+00
 -1       969 0.00000E+00 0.00000E+00 0.00000E+00
 -1       970 0.00000E+00 0.00000E+00 0.00000E+00
 -1       971 0.00000E+00 0.00000E+00 0.00000E+00
 -1       972 0.00000E+00 0.00000E+00 0.00000E+00
 -1       973 0.00000E+00 0.00000E+00 0.00000E+00
 -1       974 0.00000E+00 0.00000E+00 0.00000E+00
 -1       975 0.00000E+00 0.00000E+00 0.00000E+00
 -1       976 0.00000E+00 0.00000E+00 0.00000E+00
 -1       977 0.00000E+00 0.00000E+00 0.00000E+00
 -1       978 0.00000E+00 0.00000E+00 0.00000E+00
 -1       979 0.00000E+00 0.00000E+00 0.00000E+00
 -1       980 0.00000E+00 0.00000E+00 0.00000E+00
 -1       981 0.00000E+00 0.00000E+00 0.00000E+00
 -1       982 0.00000E+00 0.00000E+00 0.00000E+00
 -1       983 0.00000E+00 0.00000E+00 0.00000E+00
 -1       984 0.00000E+00 0.00000E+00 0.00000E+00
 -1       985 0.00000E+00 0.00000E+00 0.00000E+00
 -1       986 0.00000E+00 0.00000E+00 0.00000E+00
 -1       987 0.00000E+00 0.00000E+00 0.00000E+00
 -1       988 0.00000E+00 0.00000E+00 0.00000E+00
 -1       989 0.00000E+00 0.00000E+00 0.00000E+00
 -1       990 0.00000E+00 0.00000E+00 0.00000E+00
 -1       991 0.00000E+00 0.00000E+00 0.00000E+00
 -1       992 0.00000E+00 0.00000E+00 0.00000E+00
 -1       993 0.00000E+00 0.00000E+00 0.00000E+00
 -1       994 0.00000E+00 0.00000E+00 0.00000E+00
 -1       995 0.00000E+00 0.00000E+00 0.00000E+00
 -1       996 0.00000E+00 0.00000E+00 0.00000E+00
 -1       997 0.00000E+00 0.00000E+00 0.00000E+00
 -1       998 0.00000E+00 0.00000E+00 0.00000E+00
 -1       999 0.00000E+00 0.00000E+00 0.00000E+00
 -1      1000 0.00000E+00 0.00000E+00 0.00000E+00
 -1      1001 0.00000E+00 0.00000E+00 0.00000E+00
 -1      1002 0.00000E+00 0.00000E+00 0.00000E+00
 -1      1003 0.00000E+00 0.00000E+00 0.00000E+00
 -1      1004 0.00000E+00 0.00000E+00 0.00000E+00
 -1      1005 0.00000E+00 0.00000E+00 0.00000E+00
 -1      1006 0.00000E+00 0.00000E+00 0.00000E+00
 -1      1007 0.00000E+00 0.00000E+00 0.00000E+00
 -1      1008 0.00000E+00 0.00000E+00 0.00000E+00
 -1      1009 0.00000E+00 0.00000E+00 0.00000E+00
 -1      1010 0.00000E+00 0.00000E+00 0.00000E+00
 -1      1011 0.00000E+00 0.00000E+00 0.00000E+00
 -1      1012 0.00000E+00 0.00000E+00 0.00000E+00
 -1      1013 0.00000E+00 0.00000E+00 0.00000E+00
 -1      1014 0.00000E+00 0.00000E+00 0.00000E+00
 -1      1015 0.00000E+00 0.00000E+00 0.00000E+00
 -1      1016 0.00000E+00 0.00000E+00 0.00000E+00
 -1      1017 0.00000E+00 0.00000E+00 0.00000E+00
 -1      1018 0.00000E+00 0.00000E+00 0.00000E+00
 -1      1019 0.00000E+00 0.00000E+00 0.00000E+00
 -1      1020-5.50584E-06 9.17390E-06-4.07676E-06
 -1      1021-4.93295E-06 2.73953E-06-1.39755E-06
 -1      1022-4.92151E-06 1.19044E-05-5.49813E-06
 -1      1023-4.64508E-06-6.11055E-07 3.60254E-07
 -1      1024-5.42111E-06 5.90806E-06-2.90371E-06
 -1      1025-5.27627E-06 1.64826E-05-6.39296E-06
 -1      1026-3.40866E-06-2.11893E-06 9.63387E-07
 -1      1027-2.77814E-06 9.21369E-06-5.11893E-06
 -1      1028-5.12253E-06-4.02755E-06 1.42916E-06
 -1      1029-3.68843E-06-3.42123E-06 1.47395E-06
 -1      1030-1.75963E-06-1.59936E-06 1.05238E-06
 -1      1031-1.90388E-06-8.97384E-07 5.19205E-07
 -1      1032-5.51922E-06-5.93563E-06 1.68315E-06
 -1      1033-4.58361E-06-4.59757E-06 1.68747E-06
 -1      1034-5.67632E-06-3.71799E-06 1.17451E-06
 -1      1035-1.27399E-06 5.00126E-06-3.21378E-06
 -1      1036-3.26854E-06 1.25767E-05-6.16971E-06
 -1      1037-1.51409E-06 4.62316E-06-2.98083E-06
 -1      1038-4.56215E-06 1.61796E-05-6.64463E-06
 -1      1039-5.95448E-06 2.10051E-05-6.46413E-06
 -1      1040-6.35458E-06 1.94212E-05-6.25232E-06
 -1      1041-4.39354E-06-3.07366E-06 1.23586E-06
 -1      1042-4.11944E-06 1.32101E-05-6.05561E-06
 -1      1043-2.64543E-06-6.25534E-07 3.63282E-07
 -1      1044-2.76708E-06 2.07305E-07-1.07324E-07
 -1      1045-4.05323E-06-1.49347E-06 6.73770E-07
 -1      1046-2.74069E-06 1.11169E-06-7.42744E-07
 -1      1047-2.89873E-06 1.87694E-06-1.16214E-06
 -1      1048-4.79347E-06 1.13556E-06-5.76998E-07
 -1      1049-2.98643E-06 2.78330E-06-1.74081E-06
 -1      1050-3.11268E-06 3.43935E-06-2.03654E-06
 -1      1051-5.16258E-06 4.26686E-06-2.11572E-06
 -1      1052-3.24872E-06 4.61401E-06-2.79658E-06
 -1      1053-3.21411E-06 5.28007E-06-2.94524E-06
 -1      1054-5.48039E-06 7.59103E-06-3.52845E-06
 -1      1055-2.94546E-06 5.99531E-06-3.63859E-06
 -1      1056-2.71924E-06 6.78896E-06-4.05745E-06
 -1      1057-5.30054E-06 1.06714E-05-4.85282E-06
 -1      1058-3.98084E-06 1.09199E-05-5.53603E-06
 -1      1059-5.72842E-06 4.50068E-07-1.24099E-07
 -1      1060-5.62008E-06-1.67754E-06 6.06117E-07
 -1      1061-4.92140E-06-2.16035E-06 8.98820E-07
 -1      1062-6.19892E-06 4.80126E-06-1.77306E-06
 -1      1063-5.96099E-06 2.68023E-06-1.02716E-06
 -1      1064-6.74836E-06 9.01143E-06-3.24917E-06
 -1      1065-6.46789E-06 6.89374E-06-2.56321E-06
 -1      1066-6.88529E-06 1.33614E-05-4.50970E-06
 -1      1067-6.89169E-06 1.12090E-05-3.91518E-06
 -1      1068-6.35839E-06 1.71075E-05-5.88160E-06
 -1      1069-6.68160E-06 1.53047E-05-5.27058E-06
 -1      1070-5.15198E-06 1.41869E-05-6.00978E-06
 -1      1071-4.97089E-06-1.18460E-05-5.58261E-06
 -1      1072-5.15606E-06-5.72364E-06-2.83588E-06
 -1      1073-4.16572E-06 5.00444E-07 2.73319E-07
 -1      1074-5.39268E-06-8.95698E-06-4.10813E-06
 -1      1075-4.73590E-06-2.73500E-06-1.39620E-06
 -1      1076-5.26463E-06-1.65225E-05-6.55519E-06
 -1      1077-4.77058E-06 3.08295E-06 1.22636E-06
 -1      1078-2.78659E-06-9.32064E-06-5.39399E-06
 -1      1079-2.76987E-06 1.84915E-06 1.01857E-06
 -1      1080-1.39813E-06 1.24276E-06 7.45251E-07
 -1      1081-3.36143E-06 3.19084E-06 1.48516E-06
 -1      1082-1.52230E-06 7.56161E-07 5.07205E-07
 -1      1083-4.34961E-06 4.03533E-06 1.59920E-06
 -1      1084-5.38835E-06 5.36522E-06 1.64335E-06
 -1      1085-5.55744E-06 3.18956E-06 1.08284E-06
 -1      1086-3.30925E-06-1.26398E-05-6.31944E-06
 -1      1087-1.21439E-06-5.27448E-06-3.85609E-06
 -1      1088-1.54391E-06-4.86777E-06-3.27490E-06
 -1      1089-5.95921E-06-2.11107E-05-6.66226E-06
 -1      1090-4.55629E-06-1.62277E-05-6.80017E-06
 -1      1091-6.34131E-06-1.95095E-05-6.41572E-06
 -1      1092-3.87553E-06 2.56042E-06 1.17782E-06
 -1      1093-4.11025E-06-1.32119E-05-6.21802E-06
 -1      1094-2.56837E-06-2.79182E-07-1.42904E-07
 -1      1095-2.42345E-06 5.43580E-07 3.37552E-07
 -1      1096-3.52875E-06 1.35657E-06 7.13120E-07
 -1      1097-2.83229E-06-1.91664E-06-1.25822E-06
 -1      1098-2.69517E-06-1.13993E-06-7.27887E-07
 -1      1099-4.45720E-06-1.10036E-06-5.70426E-07
 -1      1100-3.03049E-06-3.50187E-06-2.27016E-06
 -1      1101-2.89010E-06-2.60492E-06-1.66233E-06
 -1      1102-4.95772E-06-4.24044E-06-2.13047E-06
 -1      1103-3.09876E-06-5.05369E-06-2.91674E-06
 -1      1104-3.07659E-06-4.26199E-06-2.56292E-06
 -1      1105-5.31847E-06-7.36852E-06-3.55035E-06
 -1      1106-2.67162E-06-6.52462E-06-3.76506E-06
 -1      1107-2.95160E-06-5.97779E-06-3.69196E-06
 -1      1108-5.23589E-06-1.04938E-05-4.89904E-06
 -1      1109-3.90064E-06-1.09181E-05-5.63507E-06
 -1      1110-5.50049E-06 1.53780E-06 5.78283E-07
 -1      1111-5.68210E-06-5.23385E-07-2.15368E-07
 -1      1112-4.51484E-06 1.66830E-06 7.52662E-07
 -1      1113-5.93947E-06-2.71893E-06-1.03943E-06
 -1      1114-6.20530E-06-4.81964E-06-1.80394E-06
 -1      1115-6.44423E-06-6.88195E-06-2.53981E-06
 -1      1116-6.66787E-06-9.03680E-06-3.31034E-06
 -1      1117-6.81761E-06-1.11744E-05-3.98082E-06
 -1      1118-6.80343E-06-1.33196E-05-4.71986E-06
 -1      1119-6.65477E-06-1.52985E-05-5.41319E-06
 -1      1120-6.34854E-06-1.71900E-05-6.02881E-06
 -1      1121-5.15467E-06-1.42099E-05-6.14168E-06
 -1      1122 1.67010E-04-3.49169E-05 2.08115E-04
 -1      1123 9.63978E-05 6.93131E-05 1.01826E-04
 -1      1124 1.94076E-06 1.19845E-05 4.16569E-07
 -1      1125 2.02686E-06-1.22236E-05 4.61516E-07
 -1      1126 3.64284E-05-4.70563E-05 2.47412E-05
 -1      1127 1.14600E-05 2.46535E-05 5.42356E-06
 -1      1128 9.81615E-05-6.75887E-05 9.88595E-05
 -1      1129 1.07294E-05-2.37598E-05 4.92435E-06
 -1      1130 3.75576E-05 4.77318E-05 2.74015E-05
 -1      1131 1.63138E-04 3.71112E-05 1.98792E-04
 -1      1132 8.86932E-05 3.66245E-07 1.14436E-04
 -1      1133-2.78929E-07 6.56649E-06-1.64476E-07
 -1      1134-3.60044E-07-6.52531E-06-2.73093E-07
 -1      1135 7.58515E-05-4.06805E-05 9.06846E-05
 -1      1136 7.23774E-05 3.75013E-05 8.71101E-05
 -1      1137-1.14965E-06-9.69916E-06-7.91547E-07
 -1      1138-1.04450E-06 9.62169E-06-6.71032E-07
 -1      1139-3.77903E-07-3.00716E-06-1.42444E-07
 -1      1140-1.15432E-06-6.53090E-06-4.22787E-07
 -1      1141 3.76700E-08-3.85200E-06 6.05630E-08
 -1      1142-1.70675E-06-8.18555E-06-5.40345E-07
 -1      1143-2.33680E-06-1.00330E-05-7.07865E-07
 -1      1144-7.71875E-07-1.13943E-05-1.18943E-06
 -1      1145-1.12734E-06 6.49669E-06-3.48720E-07
 -1      1146-3.83106E-07 3.02186E-06-1.18194E-07
 -1      1147 3.61251E-08 3.97967E-06 1.45212E-07
 -1      1148-2.25244E-06 9.94245E-06-6.29850E-07
 -1      1149-1.67981E-06 8.09233E-06-4.52168E-07
 -1      1150-6.32741E-07 1.12826E-05-1.04122E-06
 -1      1151 1.00926E-04-6.18286E-05 7.79688E-05
 -1      1152 1.61162E-04-7.11183E-05 1.66953E-04
 -1      1153 2.16090E-04-4.56845E-05 2.49789E-04
 -1      1154 2.35787E-04-1.47097E-05 2.77003E-04
 -1      1155 1.39294E-04-5.99816E-05 1.61238E-04
 -1      1156 1.59066E-04 7.28101E-05 1.66806E-04
 -1      1157 1.00057E-04 6.21313E-05 7.69474E-05
 -1      1158 2.32122E-04 1.61939E-05 2.72768E-04
 -1      1159 2.12449E-04 4.81899E-05 2.44843E-04
 -1      1160 1.32258E-04 6.18382E-05 1.55749E-04
 -1      1161-7.37194E-07-8.35161E-06-5.52506E-07
 -1      1162-6.45227E-07 8.33626E-06-4.32335E-07
 -1      1163 7.62271E-07 6.44213E-06 5.85638E-07
 -1      1164 2.28680E-06 8.95941E-06 1.44509E-06
 -1      1165 6.04359E-07 8.94403E-06 1.27174E-07
 -1      1166 5.14717E-06 1.36202E-05 3.62585E-06
 -1      1167 9.67420E-06 1.95743E-05 7.10281E-06
 -1      1168 5.34314E-06 1.71332E-05 1.99900E-06
 -1      1169 1.76563E-05 2.83360E-05 1.46165E-05
 -1      1170 2.86867E-05 3.70271E-05 2.67857E-05
 -1      1171 2.12939E-05 3.50312E-05 1.23957E-05
 -1      1172 3.33752E-05 2.59120E-05 3.66091E-05
 -1      1173 4.04959E-05 1.88203E-05 4.48686E-05
 -1      1174 6.21740E-05 6.08413E-05 5.39621E-05
 -1      1175 4.97111E-05 4.64032E-05 5.26191E-05
 -1      1176 9.04404E-05 5.79168E-05 1.04506E-04
 -1      1177 4.99695E-05 8.66470E-06 5.62591E-05
 -1      1178 5.01014E-05-8.69397E-06 5.63030E-05
 -1      1179 8.44336E-05 2.13812E-05 1.05404E-04
 -1      1180 4.25711E-05-2.01989E-05 4.64068E-05
 -1      1181 3.63664E-05-2.87939E-05 3.80336E-05
 -1      1182 8.64312E-05-2.16855E-05 1.08286E-04
 -1      1183 2.93038E-05-3.82335E-05 2.64255E-05
 -1      1184 1.71033E-05-2.85378E-05 1.39945E-05
 -1      1185 4.68234E-05-4.58960E-05 4.85573E-05
 -1      1186 6.30835E-05-5.95404E-05 5.35746E-05
 -1      1187 9.13261E-05-5.78496E-05 1.03866E-04
 -1      1188 9.97540E-06-2.00147E-05 7.12295E-06
 -1      1189 4.88984E-06-1.33880E-05 3.30798E-06
 -1      1190 2.12102E-05-3.46569E-05 1.22698E-05
 -1      1191 2.54020E-06-9.50359E-06 1.55891E-06
 -1      1192 8.01919E-07-6.64961E-06 5.54319E-07
 -1      1193 5.61282E-06-1.73269E-05 2.22876E-06
 -1      1194 4.53773E-07-9.02213E-06 2.63158E-08
 -1      1195 3.40071E-05-3.92281E-05 1.46782E-05
 -1      1196 5.79612E-05-5.25891E-05 3.58851E-05
 -1      1197 1.01421E-05-2.25872E-05 1.98805E-06
 -1      1198 1.84754E-05-3.03005E-05 5.47605E-06
 -1      1199 1.06507E-06-1.30210E-05-8.09136E-07
 -1      1200 4.19441E-06-1.69204E-05-7.37363E-08
 -1      1201 2.48403E-07-1.06526E-05-4.24235E-07
 -1      1202 4.19514E-06 1.65306E-05-2.27437E-07
 -1      1203 1.16487E-06 1.27943E-05-7.39079E-07
 -1      1204 3.42129E-07 1.05136E-05-3.62128E-07
 -1      1205 1.88973E-05 3.01191E-05 5.52337E-06
 -1      1206 1.00151E-05 2.25015E-05 1.69355E-06
 -1      1207 5.91961E-05 5.39200E-05 3.66385E-05
 -1      1208 3.47953E-05 4.01790E-05 1.62950E-05
 -1      1209 1.72720E-04 7.09752E-07 2.16855E-04
 -1      1210 1.18278E-04-4.15973E-05 1.46579E-04
 -1      1211 1.28531E-04-1.57209E-05 1.64199E-04
 -1      1212 1.25951E-04 1.65228E-05 1.59603E-04
 -1      1213 1.13497E-04 4.12704E-05 1.39201E-04
 -1      1214 1.55630E-04-1.44552E-06-6.83938E-04
 -1      1215 4.50292E-05 4.16578E-05-1.43138E-04
 -1      1216 4.54269E-05-4.01535E-05-1.42518E-04
 -1      1217-1.80458E-05-2.01655E-04-4.19108E-04
 -1      1218-1.65645E-05 2.00068E-04-4.19294E-04
 -1      1219 9.35343E-06 6.39330E-05-4.31943E-05
 -1      1220 8.69554E-06-6.45738E-05-4.51460E-05
 -1      1221 2.73667E-05 6.35384E-05-1.14643E-04
 -1      1222 2.56022E-05-6.33071E-05-1.13832E-04
 -1      1223 1.10036E-07-3.23838E-05-9.31128E-07
 -1      1224-2.09312E-07 3.15953E-05-2.77071E-07
 -1      1225 5.53130E-05-9.48717E-08-1.53226E-04
 -1      1226 7.79034E-05-4.26085E-05-3.48200E-04
 -1      1227 7.61839E-05 4.39742E-05-3.47472E-04
 -1      1228 9.31383E-05 1.73284E-04-6.44081E-04
 -1      1229 9.43727E-05-1.71186E-04-6.38483E-04
 -1      1230 4.22353E-05 9.48810E-05-2.81086E-04
 -1      1231 4.22272E-05-9.53179E-05-2.80713E-04
 -1      1232-1.07563E-07-1.78855E-05 1.60582E-06
 -1      1233-2.35681E-07 1.77289E-05 1.62615E-06
 -1      1234-3.19234E-05-3.46441E-04-6.80694E-04
 -1      1235-2.44621E-05 3.44997E-04-6.83482E-04
 -1      1236-3.33759E-06-2.38687E-05 3.49413E-06
 -1      1237-3.33498E-06 2.38531E-05 3.29923E-06
 -1      1238-1.32723E-06 1.70688E-05 1.42502E-06
 -1      1239-1.20653E-08 8.28108E-06 3.08047E-07
 -1      1240 4.16912E-07 1.17670E-05-1.04315E-07
 -1      1241-4.51547E-06 2.45955E-05 2.25383E-06
 -1      1242-2.70303E-06 2.07858E-05 1.78884E-06
 -1      1243-4.31632E-06 2.60647E-05 4.50802E-06
 -1      1244 6.61870E-09-8.28109E-06 3.07726E-07
 -1      1245-1.30199E-06-1.71313E-05 1.44535E-06
 -1      1246 5.21404E-07-1.18333E-05-1.77421E-07
 -1      1247-2.67798E-06-2.07988E-05 1.85699E-06
 -1      1248-4.54726E-06-2.46241E-05 2.35267E-06
 -1      1249-4.47166E-06-2.60156E-05 4.75204E-06
 -1      1250 1.01192E-05 8.57847E-05-1.06445E-04
 -1      1251-2.32822E-06 5.38702E-05-3.17678E-05
 -1      1252-7.36800E-05 2.76974E-04-4.66306E-04
 -1      1253-2.58423E-05 1.50825E-04-3.21653E-04
 -1      1254 1.87853E-05 1.34196E-04-3.42831E-04
 -1      1255 3.96663E-06 1.08944E-04-2.68593E-04
 -1      1256 1.53671E-05 8.43453E-05-1.72189E-04
 -1      1257 1.79498E-05 7.04390E-05-8.91272E-05
 -1      1258 3.02654E-05 7.53413E-05-1.91266E-04
 -1      1259-8.64823E-05 4.57330E-04-8.24506E-04
 -1      1260-9.92617E-05 3.64041E-04-6.05696E-04
 -1      1261 4.60354E-05 3.63301E-04-8.73126E-04
 -1      1262-9.27400E-05-4.59907E-04-8.23295E-04
 -1      1263 3.82069E-05-3.64166E-04-8.76223E-04
 -1      1264-1.04396E-04-3.64925E-04-6.04011E-04
 -1      1265-2.77419E-05-1.52619E-04-3.20534E-04
 -1      1266-7.68229E-05-2.78633E-04-4.65736E-04
 -1      1267-1.28102E-07-5.43167E-05-3.33876E-05
 -1      1268 7.23952E-06-8.37694E-05-1.09090E-04
 -1      1269 3.45231E-06-1.10707E-04-2.67226E-04
 -1      1270 1.83113E-05-1.35216E-04-3.42396E-04
 -1      1271 1.61851E-05-7.00201E-05-8.49606E-05
 -1      1272 1.66084E-05-8.39702E-05-1.73733E-04
 -1      1273 2.96526E-05-7.51736E-05-1.91001E-04
 -1      1274-1.84465E-06 2.16435E-05 2.63990E-06
 -1      1275-1.75454E-06-2.17344E-05 2.75877E-06
 -1      1276 3.88105E-06-2.74036E-05-4.61611E-06
 -1      1277 1.50278E-06-1.91728E-05-1.01994E-06
 -1      1278 3.41173E-08-2.44036E-05 9.97048E-07
 -1      1279 1.29874E-05-4.29769E-05-3.28774E-05
 -1      1280 8.36755E-06-3.65005E-05-1.68066E-05
 -1      1281 5.11672E-06-4.64522E-05-1.34452E-05
 -1      1282 2.50859E-05-3.38541E-05-5.77144E-05
 -1      1283 2.07721E-05-3.96451E-05-4.53899E-05
 -1      1284 3.50233E-05-1.72052E-05-6.91808E-05
 -1      1285 3.09408E-05-2.63035E-05-6.40279E-05
 -1      1286 3.34199E-05-5.37590E-05-1.29536E-04
 -1      1287 3.80903E-05 5.60595E-06-7.20941E-05
 -1      1288 3.81629E-05-5.58109E-06-7.18086E-05
 -1      1289 5.15162E-05-2.16832E-05-1.48148E-04
 -1      1290 3.11067E-05 2.69977E-05-6.47946E-05
 -1      1291 3.56416E-05 1.79589E-05-7.00672E-05
 -1      1292 5.20366E-05 2.25744E-05-1.48881E-04
 -1      1293 2.01977E-05 3.97582E-05-4.62102E-05
 -1      1294 2.54330E-05 3.40567E-05-5.77482E-05
 -1      1295 3.38185E-05 5.45486E-05-1.29722E-04
 -1      1296 8.18180E-06 3.62963E-05-1.63792E-05
 -1      1297 1.23114E-05 4.30932E-05-3.24417E-05
 -1      1298 1.26389E-06 1.89683E-05-7.73008E-07
 -1      1299 3.83774E-06 2.73554E-05-4.64720E-06
 -1      1300 5.30281E-06 4.59188E-05-1.42739E-05
 -1      1301-1.14190E-07 2.39190E-05 1.23627E-06
 -1      1302-3.79055E-06 3.86810E-05-4.61826E-06
 -1      1303-3.21246E-06 2.91550E-05 3.60485E-06
 -1      1304-1.86436E-06 2.62355E-05 3.04643E-06
 -1      1305-2.69096E-05 2.71912E-04-5.38748E-04
 -1      1306 1.03761E-04-2.70240E-04-8.54123E-04
 -1      1307 1.80130E-04-1.66788E-04-8.96664E-04
 -1      1308 4.16005E-05-2.58774E-04-6.59196E-04
 -1      1309 2.20275E-04-5.56045E-05-9.21930E-04
 -1      1310 2.20894E-04 5.34345E-05-9.31300E-04
 -1      1311 1.39834E-04-9.07536E-05-6.71670E-04
 -1      1312 1.84410E-04 1.63784E-04-8.97424E-04
 -1      1313 1.09590E-04 2.61982E-04-8.48473E-04
 -1      1314 1.39889E-04 9.07562E-05-6.75273E-04
 -1      1315 4.57864E-05 2.57501E-04-6.60877E-04
 -1      1316-2.97926E-05-2.73504E-04-5.38001E-04
 -1      1317-3.44972E-06-2.93197E-05 3.60021E-06
 -1      1318-3.48708E-06-3.87789E-05-4.41057E-06
 -1      1319-1.75579E-06-2.64930E-05 3.08951E-06
 -1      1320 1.04338E-04-3.15499E-05-5.00275E-04
 -1      1321 8.29913E-05 5.75124E-07-3.55157E-04
 -1      1322 1.04319E-04 3.11563E-05-5.00822E-04
 -1      1323 8.51109E-05-9.76885E-05-4.82340E-04
 -1      1324 8.38863E-05 9.87334E-05-4.84718E-04
 -1      1325 4.39663E-05 6.54158E-05-2.09491E-04
 -1      1326 5.56516E-05 4.79933E-05-2.35734E-04
 -1      1327 6.42580E-05 1.64485E-05-2.44733E-04
 -1      1328 6.13431E-05 7.52996E-05-3.17001E-04
 -1      1329 4.43313E-05-6.49246E-05-2.09464E-04
 -1      1330 6.46561E-05-1.62888E-05-2.44873E-04
 -1      1331 5.56519E-05-4.63963E-05-2.35418E-04
 -1      1332 6.21813E-05-7.51060E-05-3.17178E-04
 -1      1333 2.98198E-05-1.99833E-04-5.22294E-04
 -1      1334 4.68111E-05-1.36254E-04-4.30927E-04
 -1      1335 3.07884E-05 1.99391E-04-5.23724E-04
 -1      1336 4.69745E-05 1.35838E-04-4.32936E-04
 -1      1337-4.02925E-06 4.29256E-06-1.56443E-07
 -1      1338 1.33341E-05-1.17707E-05-6.86584E-07
 -1      1339 3.77044E-05 1.25634E-05 1.91506E-05
 -1      1340-5.45377E-06 1.39929E-05 4.79388E-07
 -1      1341-2.29097E-06-8.39609E-06-6.69081E-07
 -1      1342-5.33757E-06 2.35107E-05-1.09901E-06
 -1      1343-4.87606E-06 2.25033E-05 4.93585E-07
 -1      1344-7.62864E-06 1.67058E-05-2.29046E-05
 -1      1345-1.05889E-05 1.73474E-05-3.57031E-06
 -1      1346 6.71901E-05 7.05231E-06 2.25411E-05
 -1      1347-3.16711E-06 1.51159E-05 1.86490E-06
 -1      1348-6.59150E-06 1.43841E-05 2.49292E-06
 -1      1349-8.66746E-06 1.83549E-05 1.31354E-06
 -1      1350-7.93686E-07 1.02323E-05 2.52424E-06
 -1      1351-4.33301E-06 9.40647E-06 1.71658E-06
 -1      1352-5.36955E-07 5.94761E-06 4.41803E-07
 -1      1353-5.46010E-06 1.99696E-05 4.23863E-07
 -1      1354 5.08181E-05 1.16294E-05 1.84315E-05
 -1      1355 2.72275E-05 3.34547E-06 3.43146E-06
 -1      1356-4.83592E-06 9.20309E-06-7.12477E-08
 -1      1357 9.86514E-07-9.30927E-06-1.29193E-06
 -1      1358-2.01633E-06-3.75145E-06-5.59234E-07
 -1      1359 3.17449E-06-3.32584E-06-1.24723E-06
 -1      1360-1.80778E-06 1.61885E-06-3.36012E-07
 -1      1361-1.29817E-05 2.48871E-05-1.05229E-05
 -1      1362-6.51425E-06 1.40715E-05 2.35301E-06
 -1      1363-6.92641E-06 2.08418E-05 1.80125E-06
 -1      1364 4.47872E-05-7.21936E-06 1.08247E-05
 -1      1365 2.42569E-05 1.34898E-05 7.94051E-06
 -1      1366 1.39187E-05 8.21445E-06 2.02423E-06
 -1      1367-3.52552E-06-5.37557E-06 2.21029E-07
 -1      1368-3.54687E-06-4.59117E-07-6.52130E-08
 -1      1369-5.57131E-06 2.50302E-05 1.92659E-06
 -1      1370-6.51891E-06 1.75061E-05 2.25832E-06
 -1      1371-3.58556E-06 5.59986E-06 4.58053E-07
 -1      1372-1.31222E-05 2.58475E-05-3.27215E-05
 -1      1373-3.72135E-06-8.41071E-06 3.00886E-07
 -1      1374-5.47183E-06 2.52273E-05-1.55743E-06
 -1      1375-5.50676E-06 2.22923E-05 1.92176E-06
 -1      1376 1.12128E-04 2.75975E-06 5.56107E-05
 -1      1377-4.86407E-06 9.26097E-06 1.19671E-06
 -1      1378 7.07722E-06 1.57797E-06-3.23732E-07
 -1      1379 1.29524E-05 1.66208E-05-3.24438E-05
 -1      1380 2.14327E-05-3.64877E-06 9.71842E-07
 -1      1381 8.85176E-06 1.13698E-05 5.86800E-06
 -1      1382-3.61025E-06-9.49079E-06 4.02636E-08
 -1      1383-4.32763E-06-9.05982E-06 6.32213E-07
 -1      1384-1.45827E-06-1.03784E-05-1.14726E-06
 -1      1385-2.85033E-06-9.51830E-06-4.81254E-07
 -1      1386-2.98630E-06-8.33206E-06-2.44226E-07
 -1      1387-4.60541E-06-8.12916E-06 1.01650E-06
 -1      1388-4.43234E-06-6.66172E-06 8.96204E-07
 -1      1389-4.44309E-06-4.25820E-06 6.49434E-07
 -1      1390-3.61094E-06-6.93412E-06 2.90602E-07
 -1      1391-5.85663E-06 2.51619E-05-3.86200E-06
 -1      1392-5.78044E-06 2.56618E-05-2.67949E-06
 -1      1393-5.73477E-06 2.28027E-05-3.63603E-06
 -1      1394-5.71564E-06 2.44034E-05-3.58813E-06
 -1      1395-5.39804E-06 2.44411E-05-1.38721E-06
 -1      1396-5.49999E-06 2.58116E-05-7.45459E-07
 -1      1397-5.36310E-06 2.57021E-05 1.41502E-06
 -1      1398-5.74856E-06 2.60549E-05 3.45420E-06
 -1      1399-5.36545E-06 2.49889E-05 5.70545E-07
 -1      1400 1.73975E-04-1.95684E-06 1.19685E-04
 -1      1401 9.97872E-05-9.11555E-06 5.63433E-05
 -1      1402 1.59926E-04 2.60876E-06 9.23997E-05
 -1      1403-9.89411E-06 2.20525E-05-2.78449E-05
 -1      1404-1.77144E-05 3.14538E-05-8.63140E-05
 -1      1405-3.32676E-05 3.62858E-05-7.32415E-05
 -1      1406 9.99777E-06 1.45172E-05-7.51773E-05
 -1      1407 3.29197E-05 1.45024E-05-1.71419E-05
 -1      1408-7.17800E-06 1.53948E-05-6.26385E-05
 -1      1409-2.43043E-05 2.30826E-05-4.30071E-05
 -1      1410-1.76163E-05 1.81698E-05-5.13085E-05
 -1      1411-2.92488E-05 3.22160E-05-5.31174E-05
 -1      1412-2.68485E-05 2.48859E-05-3.39502E-05
 -1      1413-1.11108E-05 1.77420E-05-1.48200E-05
 -1      1414-2.11869E-05 2.76885E-05-3.28323E-05
 -1      1415-1.31265E-05 2.19217E-05-8.41210E-06
 -1      1416-1.33562E-05 2.50231E-05-2.14320E-05
 -1      1417-4.35308E-06-1.78688E-06 2.27339E-07
 -1      1418-4.58642E-06 7.26393E-07-1.30686E-07
 -1      1419-3.50524E-06-2.88681E-06 2.78360E-08
 -1      1420-4.73602E-06 3.12911E-06-4.48390E-07
 -1      1421-5.05626E-06 5.66709E-06-7.95979E-07
 -1      1422-3.74054E-06 1.91107E-06-1.67194E-07
 -1      1423-5.31456E-06 8.11478E-06-1.09602E-06
 -1      1424-5.56494E-06 1.06990E-05-1.49743E-06
 -1      1425-4.44669E-06 6.73224E-06-1.50552E-07
 -1      1426-5.66690E-06 1.30747E-05-1.53482E-06
 -1      1427-5.81358E-06 1.57041E-05-1.79534E-06
 -1      1428-5.16457E-06 1.15870E-05 1.17858E-07
 -1      1429-5.74835E-06 1.86111E-05-2.26993E-06
 -1      1430-5.64614E-06 2.09390E-05-2.48987E-06
 -1      1431-5.59727E-06 1.71704E-05 5.14500E-07
 -1      1432-5.35885E-06 2.18123E-05-2.68838E-07
 -1      1433 6.34677E-05-1.34637E-05 2.82321E-05
 -1      1434 3.51337E-05-1.82538E-05 9.65426E-06
 -1      1435 7.27964E-05-1.79445E-06 2.73456E-05
 -1      1436 1.91121E-05-1.77538E-05 2.69707E-06
 -1      1437 9.95856E-06-1.62393E-05-4.76523E-07
 -1      1438 2.52991E-05-9.93018E-06 2.86890E-06
 -1      1439 3.74239E-06-1.36596E-05-1.16184E-06
 -1      1440 3.25138E-07-1.14322E-05-1.39721E-06
 -1      1441 5.70493E-06-1.04760E-05-1.15988E-06
 -1      1442-9.57097E-07-8.72497E-06-1.08128E-06
 -1      1443-5.85216E-06 2.58006E-05 1.98428E-06
 -1      1444-7.35717E-06 2.30672E-05-8.13333E-06
 -1      1445-8.19549E-06 2.32707E-05-1.18909E-05
 -1      1446-5.58044E-06 2.38704E-05 2.70124E-06
 -1      1447 1.06080E-04 6.41957E-06 4.78180E-05
 -1      1448 1.21423E-04 6.11040E-06 5.65243E-05
 -1      1449 8.72688E-05 8.04888E-06 3.23037E-05
 -1      1450 8.44651E-05 1.16971E-05 4.13474E-05
 -1      1451 1.02439E-04 5.62929E-06 5.03068E-05
 -1      1452 5.92740E-05 9.23782E-06 1.90087E-05
 -1      1453 6.26098E-05 1.21255E-05 3.44978E-05
 -1      1454 7.50231E-05 1.18058E-05 3.99805E-05
 -1      1455 4.45002E-05 1.19507E-05 2.03327E-05
 -1      1456 3.82579E-05 1.28107E-05 5.38601E-06
 -1      1457 5.35196E-05 1.16795E-05 2.81374E-05
 -1      1458 2.92731E-05 1.35508E-05 1.46055E-05
 -1      1459 1.81878E-05 1.52129E-05-7.99283E-06
 -1      1460 2.92537E-08 1.66594E-05-2.88649E-05
 -1      1461-3.75483E-06 4.87088E-06 1.62896E-07
 -1      1462-4.34286E-06 7.31120E-06 4.50980E-07
 -1      1463-2.77385E-06 3.83184E-07-2.02095E-07
 -1      1464-3.11344E-06 2.75862E-06-3.82091E-08
 -1      1465-2.63323E-06 3.45762E-06 1.22539E-07
 -1      1466 7.73414E-06-6.90308E-06-1.53650E-06
 -1      1467 2.02124E-06-6.60145E-06-1.16244E-06
 -1      1468 1.72516E-05-7.41127E-06-7.52702E-08
 -1      1469 1.00642E-05-4.35918E-06-1.13593E-06
 -1      1470 3.12079E-05-4.82845E-06 4.01410E-06
 -1      1471 2.25023E-05 1.04734E-05 8.17972E-06
 -1      1472 2.80319E-05 9.31394E-06 6.40395E-06
 -1      1473 1.44645E-05 1.30596E-05 7.51813E-06
 -1      1474 2.03125E-05 1.21088E-05 1.06145E-05
 -1      1475 1.14433E-05 9.72340E-06 4.88981E-06
 -1      1476-5.78838E-06 1.56020E-05 1.49497E-06
 -1      1477-5.90421E-06 1.87305E-05 1.63865E-06
 -1      1478-4.79511E-06 9.17067E-06 6.15831E-07
 -1      1479-5.32917E-06 1.16388E-05 1.00594E-06
 -1      1480-6.71229E-06 1.59168E-05 2.30965E-06
 -1      1481-5.86702E-06 1.39654E-05 1.67965E-06
 -1      1482-5.55039E-06 1.15165E-05 1.80343E-06
 -1      1483-9.24744E-07-6.14520E-06-9.27186E-07
 -1      1484-2.12700E-06-6.15146E-06-5.96327E-07
 -1      1485-2.75323E-06-4.54313E-06-2.66760E-07
 -1      1486-2.94075E-06-6.79797E-06-1.84515E-07
 -1      1487-5.49582E-06 2.12434E-05 1.30729E-06
 -1      1488-5.28652E-06 2.29064E-05 8.29764E-07
 -1      1489-5.36270E-06 2.41706E-05 5.82304E-07
 -1      1490-5.49683E-06 2.36739E-05 1.86937E-06
 -1      1491-6.54822E-06 2.21353E-05 7.96344E-07
 -1      1492-8.80828E-06 2.18391E-05-1.91170E-06
 -1      1493-8.46238E-06 2.40122E-05-5.32790E-06
 -1      1494-5.44298E-06 2.23867E-05 1.85159E-06
 -1      1495-6.05404E-06 2.15160E-05 2.12177E-06
 -1      1496-7.89509E-06 1.66155E-05-2.01418E-06
 -1      1497-3.86329E-06 1.64335E-05-5.27251E-06
 -1      1498 6.84692E-06 1.48130E-05 3.07086E-06
 -1      1499 7.07891E-06 1.48234E-05-5.50806E-06
 -1      1500-8.03636E-06 1.62400E-05 8.45501E-07
 -1      1501-5.70849E-06 1.50133E-05 2.13709E-06
 -1      1502-9.92044E-06 1.84458E-05-1.31281E-06
 -1      1503-8.25279E-06 1.66389E-05 1.87233E-06
 -1      1504-1.03942E-05 2.09574E-05-2.75611E-06
 -1      1505 3.76080E-05 7.15124E-06 9.36621E-06
 -1      1506 4.34919E-05 5.37508E-06 9.39315E-06
 -1      1507 2.43892E-05-1.91522E-08 1.81659E-06
 -1      1508 3.88565E-05 1.03784E-06 6.64787E-06
 -1      1509 5.60932E-05 2.02172E-06 1.45997E-05
 -1      1510-4.32739E-06 1.21583E-05 2.47010E-06
 -1      1511-1.30554E-06 1.26481E-05 3.14942E-06
 -1      1512 3.42826E-06 1.09524E-05 3.91065E-06
 -1      1513 2.62148E-06 1.29043E-05 4.18881E-06
 -1      1514-7.56223E-06 1.63224E-05 2.44323E-06
 -1      1515-6.93066E-06 1.43486E-05 2.63074E-06
 -1      1516-5.41391E-06 1.17437E-05 2.25280E-06
 -1      1517-3.25449E-06 9.77579E-06 1.96737E-06
 -1      1518-5.76607E-06 1.16767E-05 2.05940E-06
 -1      1519-7.85199E-06 1.98804E-05 1.42291E-06
 -1      1520-7.40079E-06 1.79142E-05 2.31154E-06
 -1      1521-6.83260E-06 1.93719E-05 2.28978E-06
 -1      1522-2.60783E-06 7.42433E-06 1.17764E-06
 -1      1523-3.62010E-07 8.05550E-06 1.57054E-06
 -1      1524 4.87401E-06 6.91197E-06 1.01467E-06
 -1      1525 5.68323E-06 8.97994E-06 2.26257E-06
 -1      1526-3.74029E-06 7.40564E-06 1.10034E-06
 -1      1527-2.36250E-06 5.71044E-06 5.73667E-07
 -1      1528-4.74495E-06 9.36632E-06 1.49793E-06
 -1      1529-4.25121E-06 7.40893E-06 8.43921E-07
 -1      1530-1.07465E-06 3.69098E-06 3.92579E-09
 -1      1531 1.31361E-06 1.58265E-06-3.23652E-07
 -1      1532 3.02541E-06 3.66859E-06-3.32714E-08
 -1      1533 1.02706E-05 4.61417E-06 8.08029E-07
 -1      1534-5.95285E-06 2.02813E-05 1.96869E-06
 -1      1535 2.01931E-05 5.13102E-06 2.86595E-06
 -1      1536 1.51708E-05 2.09103E-06 1.74651E-07
 -1      1537 1.35400E-05-1.36189E-06-3.87249E-07
 -1      1538-2.73110E-07-3.79176E-06-8.18737E-07
 -1      1539 3.38423E-07-7.21893E-07-7.87291E-07
 -1      1540-1.90361E-06-1.17785E-06-4.56624E-07
 -1      1541-2.86557E-06-1.98145E-06-2.65521E-07
 -1      1542 5.02979E-06-9.54327E-07-6.08841E-07
 -1      1543-4.14431E-06-4.51477E-06 2.16607E-08
 -1      1544 1.26262E-05 1.10144E-05-5.62427E-07
 -1      1545 3.80396E-05-1.31992E-05 1.96050E-05
 -1      1546-5.48618E-06-1.47699E-05 4.59126E-08
 -1      1547-2.19010E-06 8.22176E-06-5.59389E-07
 -1      1548-5.36457E-06-2.37320E-05-1.24160E-06
 -1      1549-6.93185E-06-2.35562E-05-4.77498E-07
 -1      1550-6.72507E-06-1.63889E-05-2.15562E-05
 -1      1551-1.18199E-05-1.94278E-05-7.43239E-06
 -1      1552 6.79944E-05-7.72746E-06 2.04608E-05
 -1      1553-3.23189E-06-1.54130E-05 1.42754E-06
 -1      1554-6.82143E-06-1.44994E-05 2.71682E-06
 -1      1555-8.55638E-06-1.83638E-05 2.13077E-06
 -1      1556-5.30382E-07-1.02290E-05 2.21252E-06
 -1      1557-4.44224E-06-9.56147E-06 1.79098E-06
 -1      1558-1.95212E-07-5.16775E-06 6.14448E-07
 -1      1559-5.49562E-06-2.00562E-05 2.88659E-07
 -1      1560 5.32182E-05-1.04234E-05 1.88191E-05
 -1      1561 2.53340E-05-4.80358E-06 1.93217E-06
 -1      1562-4.80523E-06-9.61124E-06-4.08701E-08
 -1      1563 1.27526E-06 9.43992E-06-1.32309E-06
 -1      1564-1.91471E-06 3.71917E-06-4.07277E-07
 -1      1565 3.48483E-06 4.76730E-06-1.31076E-06
 -1      1566-1.36664E-06-1.23127E-06-1.61840E-07
 -1      1567-1.06596E-05-2.24114E-05-8.83754E-06
 -1      1568-6.09717E-06-1.33611E-05 1.99566E-06
 -1      1569-7.16002E-06-2.15859E-05 1.99515E-06
 -1      1570 4.48526E-05 5.95859E-06 1.04579E-05
 -1      1571 1.98259E-05-1.43088E-05 8.57443E-06
 -1      1572 1.28007E-05-6.85971E-06 2.66304E-06
 -1      1573-3.62240E-06 5.41433E-06 3.44698E-07
 -1      1574-3.64689E-06 4.49594E-07-2.96581E-08
 -1      1575-5.61727E-06-2.52761E-05 1.96300E-06
 -1      1576-6.44599E-06-1.77601E-05 2.02730E-06
 -1      1577-3.35170E-06-5.51878E-06 5.37827E-07
 -1      1578-1.22459E-05-2.08161E-05-3.11961E-05
 -1      1579-5.40998E-06-2.53049E-05-1.08441E-06
 -1      1580-3.78603E-06 8.00933E-06 4.27115E-07
 -1      1581 1.10344E-04-4.14774E-06 5.65427E-05
 -1      1582-5.59817E-06-2.29690E-05 1.84272E-06
 -1      1583 7.01632E-06-8.30345E-07-7.39500E-07
 -1      1584-4.79422E-06-9.43246E-06 1.14273E-06
 -1      1585 1.16791E-05-1.67837E-05-3.26645E-05
 -1      1586 2.11320E-05 2.32735E-06 2.04174E-07
 -1      1587 7.77366E-06-1.43307E-05 4.11441E-06
 -1      1588-1.46859E-05-2.82894E-05-7.14327E-05
 -1      1589-4.59777E-06 7.88706E-06 1.07540E-06
 -1      1590-4.32973E-06 8.80683E-06 7.26231E-07
 -1      1591-4.49862E-06 4.23538E-06 7.49024E-07
 -1      1592-4.46456E-06 6.62520E-06 9.87654E-07
 -1      1593-3.69869E-06 6.74783E-06 4.18345E-07
 -1      1594-3.61387E-06 9.24114E-06 1.52045E-07
 -1      1595-2.76608E-06 9.34916E-06-3.81303E-07
 -1      1596-1.31367E-06 1.02430E-05-1.03105E-06
 -1      1597-2.95760E-06 8.03770E-06-1.33392E-07
 -1      1598-5.46776E-06-2.59104E-05-5.30897E-07
 -1      1599-5.74264E-06-2.57623E-05-2.49835E-06
 -1      1600-5.96578E-06-2.60729E-05 3.64066E-06
 -1      1601-5.39604E-06-2.58357E-05 1.45763E-06
 -1      1602-5.39809E-06-2.51825E-05 7.52676E-07
 -1      1603-5.79155E-06-2.53234E-05-3.68844E-06
 -1      1604-5.70014E-06-2.45676E-05-3.73736E-06
 -1      1605-5.73493E-06-2.29379E-05-3.78071E-06
 -1      1606-5.36994E-06-2.45956E-05-1.21278E-06
 -1      1607 9.83630E-05 8.76658E-06 5.52579E-05
 -1      1608 1.73435E-04 1.64522E-06 1.18664E-04
 -1      1609 1.57846E-04-6.05244E-06 9.05651E-05
 -1      1610-1.08034E-05-4.97149E-05-1.30525E-04
 -1      1611-7.36152E-06-2.52172E-05-3.77631E-05
 -1      1612-3.35878E-05-3.91724E-05-1.15410E-04
 -1      1613-2.85016E-05-3.13141E-05-5.48402E-05
 -1      1614-2.73092E-05-3.44238E-05-7.43193E-05
 -1      1615-1.69286E-05-1.79106E-05-5.16375E-05
 -1      1616-2.45834E-05-2.17588E-05-4.42102E-05
 -1      1617-1.20873E-05-1.86493E-05-1.41265E-05
 -1      1618-2.13888E-05-2.33641E-05-2.63083E-05
 -1      1619-1.32280E-05-2.11334E-05-9.74216E-06
 -1      1620-2.18980E-05-2.97206E-05-3.41941E-05
 -1      1621-1.20624E-05-2.12452E-05-1.91926E-05
 -1      1622 9.49654E-06-1.47435E-05-7.47102E-05
 -1      1623-7.64731E-06-1.51331E-05-6.25298E-05
 -1      1624 3.19885E-05-1.39517E-05-1.69120E-05
 -1      1625-4.54582E-06-8.14202E-07-1.13920E-07
 -1      1626-4.34117E-06 1.74429E-06 2.65595E-07
 -1      1627-3.57085E-06 2.98377E-06 1.21769E-07
 -1      1628-4.96671E-06-5.83810E-06-7.72106E-07
 -1      1629-4.70775E-06-3.31426E-06-4.60792E-07
 -1      1630-3.84936E-06-2.01944E-06-6.14556E-08
 -1      1631-5.50300E-06-1.09703E-05-1.51101E-06
 -1      1632-5.25749E-06-8.40211E-06-1.17828E-06
 -1      1633-4.46530E-06-7.02104E-06-3.90435E-08
 -1      1634-5.82127E-06-1.60851E-05-2.16251E-06
 -1      1635-5.71747E-06-1.35396E-05-1.88724E-06
 -1      1636-5.19907E-06-1.21778E-05-3.63644E-08
 -1      1637-5.64258E-06-2.10388E-05-2.61305E-06
 -1      1638-5.72020E-06-1.87622E-05-2.40242E-06
 -1      1639-5.58088E-06-1.75364E-05 1.61952E-07
 -1      1640-5.39524E-06-2.19865E-05-4.23539E-07
 -1      1641 5.25379E-07 1.13852E-05-1.32400E-06
 -1      1642 3.65869E-06 1.35593E-05-1.43916E-06
 -1      1643-7.99377E-07 8.67050E-06-9.88249E-07
 -1      1644 9.40284E-06 1.58373E-05-6.26747E-07
 -1      1645 1.87561E-05 1.75168E-05 1.94917E-06
 -1      1646 5.34132E-06 1.05170E-05-1.35306E-06
 -1      1647 3.48797E-05 1.73151E-05 9.24083E-06
 -1      1648 6.25083E-05 1.33438E-05 2.75188E-05
 -1      1649 2.47735E-05 9.76158E-06 2.85080E-06
 -1      1650 7.19297E-05 7.44125E-07 2.71971E-05
 -1      1651-7.41960E-06-2.36484E-05-7.05511E-06
 -1      1652-6.61416E-06-2.58654E-05 2.00202E-06
 -1      1653-6.16672E-06-2.42660E-05 2.44722E-06
 -1      1654-8.74912E-06-2.20475E-05-2.54938E-05
 -1      1655-8.45384E-06-2.14043E-05-1.06701E-05
 -1      1656-1.42630E-05-2.31764E-05-4.86750E-05
 -1      1657 5.46299E-07-1.67170E-05-2.83478E-05
 -1      1658 1.24317E-04-9.38928E-06 5.98725E-05
 -1      1659 1.07238E-04-1.02383E-05 4.73249E-05
 -1      1660 8.71664E-05-7.45834E-06 3.53073E-05
 -1      1661 9.81581E-05-1.04939E-05 4.56836E-05
 -1      1662 8.73705E-05-8.75495E-06 4.46765E-05
 -1      1663 6.01656E-05-9.18938E-06 2.03080E-05
 -1      1664 7.55522E-05-1.27822E-05 3.99304E-05
 -1      1665 6.33786E-05-1.18583E-05 3.56419E-05
 -1      1666 4.50712E-05-1.27578E-05 1.85767E-05
 -1      1667 4.69432E-05-1.45846E-05 2.24655E-05
 -1      1668 3.35326E-05-1.45702E-05 5.05761E-06
 -1      1669 2.80327E-05-1.53623E-05 1.52152E-05
 -1      1670 1.66084E-05-1.57642E-05-5.84880E-06
 -1      1671-4.31546E-06-7.57820E-06 4.87295E-07
 -1      1672-3.68079E-06-4.98097E-06 2.85549E-07
 -1      1673-2.61480E-06-3.21623E-07-5.21465E-08
 -1      1674-2.97783E-06-2.90443E-06 9.62839E-08
 -1      1675-2.36844E-06-3.33865E-06 1.84775E-07
 -1      1676 2.28145E-06 7.13807E-06-1.35135E-06
 -1      1677 7.27855E-06 7.23850E-06-1.26075E-06
 -1      1678 1.01379E-05 3.74067E-06-1.36424E-06
 -1      1679 1.66719E-05 6.66776E-06-2.75696E-07
 -1      1680 3.15292E-05 3.67815E-06 4.23364E-06
 -1      1681 2.80255E-05-8.47831E-06 7.29424E-06
 -1      1682 2.24214E-05-1.04242E-05 7.73844E-06
 -1      1683 2.00712E-05-1.42539E-05 9.47432E-06
 -1      1684 1.38417E-05-1.47145E-05 7.60497E-06
 -1      1685 1.07087E-05-1.01806E-05 3.91721E-06
 -1      1686-5.89768E-06-1.89199E-05 1.36250E-06
 -1      1687-5.76710E-06-1.61093E-05 1.16950E-06
 -1      1688-5.68970E-06-1.39782E-05 1.33227E-06
 -1      1689-5.18513E-06-1.12641E-05 9.73508E-07
 -1      1690-6.41282E-06-1.55815E-05 2.08699E-06
 -1      1691-2.03302E-06 6.03296E-06-5.00990E-07
 -1      1692-7.17662E-07 6.21688E-06-8.23712E-07
 -1      1693-2.92785E-06 6.71525E-06-8.45505E-08
 -1      1694-2.74271E-06 4.55380E-06-1.54973E-07
 -1      1695-5.31992E-06-2.32730E-05 6.75935E-07
 -1      1696-5.55314E-06-2.15189E-05 1.09410E-06
 -1      1697-5.40352E-06-2.44500E-05 4.91992E-07
 -1      1698-5.55938E-06-2.41374E-05 1.75091E-06
 -1      1699-8.31587E-06-2.18358E-05-5.97987E-07
 -1      1700-6.97331E-06-2.29800E-05 9.37721E-07
 -1      1701-8.15387E-06-2.21804E-05-5.77344E-06
 -1      1702-6.25340E-06-2.23188E-05 2.10843E-06
 -1      1703-6.02508E-06-2.31641E-05 1.90885E-06
 -1      1704-4.11005E-06-1.66522E-05-5.05561E-06
 -1      1705-8.21922E-06-1.73270E-05-2.57025E-06
 -1      1706 5.74139E-06-1.50955E-05-4.59166E-06
 -1      1707 5.54107E-06-1.54795E-05 3.20121E-06
 -1      1708-6.01273E-06-1.51803E-05 1.84018E-06
 -1      1709-8.55192E-06-1.66724E-05 6.02508E-07
 -1      1710-8.53905E-06-1.68372E-05 1.95258E-06
 -1      1711-1.03175E-05-1.90082E-05-1.02835E-06
 -1      1712-9.58534E-06-1.99921E-05-1.51436E-06
 -1      1713 4.40700E-05-5.81391E-06 8.12289E-06
 -1      1714 3.78355E-05-7.75874E-06 8.60295E-06
 -1      1715 3.96463E-05-2.49514E-06 6.46332E-06
 -1      1716 2.35752E-05-1.31658E-06 1.29107E-06
 -1      1717 5.66707E-05-2.46456E-06 1.47607E-05
 -1      1718-1.77657E-06-1.28486E-05 2.56283E-06
 -1      1719-4.28907E-06-1.22995E-05 2.54377E-06
 -1      1720 1.94702E-06-1.41129E-05 3.31146E-06
 -1      1721 2.65837E-06-1.18535E-05 3.14149E-06
 -1      1722-6.69454E-06-1.40471E-05 2.58104E-06
 -1      1723-7.04212E-06-1.57992E-05 2.61400E-06
 -1      1724-3.15953E-06-9.91788E-06 1.99741E-06
 -1      1725-5.46852E-06-1.19526E-05 2.26317E-06
 -1      1726-5.63759E-06-1.14626E-05 1.90220E-06
 -1      1727-7.99859E-06-2.02972E-05 2.01015E-06
 -1      1728-7.33949E-06-1.80089E-05 2.40979E-06
 -1      1729-6.83670E-06-1.97287E-05 2.17664E-06
 -1      1730-2.29247E-07-7.60326E-06 1.28739E-06
 -1      1731-2.49837E-06-7.29429E-06 1.18038E-06
 -1      1732 5.10720E-06-8.50978E-06 2.20343E-06
 -1      1733 4.24711E-06-5.82543E-06 1.01982E-06
 -1      1734-2.37591E-06-5.29459E-06 6.08317E-07
 -1      1735-3.76338E-06-7.41887E-06 1.11104E-06
 -1      1736-4.73925E-06-9.46754E-06 1.45973E-06
 -1      1737-5.40900E-06-1.13182E-05 1.57803E-06
 -1      1738-4.11442E-06-7.47333E-06 8.56264E-07
 -1      1739-9.73736E-07-3.02643E-06 7.69372E-08
 -1      1740 3.00160E-06-3.02317E-06-7.44171E-08
 -1      1741 1.19393E-06-8.62610E-07-4.31253E-07
 -1      1742 9.78154E-06-3.81750E-06 4.56592E-07
 -1      1743-6.00851E-06-2.05807E-05 1.77580E-06
 -1      1744 1.89954E-05-5.57402E-06 2.29766E-06
 -1      1745 1.45262E-05-2.12388E-06-1.66700E-07
 -1      1746 1.31131E-05 8.35035E-07-8.90815E-07
 -1      1747-4.77875E-06-9.47173E-06 6.21610E-07
 -1      1748-8.42326E-08 4.19244E-06-7.58323E-07
 -1      1749-1.65596E-06 1.35975E-06-3.08652E-07
 -1      1750 5.63218E-07 1.44206E-06-6.81652E-07
 -1      1751-2.78649E-06 2.03832E-06-1.51753E-07
 -1      1752 5.33165E-06 1.82753E-06-1.18608E-06
 -1      1753 3.43105E-03-1.75693E-04-3.15682E-04
 -1      1754 5.59717E-03-2.58824E-04-2.07319E-03
 -1      1755 1.61669E-03-1.15029E-04 2.66310E-04
 -1      1756 7.03840E-03-2.84020E-04-4.38467E-03
 -1      1757 6.57916E-04-7.93905E-05 2.41703E-04
 -1      1758 4.42128E-04-2.49838E-05 6.07472E-05
 -1      1759 3.48140E-04-5.68596E-05 1.36073E-04
 -1      1760 8.70864E-04-4.02858E-05 1.43644E-04
 -1      1761 2.37030E-04-9.86281E-05 1.98150E-04
 -1      1762 6.92251E-04-1.35755E-04 3.45224E-04
 -1      1763 7.54268E-03-2.23086E-04-5.88397E-03
 -1      1764 6.72641E-03-2.29412E-04-4.03887E-03
 -1      1765 7.59447E-03-2.84833E-04-5.80587E-03
 -1      1766 7.60218E-03-3.63275E-04-5.68587E-03
 -1      1767 6.84093E-03-3.71097E-04-3.80167E-03
 -1      1768 2.02979E-03-7.48172E-05 3.92440E-05
 -1      1769 1.32085E-03-4.94998E-05 1.38488E-04
 -1      1770 1.08419E-03-9.49226E-05 2.90422E-04
 -1      1771 3.87740E-03-1.30664E-04-7.89305E-04
 -1      1772 2.89284E-03-9.59587E-05-2.49603E-04
 -1      1773 2.45040E-03-1.38813E-04 9.19007E-05
 -1      1774 6.01772E-03-2.12601E-04-2.86443E-03
 -1      1775 4.95531E-03-1.70305E-04-1.64697E-03
 -1      1776 4.50441E-03-2.16954E-04-1.01398E-03
 -1      1777 6.36048E-03-2.77496E-04-3.12436E-03
 -1      1778 1.16655E-03-1.56973E-04 3.90282E-04
 -1      1779 1.94235E-03-1.92859E-04 3.32146E-04
 -1      1780 2.87969E-03-2.30817E-04 6.18550E-05
 -1      1781 3.93858E-03-2.79027E-04-4.79913E-04
 -1      1782 5.05098E-03-3.24231E-04-1.35474E-03
 -1      1783 6.11998E-03-3.63499E-04-2.60045E-03
 -1      1784 3.42652E-03 1.76046E-04-3.16874E-04
 -1      1785 1.61209E-03 1.13490E-04 2.63134E-04
 -1      1786 5.58621E-03 2.60702E-04-2.07833E-03
 -1      1787 7.05058E-03 3.11026E-04-4.33364E-03
 -1      1788 6.90074E-04 6.69693E-05 2.01004E-04
 -1      1789 4.58593E-04 2.42447E-05 3.49666E-05
 -1      1790 8.92016E-04 3.60785E-05 1.05143E-04
 -1      1791 3.63142E-04 5.06010E-05 1.18017E-04
 -1      1792 6.75679E-03 2.38766E-04-4.01116E-03
 -1      1793 7.55314E-03 2.34663E-04-5.87022E-03
 -1      1794 7.59306E-03 2.98981E-04-5.78438E-03
 -1      1795 2.57969E-04 9.10662E-05 1.84670E-04
 -1      1796 7.13104E-04 1.28291E-04 3.26406E-04
 -1      1797 7.59529E-03 3.78075E-04-5.64928E-03
 -1      1798 6.83328E-03 3.86360E-04-3.76369E-03
 -1      1799 1.31494E-03 5.56892E-05 1.43436E-04
 -1      1800 2.02632E-03 7.58272E-05 3.56713E-05
 -1      1801 1.09468E-03 8.79464E-05 2.67351E-04
 -1      1802 2.89111E-03 9.70544E-05-2.51903E-04
 -1      1803 3.87420E-03 1.31467E-04-7.91042E-04
 -1      1804 2.44593E-03 1.40595E-04 8.98118E-05
 -1      1805 4.94644E-03 1.71598E-04-1.64926E-03
 -1      1806 6.00387E-03 2.18556E-04-2.86556E-03
 -1      1807 4.49642E-03 2.16194E-04-1.01577E-03
 -1      1808 6.36143E-03 2.93526E-04-3.09418E-03
 -1      1809 1.93692E-03 1.94333E-04 3.30673E-04
 -1      1810 1.16141E-03 1.59190E-04 3.89926E-04
 -1      1811 3.93302E-03 2.77978E-04-4.80532E-04
 -1      1812 2.87404E-03 2.32500E-04 6.07462E-05
 -1      1813 6.11273E-03 3.63049E-04-2.59892E-03
 -1      1814 5.04111E-03 3.22868E-04-1.35617E-03
 -1      1815-4.79654E-05 2.09847E-06-1.75133E-04
 -1      1816-1.94480E-05-5.99025E-06-1.32549E-04
 -1      1817-1.30076E-04-5.40878E-07-1.66626E-04
 -1      1818-1.07733E-04-3.37405E-05-8.14028E-05
 -1      1819-2.12299E-05 5.82273E-06-1.62337E-04
 -1      1820-6.42396E-05 9.04218E-06-1.62784E-04
 -1      1821 5.30025E-06 4.11190E-06-1.72137E-04
 -1      1822-9.70668E-05 9.87900E-06-1.61809E-04
 -1      1823-1.37595E-04 1.19131E-05-1.61253E-04
 -1      1824-1.76937E-04-1.05314E-05-1.62194E-04
 -1      1825 3.57109E-05-1.45565E-05-6.94664E-05
 -1      1826 1.37447E-04 9.05851E-06-1.13093E-04
 -1      1827 3.27739E-05 6.81489E-06-1.57010E-04
 -1      1828-1.10423E-04-6.60166E-05-4.75863E-06
 -1      1829-5.79915E-06-3.30321E-05-3.22615E-05
 -1      1830-1.84818E-04-3.44479E-05-1.15931E-04
 -1      1831-8.84560E-05 1.02750E-06-1.72320E-04
 -1      1832-6.01487E-05-1.65597E-05-1.09969E-04
 -1      1833-4.22746E-05-6.77751E-07-1.65359E-04
 -1      1834-1.33596E-04-1.51063E-05-1.37591E-04
 -1      1835-8.73520E-05-4.85518E-06-1.54211E-04
 -1      1836-4.80024E-05-1.43071E-06-1.74900E-04
 -1      1837-1.80099E-05 6.83454E-06-1.34138E-04
 -1      1838-1.30612E-04 1.23843E-06-1.68143E-04
 -1      1839-1.10732E-04 3.57947E-05-8.14135E-05
 -1      1840-1.39298E-04-1.14191E-05-1.61726E-04
 -1      1841-9.85313E-05-9.04563E-06-1.62351E-04
 -1      1842-1.79294E-04 1.30926E-05-1.63308E-04
 -1      1843-6.46116E-05-8.29550E-06-1.62579E-04
 -1      1844-2.14868E-05-5.53877E-06-1.62041E-04
 -1      1845 5.18313E-06-3.07460E-06-1.71152E-04
 -1      1846 1.37571E-04-5.14682E-06-1.14098E-04
 -1      1847 3.45215E-05 1.59418E-05-7.28685E-05
 -1      1848 3.36909E-05-5.83552E-06-1.56765E-04
 -1      1849-7.28411E-06 3.46822E-05-3.37376E-05
 -1      1850-1.14058E-04 6.79883E-05-5.58513E-06
 -1      1851-1.88434E-04 3.70066E-05-1.17208E-04
 -1      1852-8.84509E-05-4.21917E-07-1.73096E-04
 -1      1853-6.13395E-05 1.89802E-05-1.09945E-04
 -1      1854-4.20959E-05 1.64100E-06-1.65619E-04
 -1      1855-1.35678E-04 1.72816E-05-1.37314E-04
 -1      1856-8.76805E-05 6.12304E-06-1.55364E-04
 -1      1857-2.75218E-03-9.80728E-05-1.50145E-02
 -1      1858-2.98374E-03 3.86730E-05-2.74884E-02
 -1      1859-2.98675E-03-5.78429E-05-2.67849E-02
 -1      1860-2.74254E-03 8.89261E-05-1.47743E-02
 -1      1861-2.92886E-03-1.08468E-04-2.04468E-02
 -1      1862-2.92315E-03 8.82701E-05-2.05002E-02
 -1      1863-2.99698E-03-1.03760E-05-2.92787E-02
 -1      1864-2.61331E-03 3.07797E-05-1.23072E-02
 -1      1865-2.78796E-03-5.41000E-06-1.65346E-02
 -1      1866-2.87543E-03 4.61905E-05-1.91325E-02
 -1      1867-2.91305E-03-1.87418E-05-2.11220E-02
 -1      1868-2.96604E-03 2.63907E-05-2.46897E-02
 -1      1869-2.87578E-03-7.24193E-05-1.89323E-02
 -1      1870-2.99525E-03 1.51557E-05-2.96072E-02
 -1      1871-2.96562E-03 6.43217E-05-2.45044E-02
 -1      1872-2.96885E-03-8.66095E-05-2.42652E-02
 -1      1873-2.84424E-03 1.25107E-04-1.65485E-02
 -1      1874-2.99941E-03-3.28094E-05-3.00968E-02
 -1      1875-2.97522E-03-2.73347E-05-2.55704E-02
 -1      1876-2.60778E-03-4.66476E-05-1.21881E-02
 -1      1877-2.84843E-03-1.38647E-04-1.65446E-02
 -1      1878-2.95298E-03-6.39149E-05-2.28546E-02
 -1      1879-2.58761E-03 7.38479E-05-1.10997E-02
 -1      1880-2.54362E-03 1.88722E-05-1.06041E-02
 -1      1881-2.54712E-03-2.45774E-05-1.05544E-02
 -1      1882-2.58929E-03-8.45804E-05-1.10521E-02
 -1      1883-2.60636E-03-9.17621E-06-1.22488E-02
 -1      1884-2.74472E-03 1.37002E-04-1.37996E-02
 -1      1885-2.64801E-03 1.08944E-04-1.23316E-02
 -1      1886-2.68129E-03 6.40772E-05-1.35367E-02
 -1      1887-2.87171E-03 1.37376E-04-1.69239E-02
 -1      1888-2.80327E-03 1.49372E-04-1.46669E-02
 -1      1889-2.79750E-03 1.11003E-04-1.56601E-02
 -1      1890-2.93816E-03 9.54242E-05-2.15494E-02
 -1      1891-2.90584E-03 1.18100E-04-1.89028E-02
 -1      1892-2.88736E-03 1.05537E-04-1.85198E-02
 -1      1893-2.96931E-03 5.91407E-05-2.61012E-02
 -1      1894-2.95321E-03 8.04153E-05-2.35544E-02
 -1      1895-2.94840E-03 7.54107E-05-2.25000E-02
 -1      1896-2.98806E-03 2.93475E-05-2.95904E-02
 -1      1897-2.97791E-03 4.66675E-05-2.75947E-02
 -1      1898-2.97567E-03 5.10264E-05-2.59972E-02
 -1      1899-2.99976E-03 5.58556E-06-3.17453E-02
 -1      1900-2.99374E-03 1.91474E-05-3.06508E-02
 -1      1901-2.99003E-03 2.66001E-05-2.85491E-02
 -1      1902-3.00251E-03-1.78252E-05-3.15809E-02
 -1      1903-3.00158E-03-3.88003E-06-3.15813E-02
 -1      1904-2.99647E-03 3.20997E-06-2.94455E-02
 -1      1905-2.99807E-03-3.90128E-05-3.08940E-02
 -1      1906-3.00250E-03-2.61093E-05-3.19892E-02
 -1      1907-2.99883E-03-2.25900E-05-2.96898E-02
 -1      1908-2.98301E-03-6.65959E-05-2.72416E-02
 -1      1909-2.99278E-03-5.07121E-05-2.92374E-02
 -1      1910-2.99350E-03-4.48510E-05-2.84422E-02
 -1      1911-2.95772E-03-9.97297E-05-2.34322E-02
 -1      1912-2.97303E-03-7.83940E-05-2.59800E-02
 -1      1913-2.97868E-03-7.17849E-05-2.55262E-02
 -1      1914-2.91222E-03-1.34382E-04-1.88730E-02
 -1      1915-2.94393E-03-1.13533E-04-2.15200E-02
 -1      1916-2.95271E-03-9.69571E-05-2.23542E-02
 -1      1917-2.80728E-03-1.61197E-04-1.46627E-02
 -1      1918-2.87754E-03-1.50652E-04-1.69198E-02
 -1      1919-2.89306E-03-1.22787E-04-1.84904E-02
 -1      1920-2.64594E-03-1.18217E-04-1.24554E-02
 -1      1921-2.74780E-03-1.47852E-04-1.39186E-02
 -1      1922-2.80320E-03-1.21986E-04-1.57785E-02
 -1      1923-2.68228E-03-7.39481E-05-1.35988E-02
 -1      1924-2.76266E-03-5.24580E-05-1.57822E-02
 -1      1925-2.83253E-03-4.28136E-05-1.77348E-02
 -1      1926-2.81940E-03-8.47403E-05-1.69659E-02
 -1      1927-2.70156E-03-2.65292E-05-1.43482E-02
 -1      1928-2.85926E-03-1.05918E-04-1.77417E-02
 -1      1929-2.97838E-03 3.48313E-05-2.60890E-02
 -1      1930-2.98490E-03 2.09565E-05-2.71470E-02
 -1      1931-2.96762E-03 4.76204E-05-2.46003E-02
 -1      1932-2.96381E-03-7.79521E-05-2.35611E-02
 -1      1933-2.97352E-03-6.11755E-05-2.48188E-02
 -1      1934-2.98165E-03-4.44929E-05-2.61794E-02
 -1      1935-2.99079E-03-3.14872E-05-2.78337E-02
 -1      1936-2.96506E-03-4.44910E-05-2.42137E-02
 -1      1937-2.76345E-03 4.09412E-05-1.56625E-02
 -1      1938-2.70401E-03 1.44565E-05-1.44001E-02
 -1      1939-2.81560E-03 6.71999E-05-1.69465E-02
 -1      1940-2.83395E-03 2.37751E-05-1.78314E-02
 -1      1941-2.85534E-03 8.65131E-05-1.78464E-02
 -1      1942-2.90379E-03-9.32426E-05-1.96901E-02
 -1      1943-2.91994E-03-6.80261E-05-2.08878E-02
 -1      1944-2.94141E-03-8.55098E-05-2.16520E-02
 -1      1945-2.89994E-03 6.98235E-05-1.98181E-02
 -1      1946-2.94654E-03 5.49691E-05-2.25957E-02
 -1      1947-2.92970E-03 3.59883E-05-2.19055E-02
 -1      1948-2.98458E-03 5.46515E-06-2.69854E-02
 -1      1949-2.98823E-03-1.77504E-05-2.74244E-02
 -1      1950-2.97026E-03-7.52134E-07-2.51354E-02
 -1      1951-2.89352E-03 1.24358E-05-2.01303E-02
 -1      1952-2.85958E-03-1.29335E-05-1.88195E-02
 -1      1953-2.89451E-03-4.42651E-05-2.00289E-02
 -1      1954-2.94340E-03 7.62248E-06-2.29066E-02
 -1      1955-2.94941E-03-2.34428E-05-2.33433E-02
 -1      1956-2.93450E-03-4.36254E-05-2.19903E-02
 -1      1957 1.10345E-02 8.65450E-05-1.48413E-02
 -1      1958 1.13191E-02-3.69062E-05-2.68557E-02
 -1      1959 1.13213E-02 2.22650E-05-2.75547E-02
 -1      1960 1.10491E-02-9.23222E-05-1.50834E-02
 -1      1961 1.12431E-02 7.29841E-05-2.05616E-02
 -1      1962 1.13397E-02-8.28981E-06-2.93464E-02
 -1      1963 1.12473E-02-8.85253E-05-2.05157E-02
 -1      1964 1.08852E-02-4.12233E-05-1.22869E-02
 -1      1965 1.10817E-02-6.27889E-06-1.66050E-02
 -1      1966 1.11838E-02 4.28351E-05-1.91998E-02
 -1      1967 1.12304E-02-1.36594E-05-2.11891E-02
 -1      1968 1.12960E-02 1.91732E-05-2.47557E-02
 -1      1969 1.11827E-02-6.08125E-05-1.89987E-02
 -1      1970 1.13438E-02-1.96421E-05-3.01647E-02
 -1      1971 1.13058E-02-1.96376E-05-2.56374E-02
 -1      1972 1.13374E-02 5.28182E-06-2.96747E-02
 -1      1973 1.12958E-02-5.97187E-05-2.43357E-02
 -1      1974 1.11509E-02 1.17281E-04-1.66068E-02
 -1      1975 1.11554E-02-1.24495E-04-1.66109E-02
 -1      1976 1.12943E-02 4.46046E-05-2.45688E-02
 -1      1977 1.08844E-02 3.52765E-05-1.23619E-02
 -1      1978 1.12746E-02-4.98340E-05-2.29229E-02
 -1      1979 1.08066E-02-2.85322E-05-1.06392E-02
 -1      1980 1.08603E-02-8.26935E-05-1.11289E-02
 -1      1981 1.08587E-02 7.52769E-05-1.11828E-02
 -1      1982 1.08102E-02 1.59831E-05-1.06884E-02
 -1      1983 1.08791E-02-1.80067E-06-1.23261E-02
 -1      1984 1.09358E-02-1.15589E-04-1.25228E-02
 -1      1985 1.10471E-02-1.40338E-04-1.39848E-02
 -1      1986 1.09723E-02-7.16118E-05-1.36782E-02
 -1      1987 1.11100E-02-1.49709E-04-1.47251E-02
 -1      1988 1.11872E-02-1.32427E-04-1.69819E-02
 -1      1989 1.11063E-02-1.12551E-04-1.58473E-02
 -1      1990 1.12275E-02-1.12518E-04-1.89387E-02
 -1      1991 1.12646E-02-8.59013E-05-2.15894E-02
 -1      1992 1.12056E-02-1.05297E-04-1.85582E-02
 -1      1993 1.12832E-02-6.90460E-05-2.35029E-02
 -1      1994 1.13058E-02-4.92880E-05-2.60508E-02
 -1      1995 1.12752E-02-7.33460E-05-2.24247E-02
 -1      1996 1.13188E-02-4.08653E-05-2.73131E-02
 -1      1997 1.13340E-02-2.87966E-05-2.93076E-02
 -1      1998 1.13085E-02-4.78859E-05-2.55974E-02
 -1      1999 1.13445E-02-2.02440E-05-3.09641E-02
 -1      2000 1.13523E-02-1.44706E-05-3.20579E-02
 -1      2001 1.13325E-02-2.75555E-05-2.85110E-02
 -1      2002 1.13511E-02-1.16954E-05-3.16497E-02
 -1      2003 1.13501E-02-5.94034E-06-3.16494E-02
 -1      2004 1.13420E-02-1.47632E-05-2.97578E-02
 -1      2005 1.13486E-02-2.27846E-06-3.18126E-02
 -1      2006 1.13396E-02 5.17675E-06-3.07175E-02
 -1      2007 1.13390E-02-7.47959E-07-2.95132E-02
 -1      2008 1.13312E-02 1.18458E-05-2.96569E-02
 -1      2009 1.13148E-02 2.40471E-05-2.76600E-02
 -1      2010 1.13298E-02 1.34759E-05-2.86162E-02
 -1      2011 1.13018E-02 3.46476E-05-2.61656E-02
 -1      2012 1.12795E-02 5.54778E-05-2.36177E-02
 -1      2013 1.13087E-02 3.28618E-05-2.60625E-02
 -1      2014 1.12603E-02 7.29628E-05-2.16108E-02
 -1      2015 1.12209E-02 1.01414E-04-1.89615E-02
 -1      2016 1.12726E-02 5.82458E-05-2.25642E-02
 -1      2017 1.11812E-02 1.24447E-04-1.69775E-02
 -1      2018 1.11039E-02 1.42933E-04-1.47209E-02
 -1      2019 1.12008E-02 9.41237E-05-1.85804E-02
 -1      2020 1.10363E-02 1.34189E-04-1.38609E-02
 -1      2021 1.09238E-02 1.09043E-04-1.24065E-02
 -1      2022 1.10970E-02 1.05795E-04-1.57221E-02
 -1      2023 1.09615E-02 6.31858E-05-1.36000E-02
 -1      2024 1.11156E-02 6.32118E-05-1.70121E-02
 -1      2025 1.11344E-02 2.19612E-05-1.79018E-02
 -1      2026 1.10496E-02 4.01882E-05-1.57305E-02
 -1      2027 1.09874E-02 1.42668E-05-1.44695E-02
 -1      2028 1.11639E-02 8.01463E-05-1.79099E-02
 -1      2029 1.13133E-02-2.99504E-05-2.62490E-02
 -1      2030 1.13279E-02-2.13908E-05-2.79015E-02
 -1      2031 1.13007E-02-4.38014E-05-2.48879E-02
 -1      2032 1.12908E-02-3.36725E-05-2.42817E-02
 -1      2033 1.12883E-02-5.75755E-05-2.36305E-02
 -1      2034 1.13210E-02 1.28583E-05-2.72141E-02
 -1      2035 1.13118E-02 2.32499E-05-2.61553E-02
 -1      2036 1.12969E-02 3.44772E-05-2.46655E-02
 -1      2037 1.09872E-02-2.50147E-05-1.44225E-02
 -1      2038 1.10621E-02-4.88067E-05-1.58524E-02
 -1      2039 1.11335E-02-3.68944E-05-1.78033E-02
 -1      2040 1.11221E-02-7.58438E-05-1.70340E-02
 -1      2041 1.11658E-02-9.30507E-05-1.78104E-02
 -1      2042 1.12711E-02 4.35798E-05-2.26618E-02
 -1      2043 1.12510E-02 2.98104E-05-2.19693E-02
 -1      2044 1.12147E-02 6.13431E-05-1.98821E-02
 -1      2045 1.13250E-02-1.26873E-05-2.74917E-02
 -1      2046 1.13008E-02-6.46707E-07-2.52008E-02
 -1      2047 1.13208E-02 3.03199E-06-2.70530E-02
 -1      2048 1.12172E-02-7.76663E-05-1.97585E-02
 -1      2049 1.12348E-02-5.55214E-05-2.09569E-02
 -1      2050 1.12606E-02-6.86662E-05-2.17208E-02
 -1      2051 1.12072E-02 1.25094E-05-2.01973E-02
 -1      2052 1.11655E-02-1.08480E-05-1.88865E-02
 -1      2053 1.12072E-02-3.56707E-05-2.00957E-02
 -1      2054 1.12675E-02 6.61884E-06-2.29739E-02
 -1      2055 1.12731E-02-1.79486E-05-2.34120E-02
 -1      2056 1.12535E-02-3.42188E-05-2.20582E-02
 -1      2057 6.73943E-03-1.70069E-05-2.99063E-02
 -1      2058 6.74413E-03-1.11830E-06-2.99093E-02
 -1      2059 1.58836E-03-1.06285E-05-3.41680E-02
 -1      2060 1.77155E-03 2.56018E-05-2.55101E-02
 -1      2061 1.81277E-03-4.54786E-05-2.45124E-02
 -1      2062 6.36125E-03-1.05287E-05-2.64663E-02
 -1      2063 6.33343E-03-8.69148E-06-2.44218E-02
 -1      2064 1.48828E-03-2.47051E-05-3.12276E-02
 -1      2065 1.52737E-03 9.23159E-06-2.98845E-02
 -1      2066 6.84331E-03-9.49402E-06-3.41939E-02
 -1      2067 6.72456E-03-2.40339E-06-3.30577E-02
 -1      2068 4.36332E-03-1.73449E-05-3.31201E-02
 -1      2069 1.49269E-03-2.86405E-06-3.30241E-02
 -1      2070 8.84897E-03 2.14919E-05-2.41433E-02
 -1      2071 9.00175E-03-3.82277E-05-2.38978E-02
 -1      2072 4.67977E-03 5.33045E-06-2.74143E-02
 -1      2073 1.55131E-04-2.01109E-05-3.30437E-02
 -1      2074 8.25051E-03-1.50527E-05-3.30839E-02
 -1      2075-7.03973E-04-7.63781E-05-2.34156E-02
 -1      2076-6.66257E-04 5.68583E-05-2.38595E-02
 -1      2077 2.83889E-03-2.86709E-05-2.81606E-02
 -1      2078 8.35568E-03-1.78745E-05-2.65612E-02
 -1      2079-1.94626E-03 2.64012E-05-9.08934E-03
 -1      2080-1.95463E-03-3.57562E-05-9.09124E-03
 -1      2081 1.02119E-02-3.18841E-05-9.17283E-03
 -1      2082 1.02205E-02 2.54076E-05-9.17607E-03
 -1      2083-6.91420E-04 3.13425E-05-9.07432E-03
 -1      2084-6.97292E-04-3.80957E-05-9.07219E-03
 -1      2085-1.71099E-03 1.05361E-04-1.92464E-02
 -1      2086-1.72946E-03 8.44684E-05-2.19276E-02
 -1      2087-1.68283E-03 1.23699E-04-1.68223E-02
 -1      2088-5.97512E-04 6.50883E-05-2.25626E-02
 -1      2089-1.79661E-03 7.40068E-05-2.32324E-02
 -1      2090 2.97490E-03 2.12603E-05-2.34119E-02
 -1      2091 6.16700E-04 4.57789E-05-2.34100E-02
 -1      2092 5.53763E-04 3.96885E-05-2.46913E-02
 -1      2093 1.00620E-02-6.66438E-05-2.19813E-02
 -1      2094 1.00375E-02-8.96331E-05-1.92951E-02
 -1      2095 1.00037E-02-1.11872E-04-1.68646E-02
 -1      2096 1.01291E-02-5.56785E-05-2.32845E-02
 -1      2097 8.93447E-03-4.66595E-05-2.26002E-02
 -1      2098 7.60116E-03-2.90511E-05-2.28671E-02
 -1      2099 5.24659E-03-2.21591E-06-2.28490E-02
 -1      2100 7.66555E-03-2.28855E-05-2.41595E-02
 -1      2101 8.96424E-03-4.07623E-05-9.14813E-03
 -1      2102 8.97123E-03 3.24147E-05-9.14782E-03
 -1      2103 1.00302E-02 7.90802E-05-1.92902E-02
 -1      2104 1.00560E-02 5.41283E-05-2.19767E-02
 -1      2105 8.85582E-03 3.20708E-05-2.27240E-02
 -1      2106 1.00492E-02 4.07892E-05-2.34060E-02
 -1      2107 9.99574E-03 1.03362E-04-1.68598E-02
 -1      2108 6.49053E-03 2.89089E-06-2.27022E-02
 -1      2109-1.71860E-03-1.20056E-04-1.92419E-02
 -1      2110-1.73669E-03-1.00778E-04-2.19230E-02
 -1      2111-1.81884E-03-9.26463E-05-2.30069E-02
 -1      2112-6.19755E-04-8.29421E-05-2.23346E-02
 -1      2113-1.69011E-03-1.36464E-04-1.68182E-02
 -1      2114 6.36352E-04-6.42491E-05-2.28905E-02
 -1      2115 2.99070E-03-3.75556E-05-2.28924E-02
 -1      2116 5.56347E-04-5.96585E-05-2.39656E-02
 -1      2117-1.49120E-03 9.89808E-05-1.09004E-02
 -1      2118-1.57078E-03 1.29552E-04-1.25421E-02
 -1      2119-1.39788E-03 6.15532E-05-9.78573E-03
 -1      2120-1.64077E-03 1.31372E-04-1.44562E-02
 -1      2121-1.81173E-03 5.30809E-05-2.58363E-02
 -1      2122-7.13263E-04 2.32701E-05-2.88315E-02
 -1      2123-7.24498E-04 1.17743E-05-3.08410E-02
 -1      2124 1.64915E-03 1.70654E-05-2.78250E-02
 -1      2125-5.85170E-04 3.68171E-05-2.66265E-02
 -1      2126-7.44918E-04 2.60369E-06-3.24166E-02
 -1      2127-7.51962E-04-3.75608E-06-3.35234E-02
 -1      2128 1.50946E-03 2.62049E-06-3.16777E-02
 -1      2129-7.05948E-04-9.69921E-06-3.40955E-02
 -1      2130-7.07097E-04-1.30132E-05-3.40951E-02
 -1      2131 1.53975E-03-7.11402E-06-3.38791E-02
 -1      2132-1.42393E-03-1.98194E-05-3.35305E-02
 -1      2133-1.41790E-03-2.61960E-05-3.24282E-02
 -1      2134 8.70958E-04-1.44145E-05-3.38834E-02
 -1      2135-7.47101E-04-2.91476E-05-3.14631E-02
 -1      2136-7.37817E-04-3.92792E-05-2.95940E-02
 -1      2137 8.22297E-04-2.25912E-05-3.22342E-02
 -1      2138-1.83414E-03-7.25523E-05-2.56224E-02
 -1      2139-5.66792E-04-5.75405E-05-2.61457E-02
 -1      2140-5.47898E-05-4.43016E-05-2.79266E-02
 -1      2141 2.32471E-03-3.54769E-05-2.63969E-02
 -1      2142 2.16500E-03-2.73347E-05-2.98019E-02
 -1      2143-1.64758E-03-1.42541E-04-1.44529E-02
 -1      2144-1.57636E-03-1.38766E-04-1.25410E-02
 -1      2145-1.48909E-03-1.06795E-04-1.09007E-02
 -1      2146-1.39142E-03-7.44102E-05-9.79205E-03
 -1      2147 9.87698E-03-1.25009E-04-1.25859E-02
 -1      2148 9.78756E-03-9.86425E-05-1.09584E-02
 -1      2149 9.68144E-03-6.61125E-05-9.85697E-03
 -1      2150 9.95477E-03-1.23905E-04-1.44970E-02
 -1      2151 1.01520E-02-3.64844E-05-2.58905E-02
 -1      2152 9.03697E-03-6.65920E-06-3.08878E-02
 -1      2153 9.02060E-03-1.23344E-05-2.88783E-02
 -1      2154 7.55115E-03-7.27095E-06-2.83199E-02
 -1      2155 9.82774E-03-2.58998E-05-2.71717E-02
 -1      2156 8.67887E-03-2.69802E-05-2.52525E-02
 -1      2157 9.04008E-03-5.82086E-06-3.35736E-02
 -1      2158 9.03094E-03-4.40686E-06-3.24683E-02
 -1      2159 6.73552E-03-7.11653E-07-3.17086E-02
 -1      2160 9.09960E-03-1.12581E-05-3.41424E-02
 -1      2161 9.10024E-03-7.68833E-06-3.41428E-02
 -1      2162 6.78489E-03-6.08376E-06-3.39071E-02
 -1      2163 9.79284E-03-1.21158E-05-3.24830E-02
 -1      2164 9.80378E-03-1.17369E-05-3.35848E-02
 -1      2165 7.54852E-03-1.35417E-05-3.39162E-02
 -1      2166 9.01437E-03-4.37534E-06-2.88750E-02
 -1      2167 9.03157E-03-1.14076E-05-3.08851E-02
 -1      2168 7.49467E-03-1.67797E-05-3.17236E-02
 -1      2169 1.00712E-02 2.07832E-05-2.60057E-02
 -1      2170 8.82053E-03 2.87940E-06-2.71222E-02
 -1      2171 6.55059E-03-1.44319E-05-2.82742E-02
 -1      2172 7.60438E-03 2.96247E-06-2.53223E-02
 -1      2173 9.94842E-03 1.15964E-04-1.44916E-02
 -1      2174 9.77881E-03 9.05739E-05-1.09583E-02
 -1      2175 9.87125E-03 1.17524E-04-1.25833E-02
 -1      2176 9.67479E-03 6.22861E-05-9.86543E-03
 -1      2177 4.05522E-03 9.85534E-06-2.49654E-02
 -1      2178 4.08324E-03-2.53723E-05-2.54989E-02
 -1      2179 5.25592E-03-1.40152E-05-2.39113E-02
 -1      2180 4.60260E-03-2.14087E-05-2.73284E-02
 -1      2181 4.78624E-03-2.12478E-05-2.90585E-02
 -1      2182 2.92422E-03-1.98217E-05-3.22812E-02
 -1      2183 5.55532E-03-1.97298E-05-3.17554E-02
 -1      2184 4.11687E-03-2.23902E-05-3.05895E-02
 -1      2185 6.30582E-03-1.69067E-05-3.31006E-02
 -1      2186 4.11926E-03 1.14873E-06-3.16919E-02
 -1      2187 4.13534E-03 4.66880E-06-2.98927E-02
 -1      2188 3.10681E-03 9.41399E-06-2.86995E-02
 -1      2189 5.70978E-03 1.22284E-06-2.87127E-02
 -1      2190 6.51509E-03-4.55807E-06-2.69895E-02
 -1      2191 4.15891E-03-6.33390E-06-3.38901E-02
 -1      2192 4.21559E-03-1.03122E-05-3.41774E-02
 -1      2193 5.60272E-03-1.36156E-05-3.39179E-02
 -1      2194 2.97719E-03-1.42797E-05-3.39047E-02
 -1      2195 4.10855E-03-2.86525E-06-3.30369E-02
 -1      2196 2.26034E-03-1.79846E-05-3.30800E-02
 -1      2197 5.50896E-03 2.28846E-07-2.59537E-02
 -1      2198 3.22389E-03 1.36135E-05-2.64774E-02
 -1      2199 7.34220E-03-1.38876E-05-2.55069E-02
 -1      2200 1.28847E-03 5.91777E-05 4.50344E-04
 -1      2201 8.55549E-04 3.85040E-05 3.98712E-04
 -1      2202 3.05028E-04 5.06985E-06 1.21293E-04
 -1      2203 8.39508E-04 1.75143E-05 1.80626E-04
 -1      2204 4.66954E-04 3.17734E-05 2.65759E-04
 -1      2205 1.97023E-03 9.26513E-05 3.07130E-04
 -1      2206 3.81982E-04 2.19644E-05 2.03647E-04
 -1      2207 6.54308E-04 2.58994E-05 2.89730E-04
 -1      2208 7.03559E-04 3.42254E-05 3.38055E-04
 -1      2209 4.15564E-04 2.81059E-05 2.31427E-04
 -1      2210 3.66864E-04-4.30043E-06 3.87965E-05
 -1      2211 1.59888E-03 7.50639E-05 4.30501E-04
 -1      2212 1.04016E-03 4.01229E-05 3.61316E-04
 -1      2213 1.04335E-03 4.67113E-05 4.30635E-04
 -1      2214 7.02458E-04 3.26717E-05 3.70368E-04
 -1      2215 6.25978E-04 1.53017E-05 2.13785E-04
 -1      2216 1.32648E-03 4.80325E-05 3.01266E-04
 -1      2217 2.53404E-03 1.20400E-04 3.86549E-05
 -1      2218 9.45798E-04 4.18638E-05 3.92405E-04
 -1      2219 1.41695E-04-1.30525E-05-3.09222E-05
 -1      2220 5.41987E-04 3.11190E-05 3.27761E-04
 -1      2221 6.31619E-04 3.41739E-05 3.25171E-04
 -1      2222 3.53516E-03 1.62230E-04-5.76735E-04
 -1      2223 3.91554E-04 2.53766E-05 2.87878E-04
 -1      2224 5.83162E-05-1.41781E-05-9.27904E-05
 -1      2225 9.55541E-05-1.10865E-05-1.17810E-05
 -1      2226 1.27308E-04-1.80327E-05-9.18256E-05
 -1      2227 9.64737E-04 1.25686E-05 9.28865E-05
 -1      2228 6.07477E-04-3.05791E-06 4.37410E-05
 -1      2229 3.71646E-04-9.78394E-06-2.77445E-05
 -1      2230 2.22955E-04-1.64103E-05-6.76720E-05
 -1      2231 5.73210E-04 3.94748E-06 1.05038E-04
 -1      2232 6.52587E-03 1.85232E-04-3.79861E-03
 -1      2233 3.30492E-04 2.70857E-05 1.97545E-04
 -1      2234 3.48421E-04 2.72120E-05 2.17299E-04
 -1      2235 3.91621E-04 2.59247E-05 2.52111E-04
 -1      2236 5.38754E-04 2.69076E-05 3.60966E-04
 -1      2237 5.05551E-04 3.18725E-05 2.94048E-04
 -1      2238 2.81169E-04 1.56496E-05 1.66161E-04
 -1      2239 3.02715E-04 2.21722E-05 1.78318E-04
 -1      2240 4.42985E-04 3.15623E-05 2.47033E-04
 -1      2241 2.35668E-04 1.19452E-05 1.34823E-04
 -1      2242 2.64706E-04 1.84911E-05 1.56488E-04
 -1      2243 4.02174E-04 2.66648E-05 2.20957E-04
 -1      2244 1.60443E-04-2.52776E-06 5.03616E-05
 -1      2245 2.00587E-04 5.30926E-06 1.00686E-04
 -1      2246 3.48363E-04 1.48247E-05 1.72924E-04
 -1      2247 2.21187E-04-3.74887E-06 5.02992E-05
 -1      2248 2.46010E-03 8.66992E-05-1.22999E-04
 -1      2249 1.81648E-03 5.55685E-05 2.74731E-05
 -1      2250 1.24703E-03 2.73287E-05 1.58041E-04
 -1      2251 1.07685E-03 3.25278E-05 2.44855E-04
 -1      2252 1.63129E-03 6.85133E-05 3.13718E-04
 -1      2253 1.60790E-03 5.05550E-05 1.62676E-04
 -1      2254 2.22491E-03 1.05229E-04 1.99765E-04
 -1      2255 3.84360E-03 1.52412E-04-9.29366E-04
 -1      2256 2.92680E-03 1.00030E-04-4.37258E-04
 -1      2257 2.97494E-03 1.39382E-04-2.08687E-04
 -1      2258 5.78937E-03 2.40374E-04-2.49197E-03
 -1      2259 4.66892E-03 1.98902E-04-1.47192E-03
 -1      2260 4.31176E-03 2.13875E-04-1.02660E-03
 -1      2261 2.40170E-04-9.01303E-06-2.17730E-06
 -1      2262 3.73687E-03 2.04183E-04-4.74869E-04
 -1      2263 2.75531E-03 1.52118E-04 1.16055E-04
 -1      2264 3.16921E-03 1.73038E-04-1.38618E-04
 -1      2265 2.11805E-03 1.10667E-04 3.61620E-04
 -1      2266 2.42191E-03 1.31371E-04 2.54803E-04
 -1      2267 1.66533E-03 8.26089E-05 4.49299E-04
 -1      2268 1.88714E-03 9.72927E-05 4.18737E-04
 -1      2269 1.76759E-03 8.39286E-05 3.85972E-04
 -1      2270 1.32885E-03 6.10129E-05 4.60024E-04
 -1      2271 1.49199E-03 7.16488E-05 4.59762E-04
 -1      2272 1.42984E-03 6.67304E-05 4.47451E-04
 -1      2273 1.07747E-03 4.68564E-05 4.40699E-04
 -1      2274 1.19992E-03 5.37594E-05 4.52709E-04
 -1      2275 1.15588E-03 5.26384E-05 4.42916E-04
 -1      2276 8.82513E-04 3.68321E-05 4.16168E-04
 -1      2277 9.81957E-04 4.16058E-05 4.29163E-04
 -1      2278 9.42061E-04 4.25528E-05 4.14843E-04
 -1      2279 7.15309E-04 3.02162E-05 3.95619E-04
 -1      2280 8.07431E-04 3.32605E-05 4.08217E-04
 -1      2281 7.74606E-04 3.54979E-05 3.82833E-04
 -1      2282 6.40270E-04 2.88858E-05 3.83322E-04
 -1      2283 6.20818E-04 3.18294E-05 3.48984E-04
 -1      2284 1.18686E-03 5.01894E-05 4.18927E-04
 -1      2285 1.31511E-03 5.68612E-05 4.06757E-04
 -1      2286 1.11628E-03 5.01123E-05 4.26633E-04
 -1      2287 9.91592E-04 4.14677E-05 3.82614E-04
 -1      2288 1.00279E-03 4.50339E-05 4.15679E-04
 -1      2289 8.75135E-04 4.03912E-05 3.91170E-04
 -1      2290 7.89632E-04 3.75240E-05 3.72418E-04
 -1      2291 7.45087E-04 3.63852E-05 3.65208E-04
 -1      2292 6.66062E-04 3.43876E-05 3.31272E-04
 -1      2293 6.69419E-04 3.36348E-05 3.46355E-04
 -1      2294 4.71612E-04 1.57694E-05 2.06739E-04
 -1      2295 5.07630E-04 2.40947E-05 2.47884E-04
 -1      2296 4.47636E-04 9.63863E-06 1.66098E-04
 -1      2297 6.43085E-04 2.07643E-05 2.58896E-04
 -1      2298 4.96237E-04 4.60714E-06 1.30905E-04
 -1      2299 3.36141E-04-6.68157E-07 9.04932E-05
 -1      2300 7.23562E-04 1.54202E-05 2.01349E-04
 -1      2301 8.31391E-04 2.80511E-05 2.92779E-04
 -1      2302 9.55976E-04 3.06362E-05 2.86731E-04
 -1      2303 1.16916E-03 4.39633E-05 3.42258E-04
 -1      2304 5.25102E-04 3.19153E-05 2.79702E-04
 -1      2305 5.47211E-04 3.33587E-05 2.95645E-04
 -1      2306 5.88261E-04 3.27797E-05 3.21994E-04
 -1      2307 1.48798E-03 6.26124E-05 3.81621E-04
 -1      2308 6.83584E-04 3.05363E-05 3.19804E-04
 -1      2309 5.41679E-04 2.86913E-05 2.74369E-04
 -1      2310 5.52571E-04 3.14524E-05 2.85879E-04
 -1      2311 8.02799E-04 3.42460E-05 3.45448E-04
 -1      2312 8.15540E-04 3.76087E-05 3.66899E-04
 -1      2313 8.30077E-04 3.26456E-05 3.28622E-04
 -1      2314 1.28966E-03-5.92120E-05 4.51508E-04
 -1      2315 8.56635E-04-3.46947E-05 3.99222E-04
 -1      2316 3.04298E-04-1.22823E-06 1.21659E-04
 -1      2317 8.35200E-04-1.58586E-05 1.91719E-04
 -1      2318 4.65037E-04-2.52078E-05 2.63448E-04
 -1      2319 1.97134E-03-9.68256E-05 3.06864E-04
 -1      2320 3.83616E-04-1.73904E-05 2.04622E-04
 -1      2321 6.54189E-04-2.55472E-05 2.89438E-04
 -1      2322 7.04048E-04-3.28597E-05 3.38503E-04
 -1      2323 4.18465E-04-2.57646E-05 2.31122E-04
 -1      2324 3.67294E-04 6.48226E-06 3.84370E-05
 -1      2325 1.59806E-03-7.73375E-05 4.31417E-04
 -1      2326 1.04154E-03-4.09048E-05 3.61871E-04
 -1      2327 1.04440E-03-4.42877E-05 4.31512E-04
 -1      2328 7.02923E-04-2.85917E-05 3.69292E-04
 -1      2329 6.25745E-04-1.46138E-05 2.13964E-04
 -1      2330 1.32591E-03-5.29813E-05 3.02669E-04
 -1      2331 2.53519E-03-1.23897E-04 3.93820E-05
 -1      2332 9.46686E-04-4.09398E-05 3.93140E-04
 -1      2333 1.41649E-04 1.49245E-05-3.14521E-05
 -1      2334 5.38782E-04-2.46451E-05 3.26972E-04
 -1      2335 6.31402E-04-3.05721E-05 3.23807E-04
 -1      2336 3.53477E-03-1.63610E-04-5.80358E-04
 -1      2337 3.93184E-04-2.38688E-05 2.86567E-04
 -1      2338 9.49197E-05 1.27682E-05-1.26727E-05
 -1      2339 5.84857E-05 1.50308E-05-9.32826E-05
 -1      2340 1.27339E-04 1.97395E-05-9.23051E-05
 -1      2341 6.08298E-04 5.29405E-06 4.51293E-05
 -1      2342 9.64422E-04-8.65239E-06 1.00170E-04
 -1      2343 2.23185E-04 1.79708E-05-6.73026E-05
 -1      2344 3.73395E-04 1.25443E-05-2.77607E-05
 -1      2345 5.73495E-04-1.60326E-06 1.07662E-04
 -1      2346 6.51724E-03-1.93088E-04-3.80302E-03
 -1      2347 3.48115E-04-2.15622E-05 2.14609E-04
 -1      2348 3.28095E-04-1.69173E-05 1.93336E-04
 -1      2349 5.38048E-04-2.28603E-05 3.60820E-04
 -1      2350 3.89744E-04-2.27157E-05 2.49461E-04
 -1      2351 5.03258E-04-2.45098E-05 2.92837E-04
 -1      2352 3.04009E-04-1.99378E-05 1.78002E-04
 -1      2353 2.84197E-04-1.88128E-05 1.66276E-04
 -1      2354 4.43521E-04-2.68810E-05 2.45093E-04
 -1      2355 2.66844E-04-1.41804E-05 1.54907E-04
 -1      2356 2.34669E-04-9.18666E-06 1.32300E-04
 -1      2357 4.04105E-04-2.17089E-05 2.21339E-04
 -1      2358 1.99726E-04-2.12068E-06 9.80039E-05
 -1      2359 1.59103E-04 6.22322E-06 4.96689E-05
 -1      2360 3.48320E-04-9.74675E-06 1.72449E-04
 -1      2361 2.21171E-04 6.23255E-06 5.02301E-05
 -1      2362 1.80110E-03-5.63620E-05 2.75446E-05
 -1      2363 2.46448E-03-9.13841E-05-1.27737E-04
 -1      2364 1.07343E-03-3.40677E-05 2.50688E-04
 -1      2365 1.25400E-03-3.11465E-05 1.60866E-04
 -1      2366 1.60415E-03-5.36026E-05 1.62864E-04
 -1      2367 1.62896E-03-7.38544E-05 3.13608E-04
 -1      2368 2.22623E-03-1.11119E-04 2.02565E-04
 -1      2369 2.92901E-03-1.01411E-04-4.38239E-04
 -1      2370 3.84375E-03-1.50570E-04-9.28073E-04
 -1      2371 2.97460E-03-1.41930E-04-2.13789E-04
 -1      2372 4.67288E-03-1.96432E-04-1.46589E-03
 -1      2373 5.79371E-03-2.42087E-04-2.49932E-03
 -1      2374 4.31131E-03-2.12898E-04-1.02607E-03
 -1      2375 2.40269E-04 1.09166E-05-2.36280E-06
 -1      2376 3.73655E-03-2.03580E-04-4.80540E-04
 -1      2377 3.16836E-03-1.73145E-04-1.42255E-04
 -1      2378 2.75628E-03-1.53485E-04 1.15053E-04
 -1      2379 2.42199E-03-1.34285E-04 2.53433E-04
 -1      2380 2.11806E-03-1.13058E-04 3.62114E-04
 -1      2381 1.88721E-03-9.97625E-05 4.19877E-04
 -1      2382 1.66591E-03-8.42115E-05 4.51356E-04
 -1      2383 1.76875E-03-8.67315E-05 3.86321E-04
 -1      2384 1.49313E-03-7.24916E-05 4.61283E-04
 -1      2385 1.33061E-03-6.09225E-05 4.60947E-04
 -1      2386 1.43078E-03-6.78349E-05 4.48151E-04
 -1      2387 1.20106E-03-5.22986E-05 4.53584E-04
 -1      2388 1.07865E-03-4.41182E-05 4.41524E-04
 -1      2389 1.15632E-03-5.14781E-05 4.43887E-04
 -1      2390 9.83141E-04-3.80126E-05 4.29588E-04
 -1      2391 8.83455E-04-3.26865E-05 4.16002E-04
 -1      2392 9.43508E-04-3.92554E-05 4.15088E-04
 -1      2393 8.08176E-04-2.88754E-05 4.07456E-04
 -1      2394 7.15363E-04-2.60633E-05 3.94875E-04
 -1      2395 7.75182E-04-3.14997E-05 3.82776E-04
 -1      2396 6.38872E-04-2.43180E-05 3.83364E-04
 -1      2397 6.19534E-04-2.70188E-05 3.47950E-04
 -1      2398 1.31497E-03-5.85080E-05 4.06973E-04
 -1      2399 1.18721E-03-5.16632E-05 4.19660E-04
 -1      2400 9.92674E-04-4.09927E-05 3.83298E-04
 -1      2401 1.11752E-03-4.96629E-05 4.27469E-04
 -1      2402 1.00375E-03-4.29696E-05 4.16594E-04
 -1      2403 7.89697E-04-3.43278E-05 3.72379E-04
 -1      2404 8.77485E-04-3.81425E-05 3.91893E-04
 -1      2405 6.66080E-04-3.16094E-05 3.30720E-04
 -1      2406 7.45404E-04-3.25347E-05 3.64900E-04
 -1      2407 6.69903E-04-2.99260E-05 3.45549E-04
 -1      2408 5.07619E-04-2.15886E-05 2.48201E-04
 -1      2409 4.73074E-04-1.41264E-05 2.07947E-04
 -1      2410 6.43447E-04-2.07743E-05 2.59430E-04
 -1      2411 4.47767E-04-7.35160E-06 1.65925E-04
 -1      2412 3.36202E-04 3.03840E-06 9.05373E-05
 -1      2413 4.96461E-04-2.80376E-06 1.30677E-04
 -1      2414 7.23417E-04-1.43273E-05 2.03510E-04
 -1      2415 9.55571E-04-3.17826E-05 2.88183E-04
 -1      2416 8.30861E-04-2.76970E-05 2.92610E-04
 -1      2417 1.17125E-03-4.63610E-05 3.42332E-04
 -1      2418 5.46181E-04-2.87423E-05 2.93494E-04
 -1      2419 5.26407E-04-2.87092E-05 2.79053E-04
 -1      2420 5.87629E-04-2.79585E-05 3.20430E-04
 -1      2421 1.48538E-03-6.58508E-05 3.82442E-04
 -1      2422 5.43953E-04-2.61891E-05 2.75829E-04
 -1      2423 6.84727E-04-3.02398E-05 3.20826E-04
 -1      2424 5.54040E-04-2.91539E-05 2.86392E-04
 -1      2425 8.17046E-04-3.67151E-05 3.67799E-04
 -1      2426 8.02799E-04-3.33574E-05 3.45667E-04
 -1      2427 8.30455E-04-3.24770E-05 3.28655E-04
 -1      2428 6.19106E-03 1.86344E-04-8.61289E-03
 -1      2429-2.63522E-04-1.20175E-04-2.88296E-04
 -1      2430 1.67767E-03-2.14389E-04-1.68333E-03
 -1      2431 4.79364E-03 9.86012E-05-5.64047E-03
 -1      2432-8.37646E-05-4.04203E-04-8.66596E-04
 -1      2433 3.83290E-03-3.33216E-05-1.37941E-02
 -1      2434 3.74342E-03 6.95365E-05-2.82399E-03
 -1      2435 2.60340E-03-1.71032E-04-8.98237E-03
 -1      2436 6.60724E-04-1.46609E-04-5.14770E-04
 -1      2437-6.06037E-05-1.23790E-04-2.62495E-04
 -1      2438 5.18192E-03 1.03670E-06-1.74839E-02
 -1      2439 2.27925E-03-2.86156E-04-4.64161E-03
 -1      2440-2.23433E-04-1.02551E-04-2.47851E-04
 -1      2441-2.52823E-04-3.31816E-04-6.56286E-04
 -1      2442-2.03535E-04-2.07128E-04-4.31986E-04
 -1      2443 2.33981E-03-5.73192E-05-1.81926E-02
 -1      2444-2.32325E-04-4.47151E-04-8.35088E-04
 -1      2445-2.19788E-04-3.67257E-04-6.64455E-04
 -1      2446-1.64263E-05-5.54383E-04-1.28327E-03
 -1      2447-1.78594E-04-5.06041E-04-1.02279E-03
 -1      2448-2.17431E-04-3.82345E-04-7.68341E-04
 -1      2449-1.88387E-04-2.83291E-04-5.38671E-04
 -1      2450-1.09284E-04-1.93292E-04-3.77787E-04
 -1      2451-1.50871E-04-1.40213E-04-3.07925E-04
 -1      2452-1.56261E-04-9.77221E-05-2.33391E-04
 -1      2453-1.56005E-04-5.54885E-05-1.53507E-04
 -1      2454-2.42629E-04-4.34345E-05-1.78112E-04
 -1      2455-8.55945E-05-1.26708E-06-4.48332E-05
 -1      2456 2.60004E-04 3.09521E-05 6.26139E-05
 -1      2457-2.61146E-04-3.59016E-05-1.69196E-04
 -1      2458-2.17704E-04-1.69919E-05-1.17694E-04
 -1      2459-2.08088E-04-1.29554E-04-2.88527E-04
 -1      2460 5.72039E-03 2.81031E-04-4.33705E-03
 -1      2461 6.31100E-03 2.69526E-04-6.36424E-03
 -1      2462 7.08712E-03 3.03329E-04-7.84678E-03
 -1      2463 7.08594E-03 3.02508E-04-7.86638E-03
 -1      2464 5.46952E-03 1.46904E-04-7.06954E-03
 -1      2465 6.99950E-03 2.64489E-05-1.93897E-02
 -1      2466 4.67500E-03-1.36626E-05-1.93684E-02
 -1      2467 6.96956E-03 4.23502E-05-1.69611E-02
 -1      2468 3.24608E-03-3.90699E-05-1.97192E-02
 -1      2469 9.19350E-04-7.56548E-05-1.97229E-02
 -1      2470 9.40993E-04-8.98890E-05-1.73046E-02
 -1      2471 1.43461E-03-4.18047E-04-5.77021E-03
 -1      2472 1.28972E-03-4.76921E-04-4.21476E-03
 -1      2473 1.26950E-03-2.42713E-04-1.02634E-02
 -1      2474 1.47243E-03-3.24868E-04-7.98428E-03
 -1      2475 2.42078E-03-2.43802E-04-6.68362E-03
 -1      2476 7.08881E-03 3.01907E-04-7.89086E-03
 -1      2477 7.30016E-03 2.34321E-04-1.00762E-02
 -1      2478-2.41505E-04-2.70769E-04-5.37584E-04
 -1      2479-2.16610E-04-1.54982E-04-3.37234E-04
 -1      2480 6.88924E-04 3.32754E-05 2.65921E-05
 -1      2481 1.40703E-03 7.14971E-05-9.47019E-05
 -1      2482 2.19572E-04-1.52184E-04-3.61750E-04
 -1      2483 2.01005E-03 5.19605E-05-5.42360E-04
 -1      2484 2.99261E-03 1.06865E-04-1.20409E-03
 -1      2485 1.09025E-03-2.08717E-04-9.90659E-04
 -1      2486 4.10756E-03 2.35024E-04-1.68191E-03
 -1      2487 5.10519E-03 2.73316E-04-2.99842E-03
 -1      2488 2.61316E-03-8.56696E-05-2.20174E-03
 -1      2489 4.24728E-03 7.59393E-05-4.12129E-03
 -1      2490-2.55393E-04-1.13457E-04-2.73587E-04
 -1      2491 3.76659E-03-2.93451E-05-1.78349E-02
 -1      2492 1.16307E-03-4.54328E-04-2.59361E-03
 -1      2493 6.74878E-04-4.79255E-04-1.87707E-03
 -1      2494 3.42450E-04-4.20046E-04-1.16034E-03
 -1      2495 2.08620E-04-2.96921E-04-7.36532E-04
 -1      2496 1.95849E-03-2.89864E-04-2.95110E-03
 -1      2497 1.73640E-03-9.29461E-05-1.51059E-02
 -1      2498 1.82781E-03-1.36069E-04-1.26735E-02
 -1      2499 3.18062E-03-8.56689E-05-1.13393E-02
 -1      2500 3.09837E-03-4.95036E-05-1.59974E-02
 -1      2501 6.16016E-03 8.31751E-05-1.26721E-02
 -1      2502 6.23762E-03 4.38612E-05-1.51098E-02
 -1      2503 5.08628E-03 4.63873E-05-1.11223E-02
 -1      2504 4.49342E-03-1.11044E-05-1.56393E-02
 -1      2505 3.79889E-03-6.06911E-05-7.20012E-03
 -1      2506 4.40024E-03 5.38448E-06-8.77876E-03
 -1      2507-2.62570E-04-2.23187E-04-4.64172E-04
 -1      2508-2.14447E-04-2.49343E-04-5.17521E-04
 -1      2509-2.51853E-04-1.79116E-04-3.88368E-04
 -1      2510 3.04940E-03-1.11416E-04-3.67015E-03
 -1      2511 3.48982E-03-8.80615E-05-5.12554E-03
 -1      2512-7.57253E-05-2.55010E-04-5.45119E-04
 -1      2513 3.42665E-03 8.70689E-05-8.55470E-03
 -1      2514-2.61359E-04 1.20134E-04-2.88255E-04
 -1      2515 4.87410E-03-1.21185E-04-5.33323E-03
 -1      2516 1.68423E-03 2.12125E-04-1.68427E-03
 -1      2517-7.79601E-05 4.02700E-04-8.68513E-04
 -1      2518 4.42874E-03-5.68346E-07-1.37433E-02
 -1      2519 6.35356E-03-2.40142E-04-7.47820E-03
 -1      2520 3.75917E-03-7.65028E-05-2.79450E-03
 -1      2521 6.66485E-04 1.46563E-04-5.13891E-04
 -1      2522 3.00942E-03 3.38644E-05-1.77614E-02
 -1      2523-5.28360E-05 1.23306E-04-2.65839E-04
 -1      2524 2.40727E-03 2.58269E-04-4.54055E-03
 -1      2525 6.14781E-03-1.60935E-04-9.60335E-03
 -1      2526-2.20948E-04 1.02585E-04-2.46139E-04
 -1      2527-2.46922E-04 3.31949E-04-6.53054E-04
 -1      2528-2.00368E-04 2.06517E-04-4.30727E-04
 -1      2529 5.95312E-03-2.40746E-05-1.82404E-02
 -1      2530-1.05900E-04 1.92450E-04-3.76575E-04
 -1      2531-1.84958E-04 2.82080E-04-5.38193E-04
 -1      2532-1.47959E-04 1.39704E-04-3.06104E-04
 -1      2533-2.14992E-04 3.66129E-04-6.64066E-04
 -1      2534-2.25315E-04 4.45170E-04-8.34311E-04
 -1      2535-1.73355E-04 5.03616E-04-1.02461E-03
 -1      2536-1.35599E-05 5.53582E-04-1.28332E-03
 -1      2537-2.12849E-04 3.81085E-04-7.69428E-04
 -1      2538-1.53772E-04 5.60286E-05-1.53246E-04
 -1      2539-1.54032E-04 9.71800E-05-2.31152E-04
 -1      2540-2.39431E-04 4.25982E-05-1.77863E-04
 -1      2541 2.66354E-04-2.89233E-05 6.13305E-05
 -1      2542-7.94686E-05 2.22463E-06-4.50174E-05
 -1      2543-2.13426E-04 1.73843E-05-1.17112E-04
 -1      2544-2.56392E-04 3.63508E-05-1.68658E-04
 -1      2545-2.04367E-04 1.28775E-04-2.89580E-04
 -1      2546 6.35113E-03-2.82652E-04-6.20483E-03
 -1      2547 5.75514E-03-2.95078E-04-4.20180E-03
 -1      2548 7.15361E-03-3.33278E-04-7.31713E-03
 -1      2549 7.15058E-03-3.33844E-04-7.29356E-03
 -1      2550 5.59037E-03-1.84688E-04-6.37602E-03
 -1      2551 1.25985E-03 5.75923E-05-1.95105E-02
 -1      2552 3.58457E-03 1.98029E-05-1.95087E-02
 -1      2553 1.28404E-03 7.30385E-05-1.70902E-02
 -1      2554 5.06369E-03-4.95703E-06-1.97476E-02
 -1      2555 7.39169E-03-4.28996E-05-1.97697E-02
 -1      2556 7.36476E-03-5.92493E-05-1.73439E-02
 -1      2557 7.15663E-03-3.32711E-04-7.34074E-03
 -1      2558 7.28847E-03-2.19416E-04-1.05890E-02
 -1      2559 7.08936E-03-2.86074E-04-8.36140E-03
 -1      2560 6.26193E-03-2.00235E-04-8.51373E-03
 -1      2561 1.89083E-03 2.77283E-04-7.77201E-03
 -1      2562 1.72014E-03 2.06887E-04-1.00374E-02
 -1      2563 1.35601E-03 4.60583E-04-4.16360E-03
 -1      2564 1.52369E-03 4.05969E-04-5.69470E-03
 -1      2565 2.87333E-03 1.81293E-04-6.43222E-03
 -1      2566-2.37764E-04 2.69936E-04-5.35387E-04
 -1      2567-2.13656E-04 1.54974E-04-3.36040E-04
 -1      2568 1.41220E-03-7.06334E-05-9.42893E-05
 -1      2569 6.95559E-04-3.18069E-05 2.71121E-05
 -1      2570 2.23791E-04 1.54244E-04-3.64202E-04
 -1      2571 2.99875E-03-1.08734E-04-1.20516E-03
 -1      2572 2.01658E-03-5.22471E-05-5.42383E-04
 -1      2573 1.09605E-03 2.08413E-04-9.90356E-04
 -1      2574 5.11583E-03-2.77452E-04-2.98449E-03
 -1      2575 4.11740E-03-2.39624E-04-1.67081E-03
 -1      2576 2.62403E-03 8.05938E-05-2.18893E-03
 -1      2577 4.29318E-03-9.23813E-05-3.97108E-03
 -1      2578-2.53884E-04 1.13289E-04-2.73616E-04
 -1      2579 4.47759E-03 4.39256E-06-1.79969E-02
 -1      2580 6.54958E-03-6.25586E-05-1.50894E-02
 -1      2581 6.45901E-03-1.06348E-04-1.26554E-02
 -1      2582 5.32714E-03-6.29978E-05-1.16313E-02
 -1      2583 5.17613E-03-1.73411E-05-1.59937E-02
 -1      2584 2.13364E-03 1.12610E-04-1.26470E-02
 -1      2585 2.04942E-03 7.30476E-05-1.50791E-02
 -1      2586 3.89482E-03 3.07925E-05-1.10924E-02
 -1      2587 3.73245E-03 2.18871E-05-1.57544E-02
 -1      2588 6.80507E-04 4.77287E-04-1.87758E-03
 -1      2589 1.16939E-03 4.51782E-04-2.59514E-03
 -1      2590 3.46518E-04 4.19403E-04-1.15955E-03
 -1      2591 2.14471E-04 2.96103E-04-7.36397E-04
 -1      2592 2.01531E-03 2.72499E-04-2.91227E-03
 -1      2593 4.21693E-03 1.86321E-06-6.84820E-03
 -1      2594 4.90336E-03-6.83669E-05-7.98928E-03
 -1      2595 3.60278E-03 6.38327E-05-4.92470E-03
 -1      2596 4.75605E-03-4.34786E-05-9.07155E-03
 -1      2597-2.08687E-04 2.48407E-04-5.18796E-04
 -1      2598-2.58398E-04 2.23031E-04-4.61857E-04
 -1      2599-2.48632E-04 1.78651E-04-3.86765E-04
 -1      2600 3.11835E-03 9.33502E-05-3.60913E-03
 -1      2601-6.82330E-05 2.54905E-04-5.46079E-04
 -1      2602 2.51813E-03-2.62587E-06 2.55556E-04
 -1      2603 9.86776E-04 6.18635E-06 4.36488E-04
 -1      2604 5.92537E-03-2.57757E-05-2.70855E-03
 -1      2605 4.76752E-04 2.83143E-06 4.00084E-04
 -1      2606 1.48760E-03 7.58223E-06 4.49113E-04
 -1      2607 7.40644E-03-4.43772E-06-5.93154E-03
 -1      2608 1.81853E-03-4.24207E-07 4.20848E-04
 -1      2609 1.16335E-03 1.62378E-06 4.45114E-04
 -1      2610 4.80636E-03-1.39937E-05-1.25237E-03
 -1      2611 3.73206E-03 1.75142E-05-3.58303E-04
 -1      2612 7.96716E-04 6.44942E-07 4.30260E-04
 -1      2613 6.12345E-04 2.16551E-06 4.22315E-04
 -1      2614 3.01995E-03 2.69106E-05 5.15973E-05
 -1      2615 6.50152E-03 4.88219E-05-3.71559E-03
 -1      2616 2.12419E-03 5.59119E-06 3.64836E-04
 -1      2617 1.31359E-03-1.20765E-05 4.49918E-04
 -1      2618 4.45714E-03 1.07717E-04-9.11877E-04
 -1      2619 5.38935E-03 8.20898E-05-1.91255E-03
 -1      2620 4.26243E-03-9.54196E-05-7.47403E-04
 -1      2621 6.81588E-03-6.57157E-05-4.36449E-03
 -1      2622 7.47896E-03-1.08442E-04-6.05845E-03
 -1      2623 3.93909E-04 2.15730E-06 3.73852E-04
 -1      2624 3.91549E-04-1.14079E-05 3.70701E-04
 -1      2625 5.05479E-04-7.33463E-06 4.04372E-04
 -1      2626 3.88967E-04 1.40594E-05 3.70181E-04
 -1      2627 5.04718E-04 1.11663E-05 4.05019E-04
 -1      2628 7.98170E-03-2.56167E-04-7.46108E-03
 -1      2629 7.96036E-03-1.91526E-04-7.53090E-03
 -1      2630 7.14102E-03-1.50576E-04-4.94731E-03
 -1      2631 7.71047E-03-1.25301E-04-6.77020E-03
 -1      2632 7.92072E-03-1.13832E-04-7.56607E-03
 -1      2633 7.70669E-03-9.79110E-05-6.81688E-03
 -1      2634 7.97964E-03-3.42314E-04-7.30930E-03
 -1      2635 7.95511E-03 1.87423E-04-7.52682E-03
 -1      2636 7.97405E-03 2.50980E-04-7.46124E-03
 -1      2637 7.92538E-03 1.13571E-04-7.55783E-03
 -1      2638 7.38739E-03 1.39859E-04-5.64031E-03
 -1      2639 7.97338E-03 3.38913E-04-7.30636E-03
 -1      2640 7.97712E-03 3.38224E-04-7.32941E-03
 -1      2641 7.98343E-03-3.41647E-04-7.33244E-03
 -1      2642 6.06906E-03 1.57590E-04-2.80386E-03
 -1      2643 5.32695E-03 1.69001E-04-1.76808E-03
 -1      2644 7.67614E-03 4.89372E-05-6.74328E-03
 -1      2645 7.07197E-03 9.48205E-05-4.90495E-03
 -1      2646 6.96688E-03 2.27980E-05-4.75706E-03
 -1      2647 6.62221E-03 1.25078E-04-3.83584E-03
 -1      2648 5.95287E-03 6.58720E-05-2.72120E-03
 -1      2649 4.83592E-03 1.89311E-04-1.23836E-03
 -1      2650 4.16046E-03 1.78355E-04-6.38004E-04
 -1      2651 4.91135E-03 9.89833E-05-1.36052E-03
 -1      2652 3.41983E-03 1.24022E-04-1.45720E-04
 -1      2653 2.94151E-03 1.04416E-04 9.93261E-05
 -1      2654 3.80264E-03 1.26954E-04-3.89681E-04
 -1      2655 3.35731E-03 2.28490E-05-1.24520E-04
 -1      2656 4.08053E-03 6.15930E-05-6.06546E-04
 -1      2657 2.68563E-03 8.15925E-05 2.02133E-04
 -1      2658 2.32997E-03 6.66595E-05 3.20466E-04
 -1      2659 2.75656E-03 1.05793E-05 1.67041E-04
 -1      2660 1.97881E-03 5.50565E-05 3.99763E-04
 -1      2661 1.74356E-03 4.52205E-05 4.32841E-04
 -1      2662 2.31052E-03 1.99122E-06 3.20193E-04
 -1      2663 2.14209E-03 6.43727E-05 3.66363E-04
 -1      2664 1.96323E-03 2.37707E-06 3.98363E-04
 -1      2665 1.57616E-03 4.33288E-05 4.47495E-04
 -1      2666 1.40747E-03 3.70132E-05 4.53363E-04
 -1      2667 1.64159E-03 4.14346E-06 4.40174E-04
 -1      2668 1.24361E-03 2.87129E-05 4.49991E-04
 -1      2669 1.12449E-03 2.46896E-05 4.44413E-04
 -1      2670 1.39635E-03-3.15044E-06 4.50880E-04
 -1      2671 1.32277E-03 2.45962E-05 4.51002E-04
 -1      2672 1.23487E-03-4.60715E-06 4.48307E-04
 -1      2673 1.03541E-03 2.41240E-05 4.40004E-04
 -1      2674 9.40694E-04 2.12012E-05 4.35237E-04
 -1      2675 1.07067E-03 4.27010E-06 4.40932E-04
 -1      2676 8.45644E-04 1.62273E-05 4.31874E-04
 -1      2677 7.59773E-04 1.42088E-05 4.29804E-04
 -1      2678 8.89495E-04 3.14706E-06 4.32985E-04
 -1      2679 6.68651E-04 1.41421E-05 4.26001E-04
 -1      2680 5.73327E-04 1.28850E-05 4.17283E-04
 -1      2681 7.07166E-04 1.33383E-06 4.28669E-04
 -1      2682 5.46260E-04 2.32024E-06 4.14198E-04
 -1      2683 5.60037E-03-1.33671E-04-2.14389E-03
 -1      2684 6.32765E-03-1.20319E-04-3.29753E-03
 -1      2685 6.37727E-03-4.48912E-05-3.47599E-03
 -1      2686 6.78285E-03-1.34561E-04-4.15379E-03
 -1      2687 7.15904E-03-8.92012E-05-5.17232E-03
 -1      2688 4.06676E-03-1.69586E-04-5.72064E-04
 -1      2689 4.72534E-03-1.84724E-04-1.13987E-03
 -1      2690 5.00884E-03-1.38344E-04-1.44861E-03
 -1      2691 5.35991E-03-1.99528E-05-1.89664E-03
 -1      2692 4.52947E-03-5.58362E-05-9.83813E-04
 -1      2693 3.26801E-03-9.57253E-05-6.65063E-05
 -1      2694 3.80323E-03-1.08912E-04-3.97911E-04
 -1      2695 3.98898E-03-3.67560E-05-5.41565E-04
 -1      2696 2.32990E-03-7.09669E-05 3.21464E-04
 -1      2697 2.68590E-03-8.48398E-05 2.00892E-04
 -1      2698 2.94129E-03-8.00068E-05 9.19778E-05
 -1      2699 1.74366E-03-4.64674E-05 4.33942E-04
 -1      2700 1.97917E-03-5.65073E-05 4.00783E-04
 -1      2701 2.14154E-03-5.97746E-05 3.66203E-04
 -1      2702 1.40787E-03-2.98098E-05 4.52601E-04
 -1      2703 1.57635E-03-3.63988E-05 4.47188E-04
 -1      2704 1.12493E-03-2.13248E-05 4.44627E-04
 -1      2705 1.24409E-03-2.65204E-05 4.50328E-04
 -1      2706 1.32441E-03-3.64924E-05 4.52717E-04
 -1      2707 9.40939E-04-1.28150E-05 4.34863E-04
 -1      2708 1.03572E-03-1.61227E-05 4.39653E-04
 -1      2709 7.60314E-04-1.17671E-05 4.29485E-04
 -1      2710 8.46228E-04-1.32060E-05 4.31496E-04
 -1      2711 5.73623E-04-9.02006E-06 4.17363E-04
 -1      2712 6.68459E-04-1.01714E-05 4.25945E-04
 -1      2713 7.67152E-03-5.26607E-05-6.74628E-03
 -1      2714 7.43714E-03-5.70118E-05-5.99878E-03
 -1      2715 5.08745E-03 3.54021E-05-1.56879E-03
 -1      2716 5.65346E-03 2.69921E-05-2.29424E-03
 -1      2717 6.21226E-03 1.35119E-05-3.18995E-03
 -1      2718 6.65102E-03-8.44898E-06-4.03812E-03
 -1      2719 7.11631E-03-3.20108E-05-5.12119E-03
 -1      2720 4.62836E-03 4.58166E-05-1.07936E-03
 -1      2721 4.35823E-03 5.87992E-06-8.41905E-04
 -1      2722 3.73752E-05-3.03131E-04-9.23011E-03
 -1      2723 4.79990E-05 2.98874E-04-9.21597E-03
 -1      2724 1.86402E-04 2.22932E-05-8.13886E-03
 -1      2725 1.34837E-04 7.64635E-05-8.51868E-03
 -1      2726 1.84884E-04-3.40615E-05-8.13010E-03
 -1      2727 1.46275E-04-8.28100E-05-8.50349E-03
 -1      2728-4.73066E-04 1.11568E-04-1.63504E-02
 -1      2729-4.80489E-04-1.23231E-04-1.63467E-02
 -1      2730 1.87286E-04-3.99250E-04-8.13552E-03
 -1      2731-1.07437E-04-3.02239E-04-1.03580E-02
 -1      2732 2.11217E-04-2.85457E-04-8.27026E-03
 -1      2733-1.00444E-04 2.92260E-04-1.03582E-02
 -1      2734 1.90618E-04 3.89270E-04-8.14915E-03
 -1      2735 2.14579E-04 2.84163E-04-8.27324E-03
 -1      2736-2.61639E-04 2.07262E-04-1.18814E-02
 -1      2737-3.72117E-04 1.68628E-04-1.39261E-02
 -1      2738 8.36940E-06 1.91924E-04-9.42785E-03
 -1      2739-1.46343E-04 2.17106E-04-1.07240E-02
 -1      2740 1.59954E-04 1.60826E-04-8.54123E-03
 -1      2741-1.56722E-04-2.24813E-04-1.07270E-02
 -1      2742 6.41155E-06-1.98108E-04-9.42364E-03
 -1      2743 1.59019E-04-1.69012E-04-8.54255E-03
 -1      2744-2.69087E-04-2.17890E-04-1.18779E-02
 -1      2745-3.80482E-04-1.80172E-04-1.39227E-02
 -1      2746 8.26752E-03 2.70942E-04-9.26129E-03
 -1      2747 8.27436E-03-2.75731E-04-9.26155E-03
 -1      2748 8.79977E-03-9.97069E-05-1.63735E-02
 -1      2749 8.16027E-03-9.97772E-05-8.61268E-03
 -1      2750 8.08295E-03-4.21031E-05-8.24031E-03
 -1      2751 8.08856E-03 3.88773E-05-8.23619E-03
 -1      2752 8.15866E-03 9.78278E-05-8.61031E-03
 -1      2753 8.79066E-03 9.06714E-05-1.63691E-02
 -1      2754 8.40789E-03 2.69818E-04-1.03843E-02
 -1      2755 8.12075E-03 3.44506E-04-8.22997E-03
 -1      2756 8.12951E-03 2.57836E-04-8.35253E-03
 -1      2757 8.12710E-03-3.48834E-04-8.23200E-03
 -1      2758 8.41459E-03-2.74910E-04-1.03871E-02
 -1      2759 8.13618E-03-2.61789E-04-8.35307E-03
 -1      2760 8.69614E-03-1.62124E-04-1.39346E-02
 -1      2761 8.57750E-03-2.00169E-04-1.18973E-02
 -1      2762 8.46217E-03-2.06282E-04-1.07529E-02
 -1      2763 8.30968E-03-1.89588E-04-9.47781E-03
 -1      2764 8.17401E-03-1.73265E-04-8.62786E-03
 -1      2765 8.30345E-03 1.85433E-04-9.47602E-03
 -1      2766 8.45644E-03 1.98640E-04-1.07520E-02
 -1      2767 8.16503E-03 1.70686E-04-8.63425E-03
 -1      2768 8.57026E-03 1.92571E-04-1.18962E-02
 -1      2769 8.68710E-03 1.53818E-04-1.39306E-02
 -1      2770 5.44660E-04-4.73013E-04-2.94087E-03
 -1      2771 5.47961E-04 4.69582E-04-2.94139E-03
 -1      2772 7.20313E-04-1.03168E-05-4.18446E-03
 -1      2773 7.42178E-04 1.96861E-04-4.18863E-03
 -1      2774 7.45374E-04-1.90219E-04-4.18111E-03
 -1      2775 4.40576E-04-2.55895E-04-2.09476E-03
 -1      2776 4.42351E-04 2.49639E-04-2.09840E-03
 -1      2777 5.35912E-04-1.45185E-06-2.12333E-03
 -1      2778 1.61871E-04 5.11104E-04-1.62950E-03
 -1      2779 6.74147E-04 4.43019E-04-5.04419E-03
 -1      2780 1.54607E-04-5.05989E-04-1.62780E-03
 -1      2781 6.70192E-04-4.47549E-04-5.03774E-03
 -1      2782-9.69613E-06 5.63095E-04-1.25413E-03
 -1      2783 1.45240E-04 4.37043E-04-1.34591E-03
 -1      2784 1.49082E-04 6.11247E-04-1.78286E-03
 -1      2785 1.48366E-04-4.35981E-04-1.34748E-03
 -1      2786-1.27889E-05-5.65173E-04-1.25411E-03
 -1      2787 1.44368E-04-6.09764E-04-1.78293E-03
 -1      2788 6.17586E-04-5.59828E-04-4.43079E-03
 -1      2789 5.57010E-04-4.76396E-04-6.01312E-03
 -1      2790 6.03708E-04-3.35480E-04-6.16710E-03
 -1      2791 5.59093E-04 4.76297E-04-6.01375E-03
 -1      2792 6.23297E-04 5.57099E-04-4.43453E-03
 -1      2793 6.07945E-04 3.29989E-04-6.16984E-03
 -1      2794 3.67647E-04-1.89076E-04-1.60701E-03
 -1      2795 3.04316E-04-3.19574E-04-1.53262E-03
 -1      2796 3.21659E-04-3.79174E-04-1.85611E-03
 -1      2797 4.29590E-04 6.23766E-05-1.61613E-03
 -1      2798 4.28968E-04-6.48256E-05-1.61809E-03
 -1      2799 5.12586E-04-1.30675E-04-2.12837E-03
 -1      2800 3.11230E-04 3.18887E-04-1.53048E-03
 -1      2801 3.67644E-04 1.87220E-04-1.60751E-03
 -1      2802 5.13754E-04 1.26738E-04-2.12804E-03
 -1      2803 3.30901E-04 3.80087E-04-1.85546E-03
 -1      2804 3.53074E-04-5.97459E-04-2.39274E-03
 -1      2805 5.56231E-04-5.77559E-04-3.40590E-03
 -1      2806 3.56901E-04-4.97839E-04-2.20305E-03
 -1      2807 6.56171E-04-4.65778E-04-3.89260E-03
 -1      2808 5.61226E-04 5.73675E-04-3.40706E-03
 -1      2809 3.56636E-04 5.95396E-04-2.39308E-03
 -1      2810 3.60274E-04 4.97529E-04-2.20414E-03
 -1      2811 6.60171E-04 4.61563E-04-3.89506E-03
 -1      2812 7.00931E-04-2.29804E-04-5.66395E-03
 -1      2813 7.07635E-04-1.16593E-04-5.74635E-03
 -1      2814 7.36100E-04-3.07034E-04-4.66209E-03
 -1      2815 7.02714E-04-3.90395E-05-5.66948E-03
 -1      2816 7.02922E-04 3.08402E-05-5.69997E-03
 -1      2817 7.38434E-04-9.83183E-05-4.19617E-03
 -1      2818 7.07452E-04 1.12556E-04-5.71277E-03
 -1      2819 7.04915E-04 2.25993E-04-5.66584E-03
 -1      2820 7.42361E-04 9.33916E-05-4.20938E-03
 -1      2821 7.39574E-04 3.03760E-04-4.66360E-03
 -1      2822 6.76099E-04-3.20056E-04-3.56644E-03
 -1      2823 5.35277E-04-3.62550E-04-2.52114E-03
 -1      2824 6.31275E-04-2.29884E-04-2.99846E-03
 -1      2825 6.77050E-04 3.18800E-04-3.56675E-03
 -1      2826 6.30584E-04 2.28012E-04-3.00330E-03
 -1      2827 5.37501E-04 3.59080E-04-2.52220E-03
 -1      2828 6.76866E-04-3.73464E-06-3.02103E-03
 -1      2829 6.87992E-04 1.12807E-04-3.03981E-03
 -1      2830 6.88548E-04-1.15068E-04-3.03769E-03
 -1      2831 4.12232E-03-6.65898E-06-1.43581E-02
 -1      2832 4.17871E-03 3.51672E-07-2.28760E-02
 -1      2833 4.17514E-03-1.31909E-05-2.08439E-02
 -1      2834 4.24997E-03-8.57537E-06-2.70481E-02
 -1      2835 4.15780E-03 1.57738E-06-1.58736E-02
 -1      2836 3.44465E-03-6.03613E-06-3.34923E-03
 -1      2837 5.23162E-05 4.16423E-07-3.30751E-04
 -1      2838 1.16091E-04 6.81634E-07 1.04263E-04
 -1      2839-6.54700E-05 1.20264E-04-3.68216E-04
 -1      2840-7.13605E-05-1.21222E-04-3.69167E-04
 -1      2841-2.82052E-05-4.30068E-05-1.04890E-04
 -1      2842 5.76631E-05 1.35209E-07 5.32219E-05
 -1      2843-9.76074E-06-1.52590E-07-4.25637E-05
 -1      2844 2.69023E-03-3.25779E-06-1.98506E-02
 -1      2845-2.69688E-05 4.38388E-05-1.16782E-04
 -1      2846 4.10370E-03-2.34729E-05-6.11399E-03
 -1      2847-7.68831E-06 1.65011E-05-1.34538E-04
 -1      2848-3.30436E-05 1.88016E-05-3.46186E-05
 -1      2849-1.95568E-05-1.67813E-05-8.09417E-06
 -1      2850 4.25249E-03-1.02689E-05-1.52402E-02
 -1      2851-3.36519E-06-1.66900E-05 1.04876E-07
 -1      2852 1.28419E-04-7.74315E-05-5.42384E-04
 -1      2853 1.30181E-04 7.61923E-05-5.38461E-04
 -1      2854-3.40344E-06-5.91147E-06-3.44499E-08
 -1      2855-4.19609E-06 8.05524E-06 1.08181E-07
 -1      2856-3.38753E-06 1.73258E-05 1.55532E-07
 -1      2857 4.13700E-03-6.33063E-06-1.02302E-02
 -1      2858-4.91473E-06-1.48117E-05 4.84191E-07
 -1      2859-7.60280E-07-5.43604E-06-2.80862E-07
 -1      2860 1.20629E-06-2.90304E-06-6.20893E-07
 -1      2861-1.38654E-05 1.59963E-05-4.24711E-06
 -1      2862-1.02637E-05-1.77053E-05-1.28080E-04
 -1      2863 9.37841E-05 6.86942E-08 7.62184E-05
 -1      2864-7.57496E-06 1.35789E-05 2.65432E-07
 -1      2865-4.47273E-06-8.04182E-06 1.31873E-07
 -1      2866-9.85661E-07 4.95277E-06-3.15233E-07
 -1      2867 6.14218E-03-5.38010E-06-2.60266E-02
 -1      2868 4.19702E-03-2.86650E-06-9.82334E-03
 -1      2869 4.10141E-03 2.40803E-05-5.79354E-03
 -1      2870 1.81230E-03-4.38860E-07-1.34813E-03
 -1      2871 1.41829E-03-1.12696E-04-1.13554E-03
 -1      2872 1.43665E-03 1.11530E-04-1.13024E-03
 -1      2873-3.36907E-05-2.02707E-05-3.91611E-05
 -1      2874 1.57597E-05 1.52449E-05 2.23644E-06
 -1      2875-8.72156E-06-2.85666E-05-3.61563E-06
 -1      2876 1.56512E-05 5.62955E-06 3.40124E-06
 -1      2877 4.53699E-05 1.76674E-05 2.16965E-05
 -1      2878-5.22681E-06 1.47815E-05 2.91181E-07
 -1      2879-2.36375E-06 8.66256E-07-2.35670E-07
 -1      2880 1.04950E-05 3.12528E-07 1.35872E-05
 -1      2881 1.40035E-03-3.62438E-05-2.45639E-02
 -1      2882-4.99607E-06-1.06657E-05 4.33473E-07
 -1      2883 3.33720E-05-1.21346E-05 1.92279E-05
 -1      2884 2.45707E-05-1.08440E-05 5.78389E-06
 -1      2885-3.92219E-06-7.96085E-06-6.92633E-09
 -1      2886 5.87919E-04 7.16371E-07-6.47211E-04
 -1      2887 2.09563E-03 2.29500E-06-2.77657E-02
 -1      2888 4.28571E-03-2.98808E-06-9.99336E-03
 -1      2889 3.14285E-04 1.39046E-04-5.51964E-04
 -1      2890 6.38513E-05-2.28127E-05 4.37475E-05
 -1      2891 3.17607E-06 8.39906E-06-5.80055E-07
 -1      2892 2.72120E-03 7.00188E-05-2.83664E-03
 -1      2893-2.49132E-05 5.00326E-05-5.00567E-05
 -1      2894 5.82626E-06-1.56688E-07 3.86662E-06
 -1      2895-1.07360E-05-1.67208E-05-1.79139E-06
 -1      2896 4.59599E-05 2.66974E-05 2.37615E-05
 -1      2897 2.71150E-03-7.08812E-05-2.83078E-03
 -1      2898 9.34656E-05-1.58752E-04-5.21635E-04
 -1      2899 2.89564E-05 9.84691E-06 2.21649E-05
 -1      2900-3.08327E-06 4.46722E-06-1.48737E-07
 -1      2901-6.91106E-07-1.66856E-06-5.80290E-07
 -1      2902 1.10884E-05 5.75684E-06-4.57797E-07
 -1      2903 2.29317E-04 7.12792E-07-6.20510E-05
 -1      2904-1.95222E-05-5.08409E-05-4.78356E-05
 -1      2905 2.07010E-05-1.44192E-05 3.33933E-06
 -1      2906 5.88954E-04 1.03267E-06 1.12067E-04
 -1      2907 1.50782E-06-1.51410E-06 5.97447E-06
 -1      2908 3.23866E-03 2.20498E-06-7.81526E-04
 -1      2909 9.47291E-04 3.27027E-07 3.85551E-04
 -1      2910 1.11608E-03 2.31273E-07 4.18417E-04
 -1      2911 9.93902E-04 1.06644E-07 3.73638E-04
 -1      2912 1.58313E-06-6.40685E-06-4.73357E-07
 -1      2913 3.75895E-06-9.94049E-06-2.58249E-07
 -1      2914 2.35348E-06-8.70914E-06-1.07033E-06
 -1      2915 1.24360E-07-3.97111E-06 2.21875E-09
 -1      2916 1.27599E-07-5.60266E-06-1.00937E-06
 -1      2917-4.33950E-06 8.91088E-06 2.36150E-07
 -1      2918-3.66159E-06 6.54697E-06-2.89097E-07
 -1      2919-6.04009E-06 1.37430E-05 1.37782E-06
 -1      2920-4.65553E-06 8.98637E-06 2.06708E-07
 -1      2921-4.23684E-06 7.94373E-06 3.55834E-07
 -1      2922-2.11325E-06 3.47170E-06-1.07265E-07
 -1      2923 8.17938E-04 1.10017E-06 3.61972E-04
 -1      2924 1.00259E-03 4.87290E-07 4.09534E-04
 -1      2925-2.13511E-06 7.10962E-06 4.30926E-07
 -1      2926-1.26605E-06 2.59342E-06-3.71299E-07
 -1      2927-4.61949E-07 2.26065E-06-4.04761E-07
 -1      2928-2.85115E-06 5.35831E-06 1.67018E-07
 -1      2929-1.42640E-06 1.96349E-06-2.05240E-07
 -1      2930-3.35241E-06 6.11293E-06 1.62850E-07
 -1      2931 5.42816E-06-3.81033E-07-3.56750E-07
 -1      2932 1.85251E-06 1.35615E-06-5.79229E-07
 -1      2933-5.13856E-07 1.89086E-06-2.45047E-07
 -1      2934 1.27688E-06 6.88094E-06 6.86531E-07
 -1      2935 8.05724E-04 4.08839E-07 3.38702E-04
 -1      2936-2.22555E-06-1.37671E-06-4.37541E-07
 -1      2937-2.08104E-06-7.06718E-07-2.44283E-07
 -1      2938-4.69832E-06-3.68742E-06-6.76087E-07
 -1      2939-2.71084E-06-1.16662E-06-2.02960E-07
 -1      2940-3.06642E-06-2.67623E-06-3.21043E-07
 -1      2941 6.32013E-04 6.95962E-07 2.05054E-04
 -1      2942 8.35681E-04-1.37355E-07 2.82676E-04
 -1      2943 6.10190E-04 6.01892E-06 1.66264E-04
 -1      2944 8.26563E-04-1.23029E-05 2.53103E-04
 -1      2945 6.10230E-04-4.53791E-06 1.66994E-04
 -1      2946-5.11846E-06 2.35799E-05 1.99355E-06
 -1      2947-1.93814E-06 1.29088E-05-6.09142E-07
 -1      2948-5.85525E-06 2.92046E-05-3.53527E-06
 -1      2949-6.59712E-06 2.25987E-05 1.65824E-06
 -1      2950-3.90034E-06 1.28914E-05-1.47817E-06
 -1      2951-4.40040E-06 1.64804E-05 3.11901E-07
 -1      2952 1.24727E-05-3.67760E-06 2.11252E-06
 -1      2953 2.27186E-05-2.66523E-06 3.07047E-06
 -1      2954 1.03152E-05-7.30098E-06 2.89072E-06
 -1      2955 5.08441E-06-3.57837E-06 2.04128E-06
 -1      2956 1.65121E-05-5.88975E-06 5.06634E-06
 -1      2957 1.26006E-05 3.12334E-06 3.86798E-06
 -1      2958 7.58127E-03-2.63617E-05-1.62296E-02
 -1      2959 7.61690E-03-4.03404E-05-1.74277E-02
 -1      2960 6.89992E-03-1.71065E-05-1.94112E-02
 -1      2961 3.42929E-03 2.60340E-06-1.78689E-02
 -1      2962 6.88047E-03-8.17664E-06-1.81877E-02
 -1      2963 5.07988E-03-6.49934E-06-2.05682E-02
 -1      2964 7.69889E-03-3.32779E-05-2.16839E-02
 -1      2965 8.61923E-03-6.54896E-05-1.93761E-02
 -1      2966 5.05284E-03-9.47054E-06-1.70622E-02
 -1      2967 7.65084E-03-4.65259E-05-1.81864E-02
 -1      2968 4.16856E-03 6.88582E-07-1.93686E-02
 -1      2969-3.32962E-07-7.59844E-06-8.80133E-07
 -1      2970-4.20554E-06 9.13946E-06-2.59135E-07
 -1      2971-2.27083E-06 3.69352E-06-2.76129E-07
 -1      2972-2.54412E-06-2.44422E-06-2.20592E-07
 -1      2973 1.21439E-05-1.96760E-05 1.61480E-06
 -1      2974 2.58994E-06-9.01577E-06 1.13723E-06
 -1      2975 2.36283E-06-1.09598E-05 3.56300E-08
 -1      2976-1.88462E-06-2.32731E-06 7.98671E-07
 -1      2977-1.72096E-06-2.68274E-06 6.60054E-07
 -1      2978-1.67167E-06-2.08971E-06 4.68692E-07
 -1      2979-7.10423E-06 1.43731E-05 1.56074E-06
 -1      2980-4.60671E-06 9.08039E-06 8.25211E-07
 -1      2981 7.03218E-04 2.47929E-06 3.70446E-04
 -1      2982 6.70097E-04 2.28718E-06 3.45479E-04
 -1      2983 7.74814E-04 2.19981E-06 3.81731E-04
 -1      2984 9.66899E-07-6.18049E-07 8.83395E-07
 -1      2985 2.21974E-06-1.27239E-06 3.22065E-07
 -1      2986 6.32165E-04 2.27147E-06 3.22962E-04
 -1      2987 7.45440E-04 2.01502E-06 3.63033E-04
 -1      2988-1.13715E-05 6.92820E-06-6.38466E-06
 -1      2989-1.87316E-05 7.85204E-06-1.45839E-05
 -1      2990-1.41543E-05 1.60341E-05-1.67735E-05
 -1      2991 2.23859E-05 4.58852E-06 1.40596E-05
 -1      2992-1.25281E-05 6.77900E-06-1.24542E-05
 -1      2993-9.73452E-06 1.41893E-06-2.99810E-06
 -1      2994 3.85649E-03-7.95081E-06-6.31288E-03
 -1      2995 5.98813E-03-2.43839E-05-7.83300E-03
 -1      2996 5.23189E-03-1.14260E-05-4.55689E-03
 -1      2997 3.77546E-03 1.32975E-05-4.47874E-03
 -1      2998 5.73686E-03 6.68509E-05-5.84617E-03
 -1      2999 4.11416E-03 1.70682E-06-7.86831E-03
 -1      3000-7.39425E-05-5.41941E-05-2.13933E-04
 -1      3001-5.55574E-05-6.27747E-05-2.18163E-04
 -1      3002-4.37544E-05-3.63469E-05-1.30299E-04
 -1      3003-2.48544E-05-2.65338E-05-1.43294E-04
 -1      3004-2.01970E-05-3.17859E-05-1.17463E-04
 -1      3005-1.72106E-05-5.14817E-05-2.44601E-04
 -1      3006 5.52269E-06-1.50458E-05-9.92553E-08
 -1      3007 1.47164E-06-1.18553E-05-8.06204E-07
 -1      3008-3.00428E-09-8.11825E-06-4.39455E-07
 -1      3009 6.66957E-04 1.95498E-06 3.28363E-04
 -1      3010 5.29975E-04 2.07720E-06 2.79429E-04
 -1      3011 4.13864E-03-2.94693E-06-1.51317E-02
 -1      3012 7.53525E-03 1.39459E-06-1.54661E-02
 -1      3013 3.41577E-03-7.16108E-06-1.70977E-02
 -1      3014 7.81236E-06-1.25870E-05 5.59134E-07
 -1      3015 4.81569E-06-7.90602E-06-5.37859E-07
 -1      3016 5.89641E-04 2.25733E-06 3.22084E-04
 -1      3017 5.48481E-04 2.55515E-06 2.94679E-04
 -1      3018 5.65553E-06-4.29668E-06 7.00724E-07
 -1      3019-1.01354E-05 1.24905E-05-4.09990E-06
 -1      3020-1.87232E-05 2.61521E-05-9.38100E-06
 -1      3021-1.63513E-05 2.68777E-05-8.60376E-06
 -1      3022-7.36929E-06 1.15219E-05-2.12499E-06
 -1      3023-1.16877E-05 2.17077E-05-1.28650E-06
 -1      3024-1.08011E-05 1.54623E-05-1.48082E-06
 -1      3025 1.00318E-02-9.59739E-05-1.84481E-02
 -1      3026 7.38160E-03-5.82734E-05-1.73101E-02
 -1      3027 6.47783E-03-4.04599E-05-1.61168E-02
 -1      3028 1.31500E-03-3.86638E-07 3.91876E-04
 -1      3029 1.42900E-03-7.11446E-07 4.34732E-04
 -1      3030 1.59678E-03-1.01580E-06 4.12319E-04
 -1      3031-3.32506E-06 7.27868E-06 6.24403E-07
 -1      3032-3.57975E-06 5.40220E-06 7.70049E-08
 -1      3033 7.58110E-03 1.45300E-05-1.67671E-02
 -1      3034 6.90038E-03-7.80238E-07-1.95147E-02
 -1      3035-8.57442E-07-9.93177E-07-3.16806E-07
 -1      3036-2.53368E-06-3.19989E-06-7.71591E-08
 -1      3037-9.91467E-07-3.02902E-07-2.34453E-07
 -1      3038-1.40804E-05-2.44660E-05-2.78019E-06
 -1      3039-1.51269E-05-1.79835E-05-4.08399E-06
 -1      3040-2.22235E-05-2.88253E-05-1.55895E-05
 -1      3041-2.29857E-05-4.49856E-05-3.35389E-05
 -1      3042-2.84429E-05-3.44846E-05-3.05676E-05
 -1      3043-1.98029E-05-3.12978E-05-1.45937E-05
 -1      3044-9.30912E-06 3.02551E-05-5.81206E-06
 -1      3045-4.56155E-06 1.23088E-05-1.35459E-06
 -1      3046 2.16916E-03-3.40769E-06-8.72661E-03
 -1      3047 2.30627E-03-1.51546E-05-5.10191E-03
 -1      3048 2.35519E-03-6.37379E-05-6.54058E-03
 -1      3049 1.27598E-06 3.65571E-07-7.52206E-07
 -1      3050-7.70259E-07 1.04412E-06-5.71115E-07
 -1      3051-4.51822E-06-1.66211E-06-3.88459E-07
 -1      3052-2.55434E-06 3.49403E-07-1.18457E-07
 -1      3053 6.09610E-03-4.13666E-05-8.77925E-03
 -1      3054 6.07918E-03-3.11666E-06-8.79067E-03
 -1      3055 6.15357E-03-1.33311E-05-9.56623E-03
 -1      3056-2.71582E-06 4.77036E-06-1.13958E-06
 -1      3057-2.56323E-06 3.78717E-06-1.01437E-06
 -1      3058-3.89991E-06 5.00083E-06-6.88828E-07
 -1      3059-4.19051E-06 6.78154E-06-8.85353E-07
 -1      3060 1.25026E-05-8.04329E-06-9.71657E-07
 -1      3061 6.90247E-06-1.01809E-05 1.58463E-06
 -1      3062 1.87117E-05-1.29594E-05 8.28344E-07
 -1      3063 1.18729E-03 3.06135E-07 4.08077E-04
 -1      3064 1.04263E-03-3.03867E-08 3.50513E-04
 -1      3065 1.28780E-03 4.42760E-08 4.40962E-04
 -1      3066 2.21451E-03-6.28342E-05-8.55916E-03
 -1      3067 4.15843E-03 1.79037E-06-1.00336E-02
 -1      3068 4.15071E-03 3.80386E-06-7.68936E-03
 -1      3069-6.04038E-07-2.38183E-06-4.14331E-08
 -1      3070-4.33868E-09-2.61025E-06-1.41256E-07
 -1      3071-1.03814E-06-5.19122E-07-8.89307E-08
 -1      3072-5.99159E-07-2.37982E-07-2.41781E-07
 -1      3073-1.62746E-06-1.88136E-06-2.57747E-07
 -1      3074-2.87813E-05-4.64977E-05-2.28928E-04
 -1      3075-1.24608E-05-1.76810E-05-1.49023E-04
 -1      3076 3.77383E-03-1.76500E-05-4.62085E-03
 -1      3077 5.75778E-03-7.02595E-05-5.99385E-03
 -1      3078 4.12934E-03-1.41992E-05-8.04850E-03
 -1      3079 1.04234E-03 7.95567E-07 4.24958E-04
 -1      3080 8.76259E-04 1.25125E-06 3.86533E-04
 -1      3081 7.66603E-03 1.75535E-05-2.00062E-02
 -1      3082 4.14790E-03-9.72211E-06-1.75918E-02
 -1      3083 3.43054E-03-1.20320E-05-2.03535E-02
 -1      3084 4.50696E-06-8.37780E-07-6.51407E-07
 -1      3085-3.17131E-06 9.14227E-06 9.77769E-07
 -1      3086 4.37903E-06 7.03761E-06 2.68107E-06
 -1      3087-1.99576E-06 5.30575E-06 1.47520E-07
 -1      3088-4.22916E-06 9.27507E-06 1.02938E-06
 -1      3089-3.85770E-06 7.16938E-06 5.48833E-07
 -1      3090-2.30280E-05 4.28566E-05-3.17516E-05
 -1      3091-1.49635E-05 2.14847E-05-1.19501E-05
 -1      3092-2.54920E-05 3.07697E-05-2.15001E-05
 -1      3093-1.14349E-06-2.83235E-06-6.40846E-07
 -1      3094 8.58608E-08-1.00756E-06-6.64101E-07
 -1      3095-2.43251E-06 1.08475E-06-3.97857E-07
 -1      3096 8.26669E-04 1.23743E-05 2.52502E-04
 -1      3097 2.10371E-03-1.31841E-05-9.90837E-03
 -1      3098 2.11758E-03-6.70223E-05-9.76388E-03
 -1      3099-1.15425E-05-1.72772E-05-6.36656E-06
 -1      3100-1.70093E-05-1.90979E-05-1.18025E-05
 -1      3101-1.25208E-05-2.81399E-05-1.96561E-05
 -1      3102-2.44456E-06 3.94256E-06-2.96665E-07
 -1      3103-1.82957E-06 2.88931E-06-1.88934E-07
 -1      3104-1.15769E-05 2.57801E-05-1.41606E-05
 -1      3105-1.43589E-05 4.22015E-05-2.33130E-05
 -1      3106-6.46437E-06 2.68369E-05-1.00067E-05
 -1      3107 9.99565E-03-1.13440E-04-1.64365E-02
 -1      3108 7.61864E-03-5.68763E-05-1.62242E-02
 -1      3109 4.13298E-03-4.28814E-06-1.22551E-02
 -1      3110 1.95447E-03-2.71917E-05-1.20102E-02
 -1      3111 4.15455E-03-4.54679E-06-1.20761E-02
 -1      3112 6.17157E-03 1.07150E-05-9.95973E-03
 -1      3113 6.31400E-03 1.83036E-05-1.20469E-02
 -1      3114 6.22258E-03 5.93619E-05-9.80648E-03
 -1      3115-2.72435E-05 4.82366E-05-2.30158E-04
 -1      3116 2.60321E-05 6.13462E-05-3.63885E-04
 -1      3117 3.06230E-05 1.38570E-05-2.17167E-04
 -1      3118-1.00489E-05 1.66856E-05-1.52403E-04
 -1      3119 1.18643E-05 1.26445E-05-2.29215E-04
 -1      3120-1.33437E-05 5.03949E-05-2.50174E-04
 -1      3121 2.00652E-05 9.27736E-05-4.04989E-04
 -1      3122 5.07974E-05 2.00543E-05-3.81869E-04
 -1      3123 2.73344E-05 2.68566E-05-2.34304E-04
 -1      3124-7.34401E-05 5.27313E-05-2.11530E-04
 -1      3125-2.92116E-05 2.97047E-05-1.43147E-04
 -1      3126-5.23965E-05 6.61299E-05-2.28668E-04
 -1      3127-4.25020E-05 3.76017E-05-1.36793E-04
 -1      3128 2.45577E-05-6.14125E-05-3.64777E-04
 -1      3129 2.98702E-05-1.31986E-05-2.18784E-04
 -1      3130 9.22901E-06-1.42982E-05-2.23558E-04
 -1      3131-2.33620E-06 1.07271E-05-7.46301E-07
 -1      3132-3.18830E-06 1.01188E-05-8.87843E-07
 -1      3133-1.86098E-06 1.91359E-07-1.09820E-09
 -1      3134-4.28544E-06 5.62383E-07 6.64862E-08
 -1      3135 1.62512E-05-5.55837E-06-6.28572E-07
 -1      3136 2.39314E-05-8.69544E-06 1.22983E-06
 -1      3137 2.35756E-03 1.55251E-05-6.71183E-03
 -1      3138 2.03561E-05-9.24421E-05-4.05161E-04
 -1      3139 5.13464E-05-2.02532E-05-3.79539E-04
 -1      3140 2.41314E-05-2.84201E-05-2.28033E-04
 -1      3141-2.14575E-06-3.28887E-06 1.72438E-07
 -1      3142-9.50324E-07-2.34322E-06 2.80638E-08
 -1      3143-1.42917E-06-1.10938E-06 2.56044E-07
 -1      3144-2.83380E-06-8.12758E-07 1.58670E-08
 -1      3145-1.36100E-06-6.36947E-07-6.70997E-08
 -1      3146 7.73968E-03-7.21409E-06-2.41060E-02
 -1      3147 4.21222E-03-1.12369E-05-2.39418E-02
 -1      3148 7.67471E-03 3.26431E-06-2.10222E-02
 -1      3149 6.91282E-03-8.65346E-06-2.05189E-02
 -1      3150 3.46006E-03-7.30709E-06-2.34431E-02
 -1      3151 9.23031E-04-8.78269E-05-1.72694E-02
 -1      3152-3.13568E-04-9.19513E-05-1.93203E-02
 -1      3153-1.71066E-03-1.17451E-04-1.83961E-02
 -1      3154 1.89531E-03-6.47692E-05-1.57689E-02
 -1      3155 7.12588E-04-6.76903E-05-1.78290E-02
 -1      3156 3.30801E-03-3.34145E-05-1.67102E-02
 -1      3157 6.11121E-03 7.11744E-05-8.63290E-03
 -1      3158 5.91680E-03 9.22817E-05-6.65341E-03
 -1      3159 6.50356E-04-5.24125E-05-2.06329E-02
 -1      3160 3.24958E-03-3.11410E-05-1.95266E-02
 -1      3161-7.60354E-04-6.46764E-05-2.24930E-02
 -1      3162 1.86274E-03-4.80963E-05-2.13858E-02
 -1      3163 2.79452E-03-2.53749E-05-2.27051E-02
 -1      3164 1.15449E-03 3.97617E-07 4.35749E-04
 -1      3165 9.83678E-03-3.85676E-05-2.54571E-02
 -1      3166 9.82782E-03-3.11147E-05-2.67321E-02
 -1      3167 7.71942E-03-2.14939E-05-2.48943E-02
 -1      3168 6.27147E-03-1.24679E-05-2.47339E-02
 -1      3169 7.71307E-03-2.73096E-05-2.36125E-02
 -1      3170-2.23696E-06 3.52813E-06-3.55183E-07
 -1      3171 7.71079E-03-1.83252E-05-2.42859E-02
 -1      3172 6.67516E-03-1.03884E-05-2.67416E-02
 -1      3173 6.68085E-03-1.07063E-05-2.73474E-02
 -1      3174 3.13802E-03 3.52264E-06-2.53257E-02
 -1      3175-3.29917E-06 5.35283E-06-2.40736E-07
 -1      3176-5.57969E-06 1.20302E-05-1.68775E-06
 -1      3177-1.76265E-03-1.02937E-04-2.08234E-02
 -1      3178 4.23440E-04-6.03317E-05-2.29164E-02
 -1      3179-7.34690E-06 1.34690E-05-2.39179E-06
 -1      3180-1.38874E-05 2.99326E-05-8.95260E-06
 -1      3181-8.93519E-06 2.33746E-05-1.70663E-07
 -1      3182-6.62945E-06 1.47628E-05 3.82830E-07
 -1      3183 2.04097E-06-3.57267E-06-7.59803E-07
 -1      3184 6.58492E-04 8.81064E-07 2.82793E-04
 -1      3185 6.86666E-04 1.01278E-06 3.15032E-04
 -1      3186-6.51599E-06 1.09916E-05 1.86634E-07
 -1      3187-1.39523E-05 6.21011E-06-7.08283E-06
 -1      3188-2.41221E-05 1.91100E-05-1.47878E-05
 -1      3189-8.87709E-06 5.70105E-06-2.66232E-06
 -1      3190-2.84255E-06-2.28047E-07-3.81373E-07
 -1      3191-6.61484E-06 7.58967E-06-9.91276E-07
 -1      3192-1.18805E-05 8.23991E-06-4.93624E-06
 -1      3193 7.96854E-04-5.70268E-06-1.32740E-02
 -1      3194 7.56567E-04 1.29129E-05-1.45541E-02
 -1      3195 7.71934E-04 3.69967E-05-1.40260E-02
 -1      3196 7.35057E-04 4.54427E-05-1.52878E-02
 -1      3197 7.40637E-04-1.22012E-05-1.54279E-02
 -1      3198-5.38066E-06 9.81703E-06-1.45956E-06
 -1      3199-1.85366E-04 3.44790E-05-1.63322E-04
 -1      3200-9.27130E-05 3.48829E-05-1.39885E-04
 -1      3201-3.95997E-05 7.69500E-05-2.48757E-04
 -1      3202-1.53753E-04 1.34556E-04-3.35777E-04
 -1      3203-1.08106E-04 7.22051E-05-2.37073E-04
 -1      3204 4.21270E-03-1.31113E-05-1.80437E-02
 -1      3205-8.95019E-06 1.45919E-05-3.10937E-06
 -1      3206 1.04608E-05 6.07290E-06 8.24679E-06
 -1      3207-1.08399E-06 8.04408E-07-4.53556E-07
 -1      3208-1.90416E-06-8.87394E-08-2.27089E-07
 -1      3209-9.88680E-07-1.76665E-06-4.03171E-07
 -1      3210-4.95032E-07 2.73062E-07-3.02964E-07
 -1      3211-1.12239E-06 3.16602E-07-1.73691E-07
 -1      3212 8.33530E-04 3.05483E-07 3.19672E-04
 -1      3213 1.82618E-03 3.12650E-05-2.20757E-02
 -1      3214 3.58365E-03 1.31655E-05-2.03287E-02
 -1      3215 4.17386E-03 4.97702E-06-2.20859E-02
 -1      3216 7.05408E-04 1.69788E-06 3.34201E-04
 -1      3217 7.89869E-04 1.62085E-06 3.69119E-04
 -1      3218 9.41699E-04 1.53781E-06 4.10797E-04
 -1      3219 8.90289E-04 1.85357E-05-1.11642E-02
 -1      3220 4.15308E-03-1.96077E-06-1.30244E-02
 -1      3221 7.68017E-03-2.87215E-05-2.09173E-02
 -1      3222 3.43046E-03 1.09438E-06-2.13672E-02
 -1      3223 2.94661E-06-2.20918E-06-9.20033E-07
 -1      3224-9.05375E-06 1.78470E-05 1.38266E-06
 -1      3225-7.85737E-06 1.92102E-05 1.70104E-06
 -1      3226-1.50422E-06-6.05517E-07 1.23124E-07
 -1      3227-1.48546E-06 7.51506E-08-1.01636E-07
 -1      3228-1.18282E-05-3.08188E-05-5.52383E-06
 -1      3229-1.15820E-05-2.31399E-05-3.23525E-06
 -1      3230-1.40360E-05-3.98226E-05-1.89304E-05
 -1      3231 4.09587E-04 1.08348E-06 2.21029E-04
 -1      3232 5.46602E-04 1.46563E-06 2.71872E-04
 -1      3233 5.57333E-04 1.75752E-06 2.84834E-04
 -1      3234 4.26294E-04 2.22354E-06 2.33047E-04
 -1      3235 4.87449E-06-1.21923E-05 2.08936E-06
 -1      3236-1.67880E-05 3.15765E-05-1.27046E-04
 -1      3237 2.77880E-04-2.11868E-07 1.60905E-04
 -1      3238 2.98455E-04 2.45737E-06 1.74650E-04
 -1      3239 8.55776E-04 1.98524E-06 3.96663E-04
 -1      3240 1.85995E-04 2.25719E-06 1.25537E-04
 -1      3241 1.71454E-04 7.14772E-07 5.05521E-05
 -1      3242 2.11540E-04-2.11799E-07 1.01041E-04
 -1      3243 1.03385E-04 5.74475E-07 5.04012E-05
 -1      3244 7.16865E-05 5.26278E-07 2.56588E-06
 -1      3245-4.05696E-06 7.14285E-06 3.94898E-07
 -1      3246 7.52924E-03-4.29218E-05-1.40168E-02
 -1      3247 7.46638E-03-4.30047E-06-1.32688E-02
 -1      3248 7.39004E-03-2.91962E-05-1.11659E-02
 -1      3249 7.68823E-03-1.97467E-05-2.20360E-02
 -1      3250 4.21021E-03-4.36478E-06-2.49737E-02
 -1      3251 1.00812E-02-7.53321E-05-2.08916E-02
 -1      3252 6.53397E-03-2.14224E-05-2.20905E-02
 -1      3253-6.50253E-07 2.09724E-05-2.64747E-06
 -1      3254-4.87264E-06 3.15624E-05-9.25736E-07
 -1      3255-6.02930E-06 4.43043E-05-2.15984E-05
 -1      3256 1.78657E-05-3.32149E-06 8.97784E-08
 -1      3257-1.24778E-05-1.36962E-05-5.01881E-06
 -1      3258-8.82054E-06-1.29690E-05-3.45045E-06
 -1      3259 3.87417E-06-5.50534E-06 4.58032E-08
 -1      3260-1.96070E-06 2.66477E-06-2.84025E-07
 -1      3261-3.54058E-06-4.05191E-06-5.73489E-07
 -1      3262-3.95511E-06-5.96034E-06-4.76343E-08
 -1      3263-1.79083E-06-2.17948E-06-2.51565E-07
 -1      3264 7.28316E-04 2.06292E-05-1.61923E-02
 -1      3265 7.51927E-03-2.01887E-05-1.47165E-02
 -1      3266 7.57830E-03-4.76751E-05-1.54497E-02
 -1      3267 1.62559E-04 1.31804E-06 1.09154E-04
 -1      3268-2.21860E-05-1.56579E-05-1.68851E-05
 -1      3269-2.70580E-05-1.96552E-05-1.99882E-05
 -1      3270-1.66952E-05-1.38364E-05-8.95781E-06
 -1      3271-1.74007E-05-2.41863E-05-1.92860E-05
 -1      3272-3.58887E-05-3.84397E-05-5.79193E-05
 -1      3273 6.65127E-04-4.18236E-05-1.98680E-02
 -1      3274 6.98978E-04-3.22270E-05-1.66290E-02
 -1      3275 7.40746E-04-5.50780E-05-1.70687E-02
 -1      3276 4.18694E-03-8.02938E-06-1.48121E-02
 -1      3277-6.91566E-05-2.22007E-05-1.93880E-02
 -1      3278-1.52900E-05 2.09638E-05-4.00168E-06
 -1      3279-2.91231E-05 3.83072E-05-3.40524E-05
 -1      3280 3.44424E-05 7.24904E-05-1.91376E-02
 -1      3281 6.46432E-04 3.50597E-05-2.16823E-02
 -1      3282 3.58495E-03 1.64013E-05-1.68231E-02
 -1      3283 6.69047E-04 4.81600E-05-1.81796E-02
 -1      3284-9.34047E-06-2.27368E-05-7.39298E-06
 -1      3285 3.88238E-04-6.23647E-07 2.02342E-04
 -1      3286-1.68312E-03-1.32116E-04-1.63838E-02
 -1      3287 7.43699E-04-7.56887E-05-1.58654E-02
 -1      3288 5.12274E-04 6.29627E-07 2.44126E-04
 -1      3289-2.44032E-06 2.80141E-06-6.73217E-07
 -1      3290 1.32733E-04 1.84973E-06 8.39251E-05
 -1      3291 8.07115E-06-4.31135E-06-6.18631E-07
 -1      3292 9.06771E-06-7.13742E-06 1.91889E-06
 -1      3293 4.77958E-04 1.02668E-06 2.02225E-04
 -1      3294 3.11622E-04 3.20627E-07 1.17679E-04
 -1      3295-2.00646E-05 2.57492E-06-3.08137E-05
 -1      3296-2.12565E-06 4.59334E-06-8.31027E-05
 -1      3297-2.36836E-05 1.03029E-05-6.84203E-05
 -1      3298-2.03282E-05 9.62819E-06-2.56648E-05
 -1      3299-2.66375E-05 1.77170E-05-7.59452E-05
 -1      3300-2.15860E-05 9.77819E-06-4.03317E-05
 -1      3301 1.33719E-04-4.91724E-06-2.27177E-05
 -1      3302 2.70872E-04 3.54955E-06 4.61717E-05
 -1      3303 1.34203E-04 6.62990E-06-2.23227E-05
 -1      3304 3.19645E-04 1.72914E-06 1.87351E-04
 -1      3305 2.05734E-04 5.31132E-07 1.38625E-04
 -1      3306 1.26834E-03 7.09824E-05-1.70586E-02
 -1      3307-1.70418E-03 1.02176E-04-1.84259E-02
 -1      3308 1.84237E-03 4.92775E-05-1.60948E-02
 -1      3309-3.77979E-06-6.59858E-06 3.01109E-07
 -1      3310-1.99822E-06-3.78471E-06-4.53460E-08
 -1      3311-2.46809E-06-4.03648E-06-9.63799E-08
 -1      3312 2.48404E-04 2.56607E-07 1.38698E-04
 -1      3313-1.19893E-05 1.95758E-05-8.43006E-07
 -1      3314 6.49200E-07-6.20292E-06 2.86760E-07
 -1      3315 3.39923E-05-5.13318E-06-5.17027E-05
 -1      3316 1.26284E-05-5.59187E-06-2.89516E-05
 -1      3317 5.51563E-05 3.94205E-07-6.96525E-05
 -1      3318 1.85142E-04-5.58628E-06-4.53982E-05
 -1      3319 1.28532E-05 5.63347E-06-2.93600E-05
 -1      3320 3.42435E-05 5.73898E-06-5.17614E-05
 -1      3321 1.85355E-04 7.49638E-06-4.53462E-05
 -1      3322 3.54807E-04 6.08242E-07 1.70694E-04
 -1      3323 5.45479E-03-4.58068E-06-2.64320E-02
 -1      3324 4.42734E-03 1.65898E-06-2.51695E-02
 -1      3325-1.57646E-05 7.63892E-06-4.99264E-05
 -1      3326-2.91196E-05 2.00053E-05-8.17811E-05
 -1      3327 2.14680E-07-9.76920E-06 1.17416E-06
 -1      3328 7.66022E-06-2.90133E-07 4.30156E-06
 -1      3329 2.30155E-05-1.87056E-06 1.19228E-05
 -1      3330 1.28373E-05-6.91837E-06 8.24609E-06
 -1      3331 1.65573E-05 4.54236E-06 1.65641E-05
 -1      3332-2.80795E-06-5.20558E-06 1.09413E-06
 -1      3333 2.32904E-05-1.24975E-05 4.19905E-06
 -1      3334 8.26371E-06-8.63285E-06 1.41016E-06
 -1      3335-2.09993E-06-4.82641E-06-8.28895E-05
 -1      3336 9.25473E-05-4.87177E-06-1.18967E-04
 -1      3337 9.26430E-05 5.95695E-06-1.19164E-04
 -1      3338 1.48856E-03-9.63990E-07 3.62815E-04
 -1      3339-1.81878E-05-2.24913E-05-9.11116E-06
 -1      3340-1.43267E-05-2.18139E-05-3.07225E-06
 -1      3341 2.11961E-03 3.38033E-06-9.50916E-03
 -1      3342-3.34790E-05-2.93006E-05-3.17818E-05
 -1      3343-3.87668E-05-5.12957E-05-7.46334E-05
 -1      3344 7.75540E-03-8.40198E-06-2.63610E-02
 -1      3345 3.16561E-03-5.07758E-06-2.74300E-02
 -1      3346-4.52892E-05-2.07554E-06-1.81653E-02
 -1      3347 4.69685E-04 3.08841E-07 2.66071E-04
 -1      3348 8.80405E-03-4.64600E-05-2.24680E-02
 -1      3349 8.81864E-03-3.53844E-05-2.43881E-02
 -1      3350 5.26578E-03-5.94730E-06-2.36591E-02
 -1      3351 2.70908E-04-1.35007E-06 4.63356E-05
 -1      3352 8.50081E-04-1.24947E-05 4.11817E-04
 -1      3353 8.50237E-04 2.04090E-05 4.12272E-04
 -1      3354 9.30444E-04 2.24360E-05 4.21303E-04
 -1      3355 2.76298E-05-5.32827E-06 2.61214E-05
 -1      3356 5.69245E-05-5.86520E-06 4.18708E-05
 -1      3357 4.96565E-05 5.16793E-07 3.92168E-05
 -1      3358 9.63774E-06-1.32978E-06 1.14517E-05
 -1      3359 2.88715E-05-2.04617E-08 1.99945E-05
 -1      3360 1.75475E-05-6.22869E-06 9.30937E-06
 -1      3361 6.21570E-04 1.86566E-06 3.50965E-04
 -1      3362 8.51098E-06-5.82288E-06 9.06641E-06
 -1      3363-7.09055E-07-1.14742E-06 4.72000E-06
 -1      3364 9.09000E-07-2.45034E-06 4.19865E-06
 -1      3365-6.14323E-06 6.39504E-05-2.67547E-04
 -1      3366-5.67573E-05 6.13606E-05-2.39201E-04
 -1      3367-7.56924E-06-6.35281E-05-2.66967E-04
 -1      3368-5.82716E-05-6.16590E-05-2.39934E-04
 -1      3369 7.37831E-04-3.86590E-05-1.46647E-02
 -1      3370 7.71324E-04-6.20861E-05-1.50917E-02
 -1      3371 9.04688E-03-1.88775E-05-2.84316E-02
 -1      3372 4.41585E-03 5.84911E-07-2.89100E-02
 -1      3373 8.35187E-05-8.31519E-07 6.56169E-05
 -1      3374 1.05092E-04-2.50743E-06 8.15742E-05
 -1      3375 1.04171E-04 3.02389E-06 8.15760E-05
 -1      3376 1.39434E-06 2.35858E-06-9.83733E-07
 -1      3377 3.91317E-07 9.55955E-07-4.65834E-07
 -1      3378 1.29397E-06 4.50010E-06-1.67336E-07
 -1      3379 6.54812E-06 6.67804E-06-1.05644E-06
 -1      3380 2.93742E-06 3.92297E-06-3.45130E-07
 -1      3381 3.43946E-06 1.03139E-06-1.14371E-06
 -1      3382 2.82405E-03-1.74781E-05-2.58078E-02
 -1      3383 2.04764E-03-2.08524E-05-2.22172E-02
 -1      3384-1.79373E-05-5.80208E-06-8.87966E-05
 -1      3385-2.14016E-05-1.04285E-05-4.23946E-05
 -1      3386-2.61237E-05-1.72358E-05-7.84728E-05
 -1      3387-2.94139E-05-2.07605E-05-8.37371E-05
 -1      3388 6.50361E-03 1.96851E-05-1.86045E-02
 -1      3389 4.69263E-03-9.76557E-06-1.91778E-02
 -1      3390 6.98363E-03 4.07598E-05-1.69368E-02
 -1      3391 6.51616E-03 3.27521E-05-1.57837E-02
 -1      3392 4.72031E-03-6.29491E-06-1.63589E-02
 -1      3393 6.44277E-07 3.64998E-05-2.23405E-05
 -1      3394 1.01051E-06 2.92848E-05-9.20270E-06
 -1      3395-9.84622E-06 3.15223E-05-2.22461E-05
 -1      3396-9.33781E-06 5.85149E-05-5.12911E-05
 -1      3397 2.22312E-04 2.41131E-07 1.49984E-04
 -1      3398 3.37950E-04-3.77040E-04-1.11500E-03
 -1      3399 3.33220E-05-4.72312E-04-1.18461E-03
 -1      3400 2.63423E-05-2.56461E-04-6.48916E-04
 -1      3401 1.14515E-04-3.01450E-04-9.21383E-04
 -1      3402 2.51815E-04-1.92556E-04-5.44842E-04
 -1      3403-9.36570E-07-2.90620E-06 5.06791E-08
 -1      3404-2.19004E-06-4.80828E-06 1.66874E-07
 -1      3405-2.21433E-06 2.61880E-06-6.22473E-07
 -1      3406 1.26715E-04-4.20574E-06 9.46374E-05
 -1      3407 1.44153E-04-5.30717E-06 1.05602E-04
 -1      3408 1.27356E-04 3.90158E-06 9.65606E-05
 -1      3409-8.77544E-06-1.75626E-05-4.41628E-06
 -1      3410 7.69598E-03 8.82837E-06-2.28177E-02
 -1      3411 7.75276E-03-3.04587E-06-2.59106E-02
 -1      3412 1.17395E-03-6.29575E-07 3.26765E-04
 -1      3413 1.99337E-03-9.89283E-06-1.15121E-02
 -1      3414 1.31623E-03 2.41969E-05 4.53421E-04
 -1      3415 1.18881E-03-3.11182E-05 4.48468E-04
 -1      3416 1.18803E-03 2.15331E-05 4.46821E-04
 -1      3417 6.26881E-03 3.27185E-06-1.15529E-02
 -1      3418 1.15610E-06 5.87355E-07-9.85373E-07
 -1      3419 3.92212E-06 6.91695E-06-1.40154E-06
 -1      3420 8.27146E-06 3.60822E-06-1.79053E-06
 -1      3421-1.75690E-03 8.55622E-05-2.08575E-02
 -1      3422 8.24660E-04-2.08754E-04-1.65902E-03
 -1      3423 8.98966E-04-8.18495E-05-8.82585E-04
 -1      3424 5.26754E-04-9.01644E-05-1.21696E-03
 -1      3425 2.52515E-04-2.30495E-04-1.07048E-03
 -1      3426 3.65793E-04-8.99573E-05-6.01590E-04
 -1      3427 5.09658E-04-1.77055E-04-7.83600E-04
 -1      3428 3.37192E-05-6.14533E-07 3.44168E-05
 -1      3429 1.10134E-05-2.61261E-06 1.50040E-05
 -1      3430 5.08910E-05-8.24944E-06 4.32873E-05
 -1      3431 2.86755E-03 8.65249E-06-1.36700E-03
 -1      3432 2.49495E-03 2.75934E-06-2.19646E-03
 -1      3433 3.84315E-03 2.39499E-05-2.28755E-03
 -1      3434 3.58715E-03 6.44906E-05-1.98753E-03
 -1      3435 3.09120E-03-7.29651E-06-3.13943E-03
 -1      3436 2.20384E-03-4.62187E-05-1.99387E-03
 -1      3437 4.50489E-04 2.17538E-06 2.48655E-04
 -1      3438 8.36784E-05 3.09046E-07 6.68999E-05
 -1      3439-1.63586E-05 5.43518E-06-9.09246E-05
 -1      3440 6.58912E-04-1.48353E-05-2.63237E-02
 -1      3441-1.11834E-04-1.18503E-05-2.27313E-02
 -1      3442-7.72404E-04-3.76447E-05-2.50826E-02
 -1      3443 1.73194E-03-4.44128E-05 4.31572E-04
 -1      3444 1.73271E-03 4.35111E-05 4.29997E-04
 -1      3445 1.54695E-03 3.80518E-05 4.48138E-04
 -1      3446-8.28038E-05-7.41509E-06-2.04907E-02
 -1      3447 6.61436E-04-2.71494E-05-2.09853E-02
 -1      3448-7.54328E-04-3.79477E-05-2.28406E-02
 -1      3449 3.51041E-06 4.31953E-06 3.59647E-06
 -1      3450-2.92623E-06-2.43225E-06-3.23074E-07
 -1      3451-3.55386E-06-1.98397E-07 7.08644E-07
 -1      3452 2.94677E-05-1.17197E-05 1.16568E-05
 -1      3453 1.15112E-05-7.91521E-06 5.55199E-06
 -1      3454 1.31793E-03-3.65240E-05 4.55108E-04
 -1      3455-6.64831E-06 2.00421E-05 1.84923E-06
 -1      3456-2.46525E-06 2.17746E-06 5.36681E-08
 -1      3457-1.08593E-06 1.35586E-06-7.04254E-08
 -1      3458-2.22146E-06 3.12696E-06-2.01121E-07
 -1      3459 2.68144E-05-1.21446E-06 7.92087E-06
 -1      3460 1.93754E-03 3.70772E-05-1.27393E-02
 -1      3461-1.38153E-03 4.91638E-05-1.09488E-02
 -1      3462 2.08869E-03 2.93871E-05-9.93094E-03
 -1      3463 7.66552E-03 3.21965E-05-1.72120E-02
 -1      3464-2.33297E-06-3.09744E-06-3.48528E-07
 -1      3465-2.25206E-06-5.35336E-06-2.36442E-07
 -1      3466-3.16287E-06 3.96922E-07-2.03117E-07
 -1      3467-3.07803E-06-1.60387E-06-1.65253E-07
 -1      3468 7.55477E-04-1.32663E-05 4.01187E-04
 -1      3469 7.54918E-04 1.57411E-05 4.01842E-04
 -1      3470-1.08237E-05 1.41427E-05-2.84389E-05
 -1      3471 2.61982E-05 5.01874E-06 9.92953E-06
 -1      3472-7.80035E-07 9.03032E-07-9.26943E-06
 -1      3473-1.63538E-05-6.83898E-06-4.68880E-05
 -1      3474-1.93973E-05-1.62889E-06-2.99636E-05
 -1      3475-2.27932E-05-9.07977E-06-2.74622E-05
 -1      3476-7.23996E-06 6.12795E-05-1.96167E-04
 -1      3477-1.61550E-05 1.12149E-04-3.62487E-04
 -1      3478 1.60708E-05 4.40514E-05-2.14515E-04
 -1      3479 1.51588E-06 9.32573E-06-4.55040E-05
 -1      3480-2.48628E-05 1.82348E-05-4.00862E-05
 -1      3481-1.45637E-03 7.88824E-05-1.22186E-02
 -1      3482-4.37945E-06-2.62776E-06 4.39483E-07
 -1      3483-2.57544E-06-2.42532E-06 2.47091E-08
 -1      3484-3.28508E-06 1.66733E-07-1.44233E-07
 -1      3485-4.41541E-05-3.11002E-05-6.65800E-05
 -1      3486-2.55962E-05 2.72395E-05-2.05479E-05
 -1      3487-4.15967E-05 4.99776E-05-7.38098E-05
 -1      3488 6.50089E-04-3.94557E-05-2.18560E-02
 -1      3489-7.65513E-04-5.08974E-05-2.37090E-02
 -1      3490 1.00227E-02 8.51594E-05-1.84703E-02
 -1      3491 8.21552E-03 4.84851E-05-1.90224E-02
 -1      3492 7.68319E-03 2.32855E-05-2.06999E-02
 -1      3493-1.70386E-05 3.36965E-06-1.70132E-05
 -1      3494-1.74294E-05-1.12521E-04-3.61697E-04
 -1      3495 1.31094E-05-4.49864E-05-2.09282E-04
 -1      3496 1.43415E-04 5.88567E-06 1.04938E-04
 -1      3497-8.36669E-05-4.55007E-05-1.61533E-04
 -1      3498-1.11183E-04-1.01166E-04-2.79182E-04
 -1      3499-4.64718E-05-5.44901E-05-1.52183E-04
 -1      3500-1.58236E-05 1.63777E-05-9.74176E-06
 -1      3501-2.16763E-05 1.78235E-05-2.05514E-05
 -1      3502-1.64792E-05 2.64818E-05-2.14362E-05
 -1      3503-3.45575E-05 3.49857E-05-5.16205E-05
 -1      3504-1.05835E-05-6.00765E-05-1.88063E-04
 -1      3505 4.53702E-03-5.68383E-05-5.77362E-03
 -1      3506 2.35613E-03 1.02638E-04-6.67242E-03
 -1      3507 2.80508E-03 1.44557E-04-6.27977E-03
 -1      3508 4.66473E-03-4.16508E-05-7.55603E-03
 -1      3509 2.27031E-03 1.09778E-04-8.60368E-03
 -1      3510 4.19879E-03-1.28438E-05-7.95817E-03
 -1      3511 7.53022E-03 2.52332E-05-1.45844E-02
 -1      3512 7.62725E-03 4.49902E-05-1.50073E-02
 -1      3513 9.66180E-03-5.88631E-05-1.09701E-02
 -1      3514 6.37192E-03-4.00336E-05-1.27690E-02
 -1      3515 6.20686E-03-4.29767E-05-9.97921E-03
 -1      3516 1.54846E-03-3.83400E-05 4.49488E-04
 -1      3517 5.50562E-05-4.39881E-07 4.19278E-05
 -1      3518 3.24311E-05-1.39248E-06 1.27203E-05
 -1      3519 7.69742E-03-2.48734E-05-2.29092E-02
 -1      3520 4.17213E-03-1.77938E-05-2.10659E-02
 -1      3521 2.79340E-03-3.47751E-05-2.29183E-02
 -1      3522-3.03773E-05 2.36692E-05-1.72796E-02
 -1      3523 1.09567E-06-9.30243E-06-4.44560E-05
 -1      3524-2.31053E-05-1.75561E-05-4.09028E-05
 -1      3525-2.19343E-05 5.04677E-05-4.75080E-05
 -1      3526 1.56027E-03 2.94968E-04-5.91564E-03
 -1      3527 3.28002E-03 7.40629E-05-5.37734E-03
 -1      3528-1.42564E-06-4.86273E-06-5.98950E-07
 -1      3529 2.17283E-04 5.82384E-05-3.34715E-04
 -1      3530 1.67948E-04 2.71210E-07-5.59634E-04
 -1      3531 2.70066E-04 6.87408E-06-3.62086E-04
 -1      3532 3.05968E-04 4.09588E-06-8.76896E-05
 -1      3533 1.81006E-04-1.68492E-05-2.53814E-04
 -1      3534 1.79410E-04 1.81520E-05-2.55441E-04
 -1      3535 2.36663E-05 8.63568E-07-1.38257E-04
 -1      3536 8.70560E-03 8.39835E-06-2.54014E-02
 -1      3537 5.19651E-03-8.87977E-06-2.65423E-02
 -1      3538 5.15437E-03-8.10267E-06-2.34386E-02
 -1      3539-1.58161E-06-1.32900E-06 4.85384E-07
 -1      3540 4.04638E-05 2.67167E-06 2.31060E-05
 -1      3541 2.78354E-05-2.60499E-06 1.75982E-05
 -1      3542 3.43832E-04-1.70918E-07 2.06005E-04
 -1      3543 2.94886E-05-4.87743E-06 3.83382E-06
 -1      3544 2.73851E-05-7.24230E-06 2.21342E-06
 -1      3545-2.84169E-05 2.10069E-05-3.44209E-05
 -1      3546-1.86667E-05 2.05921E-05-1.11249E-05
 -1      3547 1.11679E-03 2.53137E-05 4.41458E-04
 -1      3548 1.11691E-03-2.24469E-05 4.42106E-04
 -1      3549 1.01400E-03 2.27877E-05 4.30698E-04
 -1      3550 6.77580E-04-1.22225E-05 3.88881E-04
 -1      3551 4.13615E-05 5.15198E-06 3.31324E-05
 -1      3552 1.04645E-04 1.33024E-07 8.42066E-05
 -1      3553 4.37989E-05 5.86500E-06 3.78355E-05
 -1      3554 2.85129E-05 1.37192E-05 2.08136E-05
 -1      3555 8.42326E-05 1.81802E-05 6.41702E-05
 -1      3556 7.54405E-05 1.44007E-05 5.69266E-05
 -1      3557-5.26230E-06 7.83993E-06-1.37545E-06
 -1      3558-4.26466E-06 6.91013E-06 1.85324E-08
 -1      3559 3.77390E-07-1.09330E-05 2.39509E-06
 -1      3560 1.36946E-05-7.24477E-06 7.62104E-06
 -1      3561-2.76970E-06 2.28273E-05 6.55705E-07
 -1      3562 6.52279E-03 1.15151E-05-2.10772E-02
 -1      3563 1.00789E-02 6.23530E-05-2.09063E-02
 -1      3564 2.26802E-03-7.79450E-05-7.60207E-03
 -1      3565-4.15239E-06 5.57250E-06 1.03924E-06
 -1      3566-4.19091E-06 6.68738E-06 1.15294E-06
 -1      3567-2.27364E-06 5.24887E-06-1.91161E-07
 -1      3568-2.21073E-06 6.47878E-06-2.02508E-07
 -1      3569-2.19950E-06 4.62169E-06 1.74092E-07
 -1      3570-4.33293E-05 3.08093E-05-6.32051E-05
 -1      3571 2.04188E-05-2.17759E-06 2.13762E-05
 -1      3572 1.62914E-05-7.61852E-06 1.38914E-05
 -1      3573 1.76718E-03-1.15337E-06 3.63705E-04
 -1      3574 1.86548E-03 5.09548E-05 4.07778E-04
 -1      3575 1.86568E-03-4.70296E-05 4.07644E-04
 -1      3576 2.09322E-03-5.37426E-05 3.48676E-04
 -1      3577 7.69959E-03 3.99765E-05-1.78880E-02
 -1      3578 9.31114E-04-1.45357E-05 4.20971E-04
 -1      3579 9.10563E-05 3.08875E-05-4.29901E-04
 -1      3580 9.03738E-05-3.05133E-05-4.31657E-04
 -1      3581 1.09754E-04 3.56945E-07-2.12210E-04
 -1      3582-1.56594E-05-2.09815E-06-1.41522E-05
 -1      3583-1.96011E-05-6.63619E-06-1.39993E-05
 -1      3584-1.90643E-05 1.19442E-05-1.29584E-05
 -1      3585-1.33195E-05 1.06497E-05-5.65593E-06
 -1      3586 1.33373E-03 4.15114E-07 2.81905E-04
 -1      3587-4.29601E-06 2.14391E-06 3.39051E-07
 -1      3588-2.53508E-06 3.76251E-06 1.75055E-07
 -1      3589 7.50249E-03 1.23134E-05-2.36778E-02
 -1      3590 8.68636E-03 2.23773E-05-2.32868E-02
 -1      3591 1.04786E-05-7.29723E-06 6.75000E-06
 -1      3592 3.40727E-06-3.65433E-06 3.10257E-06
 -1      3593-9.62160E-06-1.26147E-06-2.96665E-06
 -1      3594-4.29543E-06-3.15003E-06-9.49499E-06
 -1      3595-1.68358E-05-9.88167E-06-1.36228E-05
 -1      3596 2.88052E-03-1.83680E-05-2.91845E-02
 -1      3597 6.45180E-04-1.82677E-05-2.86159E-02
 -1      3598-7.49870E-04-2.98578E-05-3.07172E-02
 -1      3599 1.43033E-03-3.10910E-05-2.79334E-02
 -1      3600-7.88071E-04-3.73597E-05-2.73549E-02
 -1      3601-7.42928E-06 1.64949E-05 1.71078E-06
 -1      3602-6.41913E-06 1.74882E-05 1.55539E-06
 -1      3603-5.57821E-06 1.50612E-05 9.35523E-07
 -1      3604-1.67644E-03 1.19324E-04-1.63917E-02
 -1      3605 6.96162E-04 5.92224E-05-1.61898E-02
 -1      3606-7.85602E-06-5.03196E-06-2.19988E-06
 -1      3607-1.08305E-05-1.19539E-05-2.24339E-06
 -1      3608-1.30506E-05-8.59303E-06-5.48044E-06
 -1      3609-9.37967E-06-2.57829E-06-2.28472E-06
 -1      3610-1.31427E-05-9.03682E-06-5.46268E-06
 -1      3611 9.75621E-03-8.36183E-05-1.23988E-02
 -1      3612 3.85855E-03-3.64397E-05-2.28031E-03
 -1      3613 2.31088E-03 3.65762E-05-2.12060E-03
 -1      3614 2.74843E-03-2.34396E-05-1.19745E-03
 -1      3615 3.60731E-03-6.83542E-05-1.98934E-03
 -1      3616 1.98406E-03 1.03987E-04-1.86634E-03
 -1      3617 3.10198E-03 7.29738E-06-3.12249E-03
 -1      3618-3.62965E-06-5.53204E-07 1.88508E-06
 -1      3619 9.25325E-04-1.42392E-05 2.10020E-04
 -1      3620 5.25997E-03-4.25725E-05-4.60454E-03
 -1      3621 5.04403E-03-2.73724E-05-3.82480E-03
 -1      3622-4.33776E-06-6.05389E-07 7.00164E-08
 -1      3623-1.37402E-06 1.03945E-06-2.01293E-07
 -1      3624-9.65883E-07 7.26257E-07-2.14701E-07
 -1      3625-1.65201E-06 2.10246E-06-2.21208E-07
 -1      3626-2.64462E-06 2.57401E-06-2.39508E-07
 -1      3627-6.76884E-06 3.89360E-05-1.19820E-05
 -1      3628 5.86228E-06 1.53931E-04-5.19683E-04
 -1      3629 7.11341E-05 5.77520E-05-5.04213E-04
 -1      3630 8.82981E-05 1.19192E-04-6.46082E-04
 -1      3631 2.61091E-05 1.08645E-04-4.52595E-04
 -1      3632 1.01500E-03-1.90149E-05 4.31076E-04
 -1      3633-1.54431E-06 6.80732E-06-4.67372E-07
 -1      3634 4.94553E-06-1.53748E-04-5.21666E-04
 -1      3635 7.11599E-05-5.85645E-05-5.03873E-04
 -1      3636 8.60288E-05-1.18412E-04-6.46073E-04
 -1      3637 2.32885E-05-1.09192E-04-4.54396E-04
 -1      3638 2.87463E-03-9.89668E-06-1.36615E-03
 -1      3639 1.64621E-03 5.31690E-05-1.27215E-03
 -1      3640-2.20382E-06-6.79408E-06-3.04468E-07
 -1      3641-1.58984E-06-7.02066E-06-5.55106E-07
 -1      3642-1.50688E-07 2.00046E-08-3.31150E-07
 -1      3643 1.77598E-06 2.04273E-06-4.82587E-07
 -1      3644-2.45494E-06-9.38574E-07-3.59876E-07
 -1      3645-4.35751E-06 1.07540E-05-6.82658E-07
 -1      3646-2.70054E-06 6.51710E-06-2.07860E-07
 -1      3647-1.79994E-05 1.44878E-05-4.82445E-05
 -1      3648-2.15556E-05 2.20837E-05-4.49131E-05
 -1      3649-2.24320E-05 1.37667E-05-2.33300E-05
 -1      3650-3.63970E-05 2.94791E-05-7.57712E-05
 -1      3651 5.07533E-04 1.14400E-06 2.97402E-04
 -1      3652 5.43381E-04 7.92696E-07 3.32336E-04
 -1      3653 7.69078E-05 1.98141E-05-2.57297E-04
 -1      3654 1.05422E-04 5.29592E-05-3.10213E-04
 -1      3655 7.65726E-05-1.85843E-05-2.57604E-04
 -1      3656 1.05009E-04-5.21161E-05-3.10403E-04
 -1      3657-1.06235E-05 1.59976E-05-1.68461E-06
 -1      3658 1.23626E-06 8.96050E-06 2.79117E-06
 -1      3659-4.37044E-06 4.29299E-06 8.22776E-07
 -1      3660-2.39053E-06 8.14968E-06-1.92568E-07
 -1      3661-3.22124E-06 7.95917E-06 2.68774E-07
 -1      3662-1.44184E-06 5.95162E-06-1.53336E-07
 -1      3663-5.48151E-06-1.53199E-05 6.38152E-07
 -1      3664-4.25377E-06-1.07126E-05-8.42740E-07
 -1      3665-5.56700E-06-1.22811E-05-2.02888E-06
 -1      3666-5.35642E-06-1.29597E-05 8.06284E-07
 -1      3667-4.20771E-06-9.02664E-06-5.18451E-07
 -1      3668-5.20060E-06-1.29226E-05 4.74459E-07
 -1      3669-2.43660E-05-1.83110E-05-2.75102E-05
 -1      3670-1.58067E-05-2.77840E-05-2.76794E-05
 -1      3671 1.44048E-05-1.93997E-05 3.59616E-06
 -1      3672 2.80882E-05-1.58898E-04-3.95901E-04
 -1      3673-7.81887E-04-4.68524E-05-2.56917E-02
 -1      3674-1.83592E-06-2.73414E-06-1.82995E-07
 -1      3675-1.94076E-06-3.18586E-06-2.01368E-07
 -1      3676-1.27603E-06-1.73729E-06-2.44055E-07
 -1      3677-1.16954E-06-1.92829E-06-3.23424E-07
 -1      3678-8.15791E-05 4.53568E-05-1.61677E-04
 -1      3679-1.09110E-04 1.00753E-04-2.77831E-04
 -1      3680-4.62673E-05 5.67634E-05-1.59624E-04
 -1      3681-2.09212E-06-2.38731E-07 1.48336E-09
 -1      3682-6.17821E-07-3.25422E-06 7.21969E-08
 -1      3683 1.76252E-03 2.74313E-05-2.33727E-02
 -1      3684 2.97182E-03 1.45415E-05-2.42006E-02
 -1      3685 1.57128E-04 7.86280E-06 1.19921E-04
 -1      3686 9.39653E-05 1.86361E-05 5.88482E-05
 -1      3687 2.75411E-03 2.33286E-05-1.19627E-03
 -1      3688 1.64522E-03-5.42293E-05-1.27394E-03
 -1      3689 1.98002E-03-1.07021E-04-1.85787E-03
 -1      3690 3.02277E-06 2.51907E-06 1.09515E-06
 -1      3691 5.11957E-06-9.70725E-07 9.78416E-07
 -1      3692 2.19921E-05 8.23067E-06 1.07014E-05
 -1      3693 4.32246E-03 7.83698E-05-3.12307E-03
 -1      3694 3.37082E-03-1.87079E-05-4.19374E-03
 -1      3695-2.67785E-06-6.49144E-06-1.88081E-07
 -1      3696-2.58631E-06-4.46961E-06-1.13749E-06
 -1      3697-2.65038E-06-5.46365E-06-1.45530E-07
 -1      3698-2.79651E-06-3.61490E-06-1.53514E-04
 -1      3699 1.42647E-03-5.96966E-05-2.45859E-03
 -1      3700 2.07290E-03-4.01150E-05-3.73913E-03
 -1      3701 1.70465E-03-1.65503E-04-3.46400E-03
 -1      3702 6.98088E-04 3.54437E-05-1.74954E-02
 -1      3703 6.59486E-04 2.43892E-05-2.09859E-02
 -1      3704-6.93504E-05 1.38850E-05-1.94872E-02
 -1      3705 1.00540E-02 4.99216E-05-2.23550E-02
 -1      3706 7.49746E-03 5.92140E-06-2.50984E-02
 -1      3707 1.87939E-03 2.06912E-04-7.93735E-03
 -1      3708 3.85068E-03 3.03198E-05-9.29018E-03
 -1      3709 1.07624E-03-1.43474E-04-7.97467E-04
 -1      3710 6.50159E-04-2.98142E-04-1.47576E-03
 -1      3711-4.62281E-06 9.28941E-06 1.02656E-06
 -1      3712-5.93056E-04 4.47246E-05-2.50391E-02
 -1      3713-1.83412E-03 6.25873E-05-2.42176E-02
 -1      3714 6.35985E-04 2.98256E-05-2.36977E-02
 -1      3715-1.44162E-03-2.60638E-05-3.16183E-02
 -1      3716 2.20821E-03-1.61888E-05-3.01091E-02
 -1      3717 7.46697E-03 1.20069E-05-1.32980E-02
 -1      3718-1.68978E-06 2.07403E-06 5.13661E-07
 -1      3719-1.69483E-06 2.70114E-06 6.86546E-07
 -1      3720-9.71704E-07 2.82908E-06 3.02161E-08
 -1      3721-1.01899E-06 2.21644E-06 6.41676E-09
 -1      3722-3.47131E-05-8.98582E-05-2.59299E-04
 -1      3723-4.08421E-06-7.20816E-06-9.07625E-07
 -1      3724-4.86399E-06-1.03308E-05 2.37261E-07
 -1      3725-4.08343E-06-8.07419E-06 1.70895E-07
 -1      3726-2.84193E-05 2.50755E-05-2.82717E-05
 -1      3727-9.63943E-06-1.49632E-05-4.79131E-06
 -1      3728 2.83465E-05 1.65827E-05 2.07049E-05
 -1      3729 8.71293E-05 2.48397E-05 6.97998E-05
 -1      3730 4.56466E-05 2.09972E-05 2.08601E-05
 -1      3731-3.93719E-05 2.30599E-05-7.40060E-05
 -1      3732-4.40723E-06-1.17687E-05-9.24045E-07
 -1      3733-6.60902E-06-2.02446E-05-1.61480E-07
 -1      3734-6.32389E-06-1.76027E-05-3.13475E-06
 -1      3735-7.80137E-06-1.38456E-05-2.95909E-06
 -1      3736-7.64145E-06-1.65106E-05 9.51552E-08
 -1      3737-1.02407E-05 5.63371E-05-4.73189E-05
 -1      3738-1.80183E-03 7.50830E-05-2.21769E-02
 -1      3739 2.60167E-03 1.55641E-04-3.63716E-03
 -1      3740 3.71560E-03 1.30793E-07-3.98813E-03
 -1      3741 3.36726E-03 2.19119E-05-4.33566E-03
 -1      3742 9.61768E-03-2.69047E-05-1.05468E-02
 -1      3743 9.62864E-03 1.09594E-05-1.06044E-02
 -1      3744-4.17736E-06-6.91417E-06 1.08921E-06
 -1      3745-3.19214E-06-8.17442E-06 1.49691E-07
 -1      3746-1.40475E-06-6.13415E-06-1.99597E-07
 -1      3747 1.00991E-03-8.72830E-05-1.76484E-03
 -1      3748 1.02992E-03 3.27539E-07-9.46325E-04
 -1      3749 8.28197E-04 2.05874E-04-1.65921E-03
 -1      3750 1.00899E-03 8.54439E-05-1.76204E-03
 -1      3751 5.27624E-04 9.14141E-05-1.21518E-03
 -1      3752 8.97423E-04 8.24037E-05-8.81715E-04
 -1      3753 2.20449E-04-5.76737E-05-3.33302E-04
 -1      3754 4.39175E-04-2.56827E-07-1.45241E-04
 -1      3755 3.04666E-04-2.64340E-06-9.00161E-05
 -1      3756 1.78342E-04-1.65110E-06-1.15230E-04
 -1      3757 1.77719E-04 3.37453E-06-1.15499E-04
 -1      3758-1.42612E-06 4.67019E-06-4.49888E-07
 -1      3759-2.42229E-05-1.25356E-05-2.16853E-05
 -1      3760 8.03944E-05-3.29518E-05 5.71397E-05
 -1      3761 3.08813E-05-1.81240E-05 2.33940E-05
 -1      3762 4.56680E-05-3.38792E-05 4.26445E-05
 -1      3763 4.79410E-05-3.49927E-05 2.65074E-05
 -1      3764 2.02931E-05-1.87209E-05 1.09566E-05
 -1      3765 4.05273E-05-2.07226E-05 1.69537E-05
 -1      3766 5.60395E-03-9.21595E-05-5.14374E-03
 -1      3767 5.81660E-03-9.97246E-05-6.05856E-03
 -1      3768-2.45446E-06-8.28374E-06-2.71349E-07
 -1      3769 3.59964E-04-3.23224E-07 2.26367E-04
 -1      3770 2.20812E-04 6.49110E-05-2.06248E-04
 -1      3771-1.90997E-05 1.47328E-04-3.76148E-04
 -1      3772 2.64114E-05 1.49683E-04-4.85591E-04
 -1      3773 2.44072E-04 2.05114E-06 1.69009E-04
 -1      3774-1.14400E-06-3.18701E-06 1.82889E-07
 -1      3775-6.12335E-05 6.74257E-05-2.52591E-04
 -1      3776-1.13173E-06 3.18891E-06 1.70354E-07
 -1      3777 9.23831E-04 1.29296E-05 2.12452E-04
 -1      3778-2.32660E-06-2.09262E-06-7.01794E-07
 -1      3779-2.40955E-06-2.79688E-06-8.35779E-07
 -1      3780-2.01070E-06-2.98017E-06-2.68129E-07
 -1      3781-3.80507E-06-5.55110E-06-7.39666E-07
 -1      3782 6.56948E-04-1.49923E-06-2.58831E-02
 -1      3783-1.08767E-04 8.41400E-06-2.22887E-02
 -1      3784-2.23944E-06-3.97071E-06-2.41973E-07
 -1      3785 8.00354E-04-2.27947E-05-1.32040E-02
 -1      3786 1.00875E-02 3.49069E-05-2.43829E-02
 -1      3787 8.70176E-03 1.39251E-05-2.53033E-02
 -1      3788 3.71421E-04 2.07242E-04-1.14733E-03
 -1      3789 7.17009E-04 1.50731E-04-7.95937E-04
 -1      3790 4.86803E-04 7.60664E-05-6.19619E-04
 -1      3791-1.34695E-03 1.72264E-05-1.05249E-02
 -1      3792-1.35489E-03-1.90585E-05-1.04768E-02
 -1      3793 3.37487E-03 5.83504E-06-2.76255E-02
 -1      3794 6.26299E-06 4.86160E-06 7.32869E-06
 -1      3795-1.66521E-06 1.28132E-06 3.26824E-06
 -1      3796-1.38976E-04 2.05765E-04-4.75284E-04
 -1      3797-1.54428E-05 2.37505E-04-6.10219E-04
 -1      3798 2.07150E-06-1.27201E-06-9.57266E-07
 -1      3799 1.06691E-05 1.50560E-06-1.47589E-06
 -1      3800-3.38712E-05 8.99917E-05-2.59709E-04
 -1      3801-7.67159E-05 1.27922E-04-3.15511E-04
 -1      3802-5.11609E-05 1.66153E-04-4.36278E-04
 -1      3803-7.89829E-05-1.28684E-04-3.16137E-04
 -1      3804-5.36915E-05-1.66987E-04-4.36402E-04
 -1      3805 1.57244E-04-8.13163E-06 1.19421E-04
 -1      3806-4.27140E-04 1.40726E-05-2.62293E-02
 -1      3807 2.38685E-03 1.38256E-06-2.38150E-02
 -1      3808 2.46943E-03-4.75007E-07-2.02477E-04
 -1      3809 1.65866E-03-1.30574E-06-2.43656E-04
 -1      3810 2.33549E-03 1.82866E-06-4.56805E-04
 -1      3811 9.30546E-05 1.91736E-05 9.45372E-05
 -1      3812 1.40336E-04 1.15284E-05 1.43840E-04
 -1      3813 5.90050E-05 3.67573E-05 4.94464E-05
 -1      3814 9.53562E-05 3.89180E-05 8.43064E-05
 -1      3815-1.32776E-04 3.51451E-04-6.83741E-04
 -1      3816-6.20102E-05 3.65951E-04-8.24105E-04
 -1      3817-5.80895E-06 2.25414E-04-6.53173E-04
 -1      3818-5.98433E-05 2.08731E-04-5.32404E-04
 -1      3819 1.40567E-03-2.97131E-05 4.54066E-04
 -1      3820 1.40497E-03 3.63834E-05 4.54650E-04
 -1      3821 3.53807E-04-4.57451E-05-1.01785E-03
 -1      3822 1.81503E-04-1.73336E-04-8.83115E-04
 -1      3823 4.01444E-04 1.03501E-07 2.64541E-04
 -1      3824 9.99011E-03 1.05599E-04-1.64288E-02
 -1      3825 7.66163E-03 5.16204E-05-1.58977E-02
 -1      3826-3.75756E-06-6.92018E-06 1.44777E-07
 -1      3827-2.28047E-06-3.67921E-06-2.94699E-07
 -1      3828-2.25755E-06-4.62937E-06-2.32456E-07
 -1      3829 9.04740E-03-9.84642E-06-3.16707E-02
 -1      3830 5.47077E-03-7.20340E-06-3.01636E-02
 -1      3831 7.76235E-03-9.99096E-06-2.86559E-02
 -1      3832 6.69697E-03-8.36404E-06-2.90274E-02
 -1      3833 4.40187E-03-2.14003E-06-3.04446E-02
 -1      3834 6.78034E-04 1.47482E-05 3.90120E-04
 -1      3835-2.07028E-05-1.21491E-05-4.18042E-05
 -1      3836-5.55794E-06-1.44206E-05-2.34068E-06
 -1      3837-4.09432E-06-1.22832E-05-9.32968E-07
 -1      3838-1.45710E-03-8.63078E-05-1.23454E-02
 -1      3839 1.99398E-03-5.49265E-05-1.24018E-02
 -1      3840 3.01841E-05-3.23010E-05 2.42619E-05
 -1      3841 1.22685E-05-1.50522E-05 5.34152E-06
 -1      3842-6.13064E-06 1.19053E-05 1.36312E-06
 -1      3843 5.14085E-03-1.06293E-05-2.36771E-02
 -1      3844 3.76767E-03-1.86575E-05-2.52988E-02
 -1      3845-5.37942E-06-1.66362E-05-2.47583E-06
 -1      3846-5.43555E-06-1.77932E-05 8.69156E-07
 -1      3847 9.74305E-03 7.57760E-05-1.22882E-02
 -1      3848 9.66348E-03 5.66073E-05-1.10171E-02
 -1      3849-1.62672E-06 9.48194E-06 1.47769E-06
 -1      3850-5.74071E-06 1.22116E-05 8.80412E-07
 -1      3851 6.40824E-03 3.95680E-05-1.24327E-02
 -1      3852 1.41702E-04-1.10530E-05 1.46149E-04
 -1      3853 1.23099E-04-3.20024E-05 1.20211E-04
 -1      3854 9.58753E-05-1.93238E-05 9.79880E-05
 -1      3855-7.26697E-07 3.06838E-06 4.15299E-08
 -1      3856 9.78038E-03-6.32459E-06-3.12747E-02
 -1      3857 9.81178E-03-5.44852E-06-3.14320E-02
 -1      3858 7.76495E-03-5.45050E-06-2.83997E-02
 -1      3859 6.24860E-03-1.05176E-05-3.01372E-02
 -1      3860 7.76799E-03-7.86093E-06-2.82398E-02
 -1      3861 8.69275E-06 6.30412E-06 4.82685E-06
 -1      3862-3.50717E-06-1.40759E-06-1.32868E-04
 -1      3863-4.79191E-06 9.19607E-06-8.03794E-07
 -1      3864-3.20539E-06 6.99889E-06-3.16769E-07
 -1      3865-3.69710E-06 8.90149E-06-6.79885E-07
 -1      3866-2.59029E-06-5.38806E-06-1.33422E-06
 -1      3867-2.63180E-06-7.47880E-06-2.73093E-07
 -1      3868 1.63686E-03-9.07449E-07 2.90509E-04
 -1      3869 1.10516E-04-3.92810E-05 7.78022E-05
 -1      3870 9.62934E-05-2.09761E-05 5.32252E-05
 -1      3871 5.37134E-05-1.62662E-05 1.54936E-05
 -1      3872-3.70553E-06-8.96578E-06-5.56512E-07
 -1      3873-5.44738E-06-9.95975E-06-9.09791E-07
 -1      3874-2.29735E-05-1.81076E-05-3.72366E-05
 -1      3875-3.70858E-05-3.02368E-05-7.50727E-05
 -1      3876-2.58265E-06-3.72334E-06-1.15572E-06
 -1      3877 1.21989E-03 1.85877E-04-2.35941E-03
 -1      3878 2.06633E-03 4.84557E-05-3.72613E-03
 -1      3879 1.71055E-03 1.63558E-04-3.46044E-03
 -1      3880 7.19519E-03-9.33459E-06-2.96360E-02
 -1      3881 8.71454E-03 1.32759E-06-2.78850E-02
 -1      3882 3.82491E-03-1.94974E-05-2.86789E-02
 -1      3883 4.77816E-03 3.99022E-05-3.53670E-03
 -1      3884 5.30546E-03 1.13296E-04-4.66831E-03
 -1      3885 1.90704E-03 1.51312E-05-2.66930E-02
 -1      3886-4.27998E-04 2.58987E-05-2.61437E-02
 -1      3887 5.08149E-04 1.42062E-05 3.52785E-04
 -1      3888 3.63498E-04 7.33148E-06 2.79458E-04
 -1      3889 5.09156E-04-1.00116E-05 3.53722E-04
 -1      3890 6.05202E-03-2.50058E-04-4.86328E-03
 -1      3891 6.41503E-03-2.38958E-04-6.35772E-03
 -1      3892 5.61093E-03-1.45053E-04-5.22170E-03
 -1      3893 5.96510E-03-1.39162E-04-6.73242E-03
 -1      3894 4.37977E-05-5.70270E-06 3.75683E-05
 -1      3895 4.10851E-05-4.77715E-06 3.34607E-05
 -1      3896 1.42907E-03 5.90239E-05-2.44858E-03
 -1      3897 8.41530E-04-2.22582E-05-3.62472E-04
 -1      3898 1.24542E-03-4.69678E-05-4.10826E-04
 -1      3899 5.01861E-04-6.93047E-05-2.84174E-04
 -1      3900-1.38099E-03-6.55055E-05-1.08989E-02
 -1      3901-7.82292E-06 7.49826E-06-2.19154E-06
 -1      3902-8.04249E-06 1.13140E-05-7.71585E-07
 -1      3903-4.21662E-06 5.18136E-06-7.21728E-07
 -1      3904-3.74805E-06 2.44204E-06-7.21907E-07
 -1      3905 2.12234E-05 1.29146E-05 1.29074E-05
 -1      3906 3.44527E-05 8.51958E-06 2.77869E-05
 -1      3907 6.13762E-05 9.51788E-06 5.07425E-05
 -1      3908 1.64169E-05 9.37463E-06 1.23031E-05
 -1      3909 3.85778E-05 1.39201E-05 2.23089E-05
 -1      3910-4.32663E-06-8.28390E-06 5.03212E-07
 -1      3911-4.63573E-06-9.27258E-06 8.72657E-07
 -1      3912-3.67513E-06-7.43596E-06 5.59992E-07
 -1      3913 4.30468E-04 2.48260E-06 1.25966E-04
 -1      3914 4.30431E-04-3.67401E-07 1.25027E-04
 -1      3915 3.91374E-04 9.89107E-07 2.12078E-05
 -1      3916-9.45660E-06-5.51281E-05-4.55043E-05
 -1      3917-6.82044E-06-4.36035E-05-1.83320E-05
 -1      3918-1.14695E-05-3.41533E-05-1.10317E-05
 -1      3919-2.23655E-05-5.44396E-05-4.94450E-05
 -1      3920-5.77264E-06-5.90218E-05-5.03611E-05
 -1      3921-2.65436E-06-4.39011E-06 1.30192E-07
 -1      3922-4.93009E-06 7.55147E-06-6.62052E-07
 -1      3923 6.80526E-05 4.05777E-05 4.77358E-05
 -1      3924 1.56940E-04 1.45319E-04-3.88415E-04
 -1      3925 2.11091E-03-6.50119E-06-8.22089E-04
 -1      3926 2.11175E-03 5.02258E-06-8.19349E-04
 -1      3927 1.41644E-03 1.68941E-05-5.44056E-04
 -1      3928 6.41120E-04 1.73691E-05-2.38018E-02
 -1      3929-2.43858E-06-5.98803E-06-1.39110E-06
 -1      3930 2.76790E-03 3.28407E-05-5.69855E-04
 -1      3931 2.86299E-03-5.65844E-05-3.11988E-04
 -1      3932 2.76787E-03-3.27216E-05-5.73954E-04
 -1      3933-4.00298E-06 5.64606E-06-6.09159E-07
 -1      3934 5.83814E-05 2.42346E-05-7.84969E-05
 -1      3935-1.04382E-05-2.44292E-05-4.93193E-07
 -1      3936-7.61592E-06-1.92549E-05 1.51257E-06
 -1      3937-1.05262E-05-1.96108E-05 4.47098E-07
 -1      3938-4.82030E-06-2.01875E-05-3.95406E-06
 -1      3939 6.66207E-07-3.12432E-05-1.10363E-05
 -1      3940-6.24997E-06-2.73467E-05-1.11421E-05
 -1      3941 1.61479E-03-8.85973E-08 1.23199E-04
 -1      3942 1.26273E-03-4.02705E-07 1.23036E-04
 -1      3943 1.01731E-03-4.61873E-05-2.85062E-04
 -1      3944 7.00483E-04-8.90323E-06-6.62960E-05
 -1      3945 3.24678E-04-6.62508E-05-2.03911E-04
 -1      3946 4.63566E-05 1.35457E-05 4.06816E-05
 -1      3947 2.62519E-05 2.07285E-05 1.88026E-05
 -1      3948-2.25264E-06-6.75463E-06-1.68637E-06
 -1      3949-1.24294E-06-4.54103E-06-1.10975E-06
 -1      3950-1.91896E-06-9.10161E-06-4.94894E-07
 -1      3951-2.83776E-06-1.23621E-05-1.72814E-06
 -1      3952-3.83548E-06-1.36200E-05-1.87695E-06
 -1      3953 3.05331E-05 4.33363E-06 2.70043E-05
 -1      3954 1.31718E-05 7.05485E-06 1.22281E-05
 -1      3955 1.22355E-03-1.90218E-04-2.34944E-03
 -1      3956 6.26407E-03-6.80456E-06-2.62604E-02
 -1      3957 3.84620E-06 3.36912E-06-2.49720E-07
 -1      3958 2.73935E-03-1.55071E-04-6.43797E-03
 -1      3959 1.48050E-03-3.07021E-04-5.97430E-03
 -1      3960 3.21822E-03-8.03406E-05-5.27684E-03
 -1      3961 2.37032E-03-1.04162E-04-6.49989E-03
 -1      3962 4.48227E-03 4.81984E-05-5.77649E-03
 -1      3963 5.90744E-03-9.26147E-05-6.82474E-03
 -1      3964 1.73366E-04 9.70153E-06 1.43520E-04
 -1      3965-2.02673E-05-2.54152E-05-4.07529E-05
 -1      3966-2.75896E-05-5.00810E-05-8.08385E-05
 -1      3967 4.88939E-04-3.00171E-05-3.35635E-04
 -1      3968 4.90230E-04 3.07298E-05-3.35598E-04
 -1      3969 5.03563E-04 5.19536E-06 1.45506E-05
 -1      3970 5.05215E-04-2.11060E-06 1.37846E-05
 -1      3971 5.99805E-04-1.05935E-06-1.18563E-04
 -1      3972-1.96192E-06 3.00592E-06 1.61344E-07
 -1      3973 3.03988E-04-4.13963E-05-6.21013E-04
 -1      3974 3.01405E-04 4.26542E-05-6.20562E-04
 -1      3975-2.70133E-06 5.70938E-06-1.33337E-06
 -1      3976-2.70827E-06 7.62499E-06-3.02478E-07
 -1      3977-5.46548E-06-1.01516E-05-1.74715E-06
 -1      3978-4.41753E-06-8.11170E-06 9.23544E-08
 -1      3979 6.11380E-07 4.29698E-07-5.06555E-07
 -1      3980-5.20438E-06-7.93144E-06-1.37518E-06
 -1      3981-1.13637E-06 9.09643E-07 2.41209E-07
 -1      3982 2.18746E-03-9.43936E-05-4.89684E-03
 -1      3983 9.89606E-03-1.23146E-04-1.44489E-02
 -1      3984 6.42851E-03-4.37087E-05-1.41085E-02
 -1      3985-4.95386E-06-5.81499E-06-1.03094E-06
 -1      3986 5.37331E-03-8.89605E-05-8.71320E-03
 -1      3987 6.79909E-03 8.99432E-05-4.77837E-03
 -1      3988 6.36858E-03 1.14883E-04-3.72687E-03
 -1      3989 4.95374E-03 1.98912E-06-3.50504E-03
 -1      3990 2.61266E-04 4.09188E-06 1.95065E-04
 -1      3991 9.09832E-03-8.81137E-06-3.18337E-02
 -1      3992 5.54788E-03-9.61338E-06-3.06595E-02
 -1      3993-6.24405E-06-3.78938E-05-1.07476E-05
 -1      3994-4.93996E-06-3.12144E-05-4.23891E-06
 -1      3995-5.61283E-06 1.46636E-05-2.05795E-06
 -1      3996-5.49501E-06 1.75506E-05 1.01099E-06
 -1      3997-2.41265E-06 6.07233E-06-1.30122E-06
 -1      3998-4.12948E-06 1.21338E-05-6.97250E-07
 -1      3999-7.54570E-04-3.80485E-05-2.90635E-02
 -1      4000-5.43054E-06 1.65605E-05-2.35712E-06
 -1      4001 2.89623E-06-3.77201E-05-2.29588E-05
 -1      4002-6.46022E-06-3.28149E-05-2.19523E-05
 -1      4003 8.02849E-04 5.56969E-06 6.18179E-05
 -1      4004 2.03251E-03 7.51784E-06-3.68275E-03
 -1      4005 2.32404E-03 2.72741E-05-5.08114E-03
 -1      4006 3.87847E-03-2.26628E-05-2.55259E-02
 -1      4007 7.62579E-05-2.47633E-04-8.31472E-04
 -1      4008-1.10465E-06 1.29447E-06 4.25728E-07
 -1      4009 6.54080E-03-5.93865E-05-1.50689E-02
 -1      4010 4.29783E-03 3.28938E-06-1.48341E-02
 -1      4011 1.81839E-03-7.77535E-07-4.00029E-05
 -1      4012 2.54122E-03 5.95093E-07-1.59231E-05
 -1      4013 4.49974E-03 1.05673E-04-3.23064E-03
 -1      4014 1.54380E-04 2.40120E-04-6.76944E-04
 -1      4015-7.35389E-06-1.63630E-05 1.65831E-06
 -1      4016-7.04418E-06-1.33936E-05 7.55552E-08
 -1      4017 4.22063E-03-8.33235E-06-1.24838E-02
 -1      4018 9.28836E-05-1.57412E-05 7.57390E-05
 -1      4019 3.15912E-05-1.29476E-05 2.36469E-05
 -1      4020 8.34664E-05-1.24501E-05 6.47069E-05
 -1      4021 3.03929E-05-2.63231E-06 2.71188E-05
 -1      4022 7.66182E-05 7.83546E-09 6.52765E-05
 -1      4023 6.58604E-05-1.15659E-05 5.17484E-05
 -1      4024 1.60152E-04 2.35782E-04-9.04421E-04
 -1      4025 3.73689E-05 6.22316E-07 3.12432E-05
 -1      4026 6.70458E-05-2.75589E-05 5.60655E-05
 -1      4027 3.12627E-04-2.55454E-06-1.05620E-05
 -1      4028 2.49355E-05 1.83837E-05 2.47379E-05
 -1      4029-1.19935E-04 4.08343E-05-1.66879E-04
 -1      4030-1.75136E-04 4.66049E-05-1.85457E-04
 -1      4031-1.03724E-04 6.30233E-05-2.29548E-04
 -1      4032-1.47202E-04 1.12746E-04-2.95431E-04
 -1      4033-1.76591E-04-4.65049E-05-1.84538E-04
 -1      4034-1.21915E-04-4.10540E-05-1.66743E-04
 -1      4035-1.50685E-04-1.13140E-04-2.96579E-04
 -1      4036-1.05548E-04-6.35814E-05-2.30396E-04
 -1      4037-1.04950E-05 2.30083E-05-5.67844E-05
 -1      4038-6.71591E-06 1.39209E-05-6.02022E-05
 -1      4039-5.22499E-08-2.16059E-05-3.37232E-06
 -1      4040 1.97151E-03-1.85133E-06 2.78878E-04
 -1      4041 2.09505E-03 5.79163E-05 3.48920E-04
 -1      4042 8.08373E-05 1.31203E-05 5.14357E-05
 -1      4043 7.21161E-05 9.84451E-06 5.31317E-05
 -1      4044-6.62067E-06-2.00198E-05 1.53901E-06
 -1      4045-8.13658E-06-2.46388E-05 3.49583E-07
 -1      4046 2.05768E-03 6.96401E-05-1.50575E-02
 -1      4047 3.37580E-05-7.74746E-06 2.74740E-05
 -1      4048 1.71566E-05-1.00648E-05 1.20512E-05
 -1      4049 2.49951E-05-1.31603E-05 1.75865E-05
 -1      4050 4.79066E-05-1.68058E-05 2.80162E-05
 -1      4051 3.72186E-05 4.71360E-04-1.18288E-03
 -1      4052 3.40210E-04 3.76631E-04-1.11403E-03
 -1      4053 4.45296E-04 1.66132E-04-5.43892E-04
 -1      4054 2.38252E-04 2.79380E-04-9.90485E-04
 -1      4055 7.09179E-05-1.16840E-05 4.90008E-05
 -1      4056 5.80566E-04-1.07868E-05 3.73820E-04
 -1      4057 5.80831E-04 1.49346E-05 3.73463E-04
 -1      4058 4.10199E-05-3.16973E-06 2.05933E-05
 -1      4059 2.06573E-05 2.65474E-06 1.04038E-05
 -1      4060 1.36226E-05 4.10068E-04-1.02807E-03
 -1      4061 3.23054E-05 2.92070E-06-2.39083E-04
 -1      4062 3.66704E-03-1.30837E-05-4.11357E-03
 -1      4063 2.53673E-03-1.69795E-04-3.67734E-03
 -1      4064-1.51001E-05 8.77078E-07-4.88231E-05
 -1      4065 2.11136E-03 8.35191E-05-1.29854E-02
 -1      4066 1.88748E-03 4.85354E-05-1.40849E-02
 -1      4067 1.97905E-05 1.65690E-05 1.06071E-05
 -1      4068 1.20978E-05 1.34222E-05 4.73793E-06
 -1      4069 1.05048E-05 9.79061E-06 2.83910E-06
 -1      4070 6.08334E-06 6.62020E-06 8.17474E-07
 -1      4071 2.46127E-05 1.48145E-05 5.30805E-06
 -1      4072-1.56042E-03 1.09192E-04-1.34940E-02
 -1      4073-9.84464E-05 3.05644E-05-1.15997E-04
 -1      4074 4.61965E-05-1.32273E-05 4.10554E-05
 -1      4075 2.69144E-05-1.88965E-05 2.67702E-05
 -1      4076-5.33796E-06-3.13785E-05-7.30276E-07
 -1      4077-7.84638E-06-2.90412E-05-1.70189E-06
 -1      4078 4.77574E-03-1.68824E-05-2.98050E-03
 -1      4079 4.58869E-03 1.03344E-05-2.52866E-03
 -1      4080 4.20476E-03 3.05298E-05-1.26936E-03
 -1      4081 3.40220E-03-3.80376E-06-1.78689E-03
 -1      4082 4.40197E-03-6.59461E-06-1.57094E-03
 -1      4083-6.16206E-06-1.75395E-05 1.47589E-06
 -1      4084-6.16219E-06-1.51753E-05 1.50721E-06
 -1      4085 9.01563E-03-1.00287E-05-3.12851E-02
 -1      4086-4.51833E-06-9.44070E-06 9.43400E-07
 -1      4087 6.49993E-04-1.05974E-05-2.82047E-02
 -1      4088-1.56453E-03-1.19440E-04-1.36150E-02
 -1      4089 1.94499E-03-6.56524E-05-1.37656E-02
 -1      4090-1.91489E-05-9.74591E-06-1.19522E-05
 -1      4091 9.86963E-03-1.10069E-04-1.36719E-02
 -1      4092 1.85297E-04-9.88707E-05-8.35866E-04
 -1      4093 1.15286E-04-1.21947E-04-5.42461E-04
 -1      4094-2.16410E-05-6.37911E-05-7.46731E-05
 -1      4095-1.70271E-05-7.51379E-05-1.17264E-04
 -1      4096-3.79486E-05-6.46396E-05-1.01686E-04
 -1      4097 1.13170E-03-4.93605E-06-1.42700E-04
 -1      4098-2.08473E-06-1.39226E-05-9.82214E-07
 -1      4099-2.57633E-06-2.26551E-05 7.50936E-07
 -1      4100-4.79607E-06-2.13234E-05 1.49836E-07
 -1      4101 1.45904E-03-2.41461E-04-8.15224E-03
 -1      4102-1.10728E-05-1.47747E-05-1.42193E-05
 -1      4103-5.12950E-05-4.37561E-05-1.13226E-04
 -1      4104 2.07358E-05 1.39666E-05 1.04237E-05
 -1      4105 2.40963E-05 1.14143E-05 4.96175E-06
 -1      4106 3.70336E-04-6.71393E-06 2.81536E-04
 -1      4107 2.17144E-03-4.48882E-05-4.88721E-03
 -1      4108 8.71783E-03-1.56707E-06-2.77282E-02
 -1      4109 1.05298E-04 2.02960E-05 6.56572E-05
 -1      4110 1.08291E-04 2.63304E-05 7.12603E-05
 -1      4111-1.58473E-03 1.24808E-04-1.44020E-02
 -1      4112 4.70470E-03-1.27798E-04-3.55235E-03
 -1      4113 4.30813E-03-1.30495E-05-3.01523E-02
 -1      4114-4.13745E-06-6.36606E-05-6.29316E-05
 -1      4115-1.59279E-05 4.30306E-07-1.55103E-05
 -1      4116-8.43951E-06 5.00840E-07-1.43590E-06
 -1      4117 9.82827E-04-2.40139E-06 4.77532E-05
 -1      4118 7.08030E-04-4.70415E-06 1.42237E-04
 -1      4119 8.09533E-04-4.00902E-06 5.28536E-05
 -1      4120-3.86900E-06 2.65078E-05 2.77221E-06
 -1      4121-4.64459E-06 2.47982E-05 2.57044E-06
 -1      4122-3.29471E-06 2.07371E-05 1.16192E-06
 -1      4123-4.45377E-06 2.22648E-05 1.14556E-06
 -1      4124-1.18657E-05-1.63086E-05-3.26995E-06
 -1      4125-4.97007E-06-1.24907E-05 7.50329E-07
 -1      4126 2.56752E-03 5.35974E-07-1.02834E-03
 -1      4127 2.22765E-03-3.65576E-07 1.58993E-04
 -1      4128 7.01290E-06 9.44040E-06 1.50074E-06
 -1      4129 2.82173E-05 2.09336E-05 9.06431E-06
 -1      4130 1.34931E-05 9.83032E-06 2.41241E-07
 -1      4131 1.01372E-05 8.27696E-06-1.29411E-06
 -1      4132 1.74521E-05 5.08982E-06-1.22981E-06
 -1      4133 7.06397E-04 6.58495E-06 1.45042E-04
 -1      4134-4.68998E-06-2.48254E-05 2.68994E-06
 -1      4135-3.94767E-06-2.65513E-05 2.85424E-06
 -1      4136-4.35507E-06-2.24336E-05 1.14746E-06
 -1      4137-3.25455E-06-2.06648E-05 1.20033E-06
 -1      4138 6.62327E-06 5.41831E-07 8.89294E-08
 -1      4139-3.17444E-07-6.82746E-07-2.91255E-07
 -1      4140-7.16324E-07-5.09688E-06-2.62720E-07
 -1      4141-6.85722E-04-1.64594E-05-3.22329E-02
 -1      4142 2.92236E-03-1.05073E-05-3.06649E-02
 -1      4143-1.74672E-06-7.07038E-06 3.13912E-07
 -1      4144-2.59809E-06-5.79290E-06-2.01955E-07
 -1      4145-2.01625E-06-5.44412E-06 1.48784E-07
 -1      4146 2.53637E-07-2.43866E-06-7.32027E-07
 -1      4147 1.14983E-04-1.87009E-05 7.85901E-05
 -1      4148-4.31284E-04-2.28499E-06-2.66896E-02
 -1      4149 6.48013E-03-7.79053E-05-1.29961E-02
 -1      4150 5.26643E-03-1.43281E-05-2.96631E-02
 -1      4151-7.51775E-06-3.23887E-08-8.04278E-07
 -1      4152 1.00831E-05-3.43759E-08 1.31547E-05
 -1      4153 7.63360E-06 6.18334E-06 3.21123E-06
 -1      4154 1.01896E-05 7.41172E-06 7.73410E-06
 -1      4155-2.57589E-06-9.07899E-06-4.17774E-07
 -1      4156-1.84676E-06-9.36975E-06-7.25044E-07
 -1      4157-1.56186E-04-1.34391E-04-3.34145E-04
 -1      4158-1.08477E-04-7.13261E-05-2.37956E-04
 -1      4159-1.89035E-04-3.50044E-05-1.65031E-04
 -1      4160-9.73737E-05-1.50871E-04-3.70345E-04
 -1      4161-2.14582E-05-7.28543E-05-2.25633E-04
 -1      4162-2.49371E-05-1.47754E-04-4.51406E-04
 -1      4163 8.41997E-04 2.20544E-05-3.60784E-04
 -1      4164 4.94488E-03-9.23717E-05-2.01221E-03
 -1      4165 3.64033E-03-4.82556E-05-1.07442E-03
 -1      4166 2.86441E-03 5.83109E-05-2.99406E-04
 -1      4167 1.42169E-03-1.52050E-05-5.43193E-04
 -1      4168 1.24783E-03 5.01373E-05-4.03748E-04
 -1      4169 7.81379E-06 1.13913E-05-2.24631E-08
 -1      4170 2.06907E-05 9.50096E-06 8.07566E-08
 -1      4171-5.02468E-06-1.96010E-05 2.51377E-07
 -1      4172-4.20838E-06-1.60571E-05 2.66777E-07
 -1      4173 1.70595E-05-1.37544E-06 2.04226E-06
 -1      4174 1.48317E-05-3.12159E-06 3.75917E-06
 -1      4175 4.56808E-06-6.72801E-06 1.18592E-06
 -1      4176 1.74126E-04-9.79898E-06 1.44451E-04
 -1      4177 1.01742E-02-5.05614E-05-2.41576E-02
 -1      4178 9.85860E-03 1.03393E-04-1.35439E-02
 -1      4179 6.46478E-03 4.15764E-05-1.37890E-02
 -1      4180 4.96315E-05-6.88541E-06 2.12196E-05
 -1      4181 4.07302E-05-6.18334E-06 1.08318E-05
 -1      4182 1.44773E-03-4.12259E-07-2.41694E-03
 -1      4183 1.28503E-04-4.93965E-05-6.68683E-04
 -1      4184 2.14003E-04-1.14684E-05-8.51272E-04
 -1      4185 1.88963E-04 9.66513E-05-8.38194E-04
 -1      4186 1.29592E-04 4.80440E-05-6.67232E-04
 -1      4187-5.22944E-06-2.42364E-05 1.60175E-06
 -1      4188 3.87406E-05-9.22095E-07 3.06633E-05
 -1      4189 1.74863E-05-6.49143E-06 6.07887E-06
 -1      4190 1.09787E-06 2.46034E-07-3.65737E-07
 -1      4191 4.45431E-06 3.47780E-06 6.62358E-07
 -1      4192 1.48955E-06 6.79867E-07-4.94259E-07
 -1      4193 5.95328E-06 1.28487E-06-8.08773E-07
 -1      4194-1.95391E-05 2.36249E-05-2.99342E-05
 -1      4195-3.02009E-05 4.90019E-05-8.53123E-05
 -1      4196-7.18038E-04-1.06659E-05-3.18068E-02
 -1      4197 2.32638E-05 1.06883E-05-1.50468E-04
 -1      4198 2.08271E-05-1.13905E-05-1.45549E-04
 -1      4199-3.64026E-06-7.42267E-06-3.24026E-07
 -1      4200 1.09098E-04 7.46610E-05-2.52457E-04
 -1      4201-5.43611E-06-1.89935E-05-2.59060E-06
 -1      4202-3.90455E-06-1.61381E-05-2.08465E-06
 -1      4203 2.07183E-05 3.41240E-06 2.15436E-05
 -1      4204 4.61689E-05 6.54238E-06 4.21846E-05
 -1      4205-3.72684E-07 1.29080E-05-8.98695E-07
 -1      4206-2.04430E-06 1.75847E-05 7.14605E-07
 -1      4207 8.55143E-06 4.16452E-06 1.13565E-05
 -1      4208 1.26201E-05 9.52591E-07 1.66938E-05
 -1      4209 2.86567E-05 2.19757E-06 2.99055E-05
 -1      4210-5.31693E-07 1.35412E-06 5.80072E-06
 -1      4211 6.27165E-03-7.49599E-05-9.87873E-03
 -1      4212 4.21819E-03-7.03340E-06-1.01259E-02
 -1      4213 4.22504E-03 5.84203E-07-1.29022E-02
 -1      4214 2.17639E-03 6.81838E-05-9.83944E-03
 -1      4215 6.79830E-04 5.99785E-05-2.77039E-04
 -1      4216-1.31802E-05-2.26682E-05-5.07453E-05
 -1      4217-9.54534E-06-1.45801E-05-5.65396E-05
 -1      4218 1.46789E-04-3.38670E-05 1.17265E-04
 -1      4219 1.93909E-04-2.21871E-05 1.76331E-04
 -1      4220-1.02402E-04-3.05290E-05-1.16762E-04
 -1      4221 3.77607E-05 1.12948E-05 6.73774E-06
 -1      4222 6.39798E-05 1.50649E-05 2.30145E-05
 -1      4223 3.20503E-05 6.67647E-06 3.38031E-06
 -1      4224 1.90872E-04 2.32151E-05 1.75066E-04
 -1      4225-5.18862E-06-6.32239E-06-9.99244E-07
 -1      4226-5.03998E-06-8.60846E-06-1.88802E-07
 -1      4227-3.50916E-06-5.46722E-06-4.04182E-07
 -1      4228-5.97303E-06-8.27910E-06-1.11355E-06
 -1      4229-7.05638E-06-1.15772E-05-1.56002E-07
 -1      4230-9.05024E-06-1.27058E-05-1.00142E-06
 -1      4231-1.35461E-06-2.39317E-06-4.66276E-07
 -1      4232-3.40652E-06 5.55531E-05-1.24742E-04
 -1      4233-1.79612E-05 7.56961E-05-1.69403E-04
 -1      4234-1.00440E-05 5.83245E-05-8.73965E-05
 -1      4235-4.11896E-05 6.16835E-05-1.04023E-04
 -1      4236-2.31774E-06 8.56096E-06-4.54299E-07
 -1      4237-3.85878E-06 1.37307E-05-1.81685E-06
 -1      4238 5.98490E-06-4.20140E-06 1.22132E-07
 -1      4239-2.79176E-06-4.05179E-06-5.39569E-07
 -1      4240-2.93170E-06-3.60259E-06-5.40089E-07
 -1      4241 6.36767E-03 2.26718E-04-6.51264E-03
 -1      4242 6.00825E-03 2.47576E-04-4.97268E-03
 -1      4243 5.94923E-03 1.35507E-04-6.56761E-03
 -1      4244 5.58842E-03 1.52159E-04-5.06658E-03
 -1      4245 9.75747E-04-4.21167E-08-1.77819E-03
 -1      4246 5.43738E-04 2.79624E-07-1.21091E-03
 -1      4247 6.34786E-03-8.27093E-05-1.11369E-02
 -1      4248-1.00824E-06-7.60781E-06-4.13037E-07
 -1      4249 2.10610E-03 8.60445E-05-1.11099E-02
 -1      4250 5.32115E-05-2.27310E-05-7.87635E-05
 -1      4251 1.07834E-04-7.16240E-05-2.21670E-04
 -1      4252-4.30220E-04 1.19269E-07-2.85564E-02
 -1      4253 8.35048E-05-1.32658E-05 5.31488E-05
 -1      4254 6.35969E-05 1.20524E-05 2.19544E-05
 -1      4255-1.07825E-05-9.35424E-06-3.53121E-06
 -1      4256-6.41010E-06-6.06201E-06-1.62378E-06
 -1      4257 4.45351E-03-6.86620E-06-3.11303E-02
 -1      4258 1.83842E-03-5.19654E-06-3.10806E-02
 -1      4259 4.78817E-03-5.91114E-05-3.52438E-03
 -1      4260 4.48921E-03-1.06366E-04-3.23195E-03
 -1      4261-8.12611E-06-9.51726E-06-2.24252E-06
 -1      4262 3.75860E-06 3.34983E-05-4.72214E-05
 -1      4263-1.29738E-05 3.12514E-05-3.22494E-05
 -1      4264-3.74121E-06 3.65028E-05-3.19583E-05
 -1      4265-4.99751E-06 1.94575E-05 4.99485E-07
 -1      4266-1.58829E-03-1.36185E-04-1.43978E-02
 -1      4267 1.04493E-06-4.92633E-06-1.43726E-07
 -1      4268-3.13586E-07-3.49044E-06-3.30644E-07
 -1      4269-8.53822E-06 1.51594E-05 1.39970E-06
 -1      4270 3.57392E-04 4.40857E-05-1.01745E-03
 -1      4271 2.57688E-04 1.58488E-04-9.58028E-04
 -1      4272-2.03906E-05-2.07621E-05-1.46746E-05
 -1      4273-2.79704E-05-2.10440E-05-3.49594E-05
 -1      4274 1.96351E-03-1.11321E-05-6.47458E-04
 -1      4275-9.97309E-05 2.06146E-04-4.24901E-04
 -1      4276-1.33905E-04 1.56591E-04-3.79513E-04
 -1      4277 1.96864E-03 1.19857E-05-6.45246E-04
 -1      4278-1.02482E-04-2.07408E-04-4.25480E-04
 -1      4279-1.37708E-04-1.56814E-04-3.80086E-04
 -1      4280-1.39115E-05 7.28984E-05-1.02234E-04
 -1      4281-1.72393E-06 9.23574E-06-6.29503E-07
 -1      4282-9.91903E-07 7.44583E-06-3.43914E-07
 -1      4283 4.35639E-03-4.82604E-07-1.18377E-02
 -1      4284-1.84979E-03-8.29851E-05-2.38775E-02
 -1      4285-1.82518E-03-9.50910E-05-2.19258E-02
 -1      4286 3.29344E-04-5.61045E-05-2.39980E-02
 -1      4287-7.75341E-04-5.88014E-05-2.44101E-02
 -1      4288 5.35190E-03-1.15473E-04-4.80226E-03
 -1      4289-3.99455E-07 9.50026E-06-9.50406E-08
 -1      4290-1.49265E-06 1.04532E-05-5.32583E-07
 -1      4291-1.84607E-05-7.54757E-05-1.69233E-04
 -1      4292-5.48757E-06-5.49567E-05-1.18115E-04
 -1      4293-2.48713E-06-1.07474E-05-6.29878E-07
 -1      4294-4.31647E-06-1.46769E-05-1.55193E-06
 -1      4295-5.46057E-06 1.88767E-05-2.46043E-06
 -1      4296-3.96823E-06 1.62828E-05-1.97139E-06
 -1      4297 1.48501E-05 1.09743E-05 6.26351E-06
 -1      4298 7.50671E-06 6.43650E-06 1.29084E-06
 -1      4299 2.30720E-05-2.44053E-05 5.84377E-06
 -1      4300 3.38997E-05-1.48646E-05 5.38313E-06
 -1      4301-1.03318E-06 4.86720E-06-1.68065E-06
 -1      4302-1.21308E-06 4.48323E-06-1.20257E-06
 -1      4303-1.79709E-06 8.95792E-06-4.94818E-07
 -1      4304-2.85606E-06 1.24553E-05-1.70315E-06
 -1      4305-1.38570E-06 9.29575E-06-5.42685E-07
 -1      4306 1.17907E-03 2.38180E-05-9.02708E-05
 -1      4307 1.54527E-03-1.05500E-05-3.71512E-04
 -1      4308 3.48146E-06 6.50679E-06 1.97069E-07
 -1      4309 2.66671E-07-2.29574E-07 6.78689E-06
 -1      4310 6.72893E-05 7.06278E-05-2.97041E-04
 -1      4311 1.89644E-04 1.16369E-04-5.73606E-04
 -1      4312 1.44964E-04 3.39488E-05 1.15170E-04
 -1      4313-5.13264E-06 5.06472E-06-6.10924E-05
 -1      4314-4.52328E-06-4.99483E-06-5.92070E-05
 -1      4315 6.13112E-03 1.04988E-04-8.57838E-03
 -1      4316-1.52967E-06-1.07916E-05-6.93969E-07
 -1      4317 4.70461E-03 1.32753E-04-3.52651E-03
 -1      4318 2.77702E-05 4.91811E-07 2.54746E-05
 -1      4319-5.36946E-06-2.04976E-05-3.74868E-06
 -1      4320-4.65098E-06-2.06596E-05-2.74399E-07
 -1      4321 6.93067E-07-6.77160E-06 3.22472E-07
 -1      4322-4.08866E-06-9.66252E-06 8.47373E-07
 -1      4323 2.78160E-04-5.91944E-06 2.39652E-04
 -1      4324 2.78462E-04 6.50349E-06 2.40350E-04
 -1      4325-5.65739E-06-2.01606E-05 1.33844E-06
 -1      4326-4.99911E-06-2.15762E-05 1.26294E-06
 -1      4327-6.61258E-06-2.42909E-05 1.15378E-06
 -1      4328 4.73110E-03 1.18613E-04-1.64205E-03
 -1      4329 5.21056E-03 1.02503E-04-2.41240E-03
 -1      4330 3.11413E-05 9.33046E-06 3.15313E-05
 -1      4331 3.24440E-05 3.31978E-07 3.20632E-05
 -1      4332 9.94490E-05 2.40322E-07 1.03888E-04
 -1      4333 5.00189E-05 3.03944E-07 4.58972E-05
 -1      4334 8.85648E-05-1.43034E-07-5.11604E-04
 -1      4335 6.52920E-04 2.95099E-04-1.47557E-03
 -1      4336 1.08646E-03 1.43243E-04-7.96582E-04
 -1      4337-1.92393E-04-4.30408E-05-1.86382E-04
 -1      4338-5.20349E-05 4.51303E-05-1.20631E-04
 -1      4339-1.60394E-06-9.84424E-06 1.04245E-06
 -1      4340 2.63422E-06-4.27421E-05-1.29815E-04
 -1      4341 6.40887E-07-3.05928E-05-5.82424E-05
 -1      4342-2.20501E-06 1.22368E-06-3.90615E-07
 -1      4343-1.79807E-06 1.73549E-06-2.41275E-07
 -1      4344-3.61565E-06 3.45696E-06-5.83439E-07
 -1      4345-2.18036E-06 2.10882E-06-3.69022E-07
 -1      4346 8.03674E-05-1.62619E-05 3.57537E-05
 -1      4347 4.21685E-05-1.09945E-05 8.22020E-06
 -1      4348 2.95032E-04 3.42471E-06-1.36625E-05
 -1      4349 4.77747E-04 1.81030E-07 7.72479E-05
 -1      4350 2.94473E-04-1.78321E-06-1.36905E-05
 -1      4351 4.77711E-04 2.20089E-06 7.78469E-05
 -1      4352 2.19370E-04-7.83444E-05-2.75064E-04
 -1      4353 1.69410E-05-2.40734E-05 1.07542E-05
 -1      4354 2.64529E-05-2.71081E-05 9.78350E-06
 -1      4355-9.95144E-06 1.59092E-05-1.21350E-07
 -1      4356-5.33076E-08-9.90571E-07-4.25074E-07
 -1      4357-3.64828E-07-8.25354E-07-4.13355E-07
 -1      4358 9.54949E-06 1.90169E-05-5.77323E-05
 -1      4359 2.41991E-06 3.17534E-05-6.31325E-05
 -1      4360 5.10764E-06 4.40248E-05-1.36448E-04
 -1      4361 1.59301E-03-4.25863E-05-2.45542E-02
 -1      4362 4.84299E-06-2.35747E-06-7.71714E-07
 -1      4363-7.14323E-04 3.11046E-05-2.72332E-02
 -1      4364-7.42311E-04 2.21737E-05-2.87548E-02
 -1      4365 1.80488E-03 8.05794E-06-2.88721E-02
 -1      4366-4.30058E-04 1.69493E-05-2.76458E-02
 -1      4367 3.64030E-03 5.14113E-05-1.07513E-03
 -1      4368 1.17344E-04 1.79775E-04-7.95785E-04
 -1      4369 1.55298E-03 1.27967E-05-3.65761E-04
 -1      4370 1.18243E-03-2.31905E-05-8.84866E-05
 -1      4371 8.14158E-04 5.08737E-05-2.18836E-04
 -1      4372-6.43247E-06-6.02700E-05-8.85388E-05
 -1      4373-1.31278E-05 3.06665E-05-5.10730E-05
 -1      4374-6.12498E-05-6.80722E-05-2.52261E-04
 -1      4375 2.50768E-05-7.32351E-05-2.56288E-04
 -1      4376 5.74046E-05 9.68263E-06 2.15507E-05
 -1      4377 4.90675E-05 6.20932E-06 2.41022E-05
 -1      4378-4.82484E-06-2.11948E-05-3.91654E-06
 -1      4379-4.91926E-06-2.05519E-05-3.76138E-06
 -1      4380-3.18704E-06-1.55452E-05-1.91856E-06
 -1      4381-4.35301E-06-2.14606E-05-2.24781E-07
 -1      4382 4.21352E-06 3.28101E-06 7.82584E-08
 -1      4383 3.23706E-03-1.92395E-05-2.85280E-03
 -1      4384-2.50284E-06-8.63773E-06-3.38112E-07
 -1      4385-3.12459E-06-9.89823E-06-5.26034E-07
 -1      4386-1.65795E-06-8.26780E-06-3.08751E-06
 -1      4387-1.42667E-06-8.44788E-06-2.48473E-06
 -1      4388-1.68537E-06-8.65388E-06-6.87310E-07
 -1      4389-1.44391E-06-9.23927E-06-5.41953E-07
 -1      4390 1.31751E-05 9.65798E-06 6.68716E-06
 -1      4391-6.79421E-07 2.16594E-06-1.55990E-07
 -1      4392 2.84618E-05 1.18569E-05 1.01260E-05
 -1      4393-5.38122E-06 2.04054E-05-3.60957E-06
 -1      4394-4.64330E-06 2.05665E-05-7.82492E-08
 -1      4395-1.06669E-06-1.86919E-06-5.44605E-07
 -1      4396-1.36275E-06 8.55102E-06-2.57001E-06
 -1      4397-3.14897E-06 1.56882E-05-1.84341E-06
 -1      4398-6.30904E-06-1.21622E-05 1.27111E-06
 -1      4399-6.15136E-06-1.28449E-05 9.14536E-07
 -1      4400 5.37203E-03-2.26318E-04-3.57668E-03
 -1      4401 3.25080E-03 1.46406E-05-2.84101E-03
 -1      4402 1.25556E-04-2.33320E-05 8.93523E-05
 -1      4403 5.35351E-03 2.31461E-04-3.55994E-03
 -1      4404 1.44924E-05 2.47930E-07-1.85140E-07
 -1      4405 1.36901E-05 5.71957E-06 8.57523E-07
 -1      4406-4.64396E-06 5.83832E-06-6.71664E-07
 -1      4407 6.52656E-03-1.25159E-04-4.03376E-03
 -1      4408 6.85013E-03-1.43606E-04-4.81983E-03
 -1      4409-4.96305E-06 2.13149E-05 1.52922E-06
 -1      4410 4.27511E-05 6.95912E-06 1.03598E-05
 -1      4411 1.96158E-05 3.34701E-06-6.73275E-07
 -1      4412 3.32431E-05-9.33234E-06 3.36215E-05
 -1      4413 6.56969E-05-3.51937E-05 3.62809E-05
 -1      4414-6.16764E-06 1.20376E-05 1.31785E-06
 -1      4415 2.94797E-06-9.76092E-06-6.01281E-06
 -1      4416 2.06128E-03-8.76283E-05-1.10006E-02
 -1      4417 1.60127E-05-1.08195E-05 8.28758E-06
 -1      4418 4.16893E-05-1.78037E-05 1.90822E-05
 -1      4419-4.86286E-06-1.00306E-05 8.11338E-07
 -1      4420-5.90382E-06-1.29344E-05 1.31980E-06
 -1      4421-1.94201E-06-1.73540E-05 8.33698E-07
 -1      4422-4.27489E-06 2.19940E-05-9.93596E-07
 -1      4423-4.65240E-06 2.41562E-05 1.15708E-06
 -1      4424-4.40973E-06 2.13199E-05-3.09032E-07
 -1      4425-2.59056E-06 1.70456E-05-1.38105E-07
 -1      4426 6.71023E-06-1.90586E-05-5.60367E-05
 -1      4427-6.59434E-05-3.70132E-04-8.19611E-04
 -1      4428 1.21638E-05-4.11752E-04-1.02825E-03
 -1      4429-8.87280E-05-2.41177E-04-5.75668E-04
 -1      4430-1.42898E-04-2.06701E-04-4.75706E-04
 -1      4431-1.15947E-05-1.71740E-05-1.31047E-06
 -1      4432-1.48898E-06 4.33319E-06-1.09449E-06
 -1      4433 4.10308E-05-2.92074E-05 1.58195E-05
 -1      4434 9.88982E-03 1.14945E-04-1.44463E-02
 -1      4435-4.01812E-05-2.22815E-05-7.73140E-05
 -1      4436-4.89722E-06 2.11648E-05-4.06570E-06
 -1      4437-9.71559E-06-1.65573E-05 5.13287E-07
 -1      4438-4.22191E-06-2.20389E-05-7.83228E-07
 -1      4439-2.63327E-06-1.69315E-05-1.36380E-07
 -1      4440-7.66409E-04 4.07415E-06-3.13692E-02
 -1      4441-6.83114E-04-4.41878E-06-3.19781E-02
 -1      4442 1.79263E-03 1.28582E-06-3.04421E-02
 -1      4443-4.34059E-04 8.46038E-06-2.87207E-02
 -1      4444 2.42694E-05 2.04022E-06 2.66097E-06
 -1      4445 2.27279E-03-6.34130E-05 2.87321E-04
 -1      4446 2.27323E-03 5.93248E-05 2.87648E-04
 -1      4447-5.59953E-06-1.13839E-05 1.16757E-06
 -1      4448 6.70261E-04 3.63091E-04-1.48153E-03
 -1      4449 1.01167E-03 2.63768E-04-1.91782E-03
 -1      4450 6.65858E-04-3.64572E-04-1.48122E-03
 -1      4451 1.00490E-03-2.66150E-04-1.91755E-03
 -1      4452-6.14889E-05-2.11610E-04-5.33313E-04
 -1      4453-1.39206E-04-3.52278E-04-6.82596E-04
 -1      4454-1.68691E-05-2.56407E-04-6.96879E-04
 -1      4455 4.64202E-06-3.44974E-05-4.63712E-05
 -1      4456-1.26638E-05-3.09430E-05-4.66356E-05
 -1      4457 6.29016E-03 6.71983E-05-1.10297E-02
 -1      4458 6.81624E-05-6.96570E-05-2.95984E-04
 -1      4459-4.64381E-06-2.42660E-05 1.37886E-06
 -1      4460 8.82928E-03 1.47006E-05-2.55480E-02
 -1      4461 1.70616E-05 2.80474E-05-1.46895E-04
 -1      4462 5.84589E-03 1.45459E-04-2.70019E-03
 -1      4463-6.46255E-06 8.24065E-06-1.48529E-06
 -1      4464-4.27518E-07-8.03756E-06-7.04551E-08
 -1      4465-8.22996E-07-9.00963E-06-8.71174E-07
 -1      4466-4.02174E-07-9.80062E-06-1.76847E-07
 -1      4467 5.40387E-05 4.32420E-06 4.18863E-05
 -1      4468 4.98281E-05-1.89147E-04-6.87845E-04
 -1      4469 9.01945E-03-1.30844E-05-3.01164E-02
 -1      4470 6.77241E-04 6.51087E-06-4.85345E-05
 -1      4471 4.68046E-04 5.26655E-05-1.66676E-04
 -1      4472 2.35522E-03 2.73965E-05-7.42987E-04
 -1      4473 3.13883E-03 5.69772E-05-1.42274E-03
 -1      4474 8.81776E-03 6.80281E-06-2.70585E-02
 -1      4475 8.71797E-03 6.65584E-06-2.68165E-02
 -1      4476-4.73320E-06 3.67199E-06-7.09748E-07
 -1      4477-3.80481E-06 4.80378E-06-1.59993E-07
 -1      4478-7.75778E-07 9.11285E-06-8.66525E-07
 -1      4479 2.69576E-05 4.64984E-07 9.38081E-06
 -1      4480-3.40161E-07-3.04912E-06 5.75523E-08
 -1      4481-6.27587E-07-6.30169E-06-1.79586E-07
 -1      4482-1.99519E-07-4.46737E-06 7.35719E-08
 -1      4483-1.18952E-06 4.90781E-07 1.23807E-07
 -1      4484 3.33088E-05 3.02337E-06 8.55146E-06
 -1      4485-5.00730E-06-9.54917E-06 4.16030E-07
 -1      4486-7.52579E-06-1.50017E-05 1.43151E-06
 -1      4487 4.11271E-03 1.07488E-04-2.45037E-03
 -1      4488 2.38325E-05 2.17297E-05 5.28248E-06
 -1      4489 1.64210E-05 1.29005E-05 3.96191E-07
 -1      4490 2.97395E-05 1.57809E-05 4.76657E-06
 -1      4491 1.16105E-05 1.16584E-05-7.20080E-05
 -1      4492 1.52250E-05-2.80378E-05-1.42566E-04
 -1      4493 2.01972E-04 7.54887E-07 1.97026E-04
 -1      4494 2.47160E-03 7.67499E-05 2.07186E-04
 -1      4495 2.47059E-03-6.00230E-05 1.99296E-04
 -1      4496-5.71468E-06 2.00350E-05 1.68678E-06
 -1      4497 8.43150E-06 6.89725E-06 2.40049E-06
 -1      4498 1.46383E-05-1.13660E-05 5.82081E-06
 -1      4499 2.35532E-05-1.59207E-05 1.51364E-05
 -1      4500-1.28894E-06-3.72604E-05-3.11648E-05
 -1      4501-1.01094E-05-3.29541E-05-3.11327E-05
 -1      4502 2.90589E-04-9.67092E-07 2.20526E-06
 -1      4503-1.19698E-06-4.70823E-06-1.95270E-06
 -1      4504-3.43592E-06 1.76428E-06-4.10864E-07
 -1      4505-1.59040E-06 8.35083E-07-1.91925E-07
 -1      4506 1.03157E-05 1.50523E-05 4.33324E-06
 -1      4507 1.74033E-05 1.94448E-05 1.01506E-05
 -1      4508-2.97865E-07-1.34201E-05-1.21407E-06
 -1      4509 2.17957E-03 9.29269E-05-5.05852E-03
 -1      4510-2.17429E-06-3.74528E-06-1.96428E-07
 -1      4511-2.77759E-06-5.21798E-06-1.81389E-07
 -1      4512 9.77029E-03-1.72775E-06-3.03697E-02
 -1      4513 2.36298E-03-2.77350E-05-7.41642E-04
 -1      4514 3.14294E-03-5.93811E-05-1.42741E-03
 -1      4515 2.81779E-03 8.91295E-05 4.97348E-05
 -1      4516 2.81871E-03-6.92502E-05 4.12134E-05
 -1      4517 4.63420E-05-9.37423E-06 1.21821E-05
 -1      4518 7.17215E-05-1.28671E-05 3.31721E-05
 -1      4519 7.43845E-06 1.11712E-05-1.04096E-06
 -1      4520 2.37352E-05 2.63175E-05 1.83106E-05
 -1      4521 4.11576E-03-1.13238E-04-2.45999E-03
 -1      4522-2.31941E-07 3.67887E-06-3.40855E-08
 -1      4523 6.55197E-07 4.96866E-06 9.70108E-08
 -1      4524 6.00962E-08 3.13428E-06-1.98479E-07
 -1      4525 6.39329E-07 6.38267E-06-5.16803E-07
 -1      4526 4.92830E-03 1.29987E-04-3.76405E-03
 -1      4527 1.35338E-03-2.52099E-04-9.09197E-03
 -1      4528 2.16016E-03-1.21198E-04-9.46881E-03
 -1      4529 3.40411E-03-6.28223E-05-9.42146E-03
 -1      4530 2.23155E-03-1.07586E-04-8.51319E-03
 -1      4531 1.02469E-05-1.20424E-05-6.89268E-05
 -1      4532 1.15295E-04-1.79951E-04-7.92461E-04
 -1      4533 1.31716E-03-3.45299E-04-6.80152E-03
 -1      4534 1.46067E-05-1.30119E-05 5.61071E-06
 -1      4535 2.36695E-03 5.38219E-05-6.71059E-03
 -1      4536-4.24682E-07-1.04034E-05-1.02934E-06
 -1      4537 6.62771E-05 3.62093E-05 3.62179E-05
 -1      4538 4.20839E-05 3.04308E-05 1.77127E-05
 -1      4539 4.17655E-05 3.44666E-05 2.39493E-05
 -1      4540 5.34031E-05 1.93090E-05 1.85640E-05
 -1      4541 7.98999E-05 2.25642E-05 4.03246E-05
 -1      4542 5.28215E-06 1.02891E-05 1.55955E-06
 -1      4543 2.33754E-06 7.42338E-06 5.09512E-07
 -1      4544 1.29256E-05 3.49670E-07-5.97596E-05
 -1      4545 6.03287E-03-9.47619E-05-7.87394E-03
 -1      4546-5.85213E-04-6.57079E-05-2.44231E-02
 -1      4547-5.67291E-05-5.03733E-05-2.62370E-02
 -1      4548 2.11177E-03-3.34211E-05-2.63761E-02
 -1      4549-2.56921E-07 1.03129E-05-9.13133E-07
 -1      4550 5.96268E-03-1.33067E-04-6.78592E-03
 -1      4551 6.18711E-03-1.18912E-04-8.66153E-03
 -1      4552 7.08472E-03 1.35013E-04-5.50247E-03
 -1      4553 1.23222E-05 1.92364E-05 1.39052E-06
 -1      4554 1.29071E-05 2.01040E-05 3.54183E-06
 -1      4555-7.85236E-04-5.42375E-05-2.61330E-02
 -1      4556 9.96480E-06-1.81013E-05 5.42592E-06
 -1      4557 2.39346E-05 2.70866E-05 9.87224E-06
 -1      4558-1.91995E-06 5.11507E-07-1.62010E-07
 -1      4559-7.31864E-05-4.23897E-05-2.75506E-02
 -1      4560-1.47153E-07 7.45186E-06-7.77399E-07
 -1      4561 1.05061E-05-1.69820E-05 5.20747E-06
 -1      4562 1.79487E-03 2.13976E-04-8.87114E-03
 -1      4563 2.20093E-03 1.21526E-04-9.56034E-03
 -1      4564-4.13906E-06 1.43010E-06-2.88173E-07
 -1      4565-6.63750E-07 6.16601E-06-1.55067E-07
 -1      4566-3.77705E-06-6.69520E-06-3.65597E-07
 -1      4567 4.49404E-03-1.80810E-05-2.71165E-02
 -1      4568 5.22043E-03-6.22441E-05-9.80934E-03
 -1      4569-5.33137E-06 2.12479E-05-4.08833E-06
 -1      4570 1.53382E-03 3.67690E-04-4.75815E-03
 -1      4571 1.74819E-03-8.91324E-05-1.50852E-02
 -1      4572 4.03848E-03-2.02804E-05-1.45279E-02
 -1      4573 9.04366E-03 2.79709E-07-2.87824E-02
 -1      4574 6.45493E-03-9.21225E-06-2.79926E-02
 -1      4575 6.18292E-03 5.91684E-05-1.30235E-02
 -1      4576 4.01963E-03-2.18876E-05-1.17762E-02
 -1      4577 2.24790E-03 6.96101E-05-7.79285E-03
 -1      4578 6.22908E-03 4.11137E-05-1.50931E-02
 -1      4579 3.34279E-04 7.23641E-05-2.69236E-04
 -1      4580 4.73702E-03 2.15105E-04-2.44628E-03
 -1      4581 3.62796E-03 1.16679E-04-1.74402E-03
 -1      4582 1.67970E-03 1.64115E-04-1.03962E-02
 -1      4583-3.43245E-06 2.45954E-06-2.21348E-07
 -1      4584 6.08887E-03-1.11860E-04-3.19535E-03
 -1      4585 1.07435E-03 3.82299E-04-2.30954E-03
 -1      4586 1.57356E-03 1.60677E-04-1.39431E-03
 -1      4587 1.06884E-03-3.84835E-04-2.30850E-03
 -1      4588 1.56705E-03-1.61090E-04-1.39458E-03
 -1      4589-1.34928E-04 2.76664E-04-5.40554E-04
 -1      4590-1.38837E-04-2.78153E-04-5.40707E-04
 -1      4591 4.73111E-07 5.49513E-06-8.77248E-07
 -1      4592 2.76686E-06 9.22634E-06-1.04028E-06
 -1      4593 2.63006E-03 5.84026E-05-9.55195E-04
 -1      4594 2.21928E-03-1.42283E-04-2.25081E-03
 -1      4595 3.11097E-03-7.98450E-05-1.45811E-04
 -1      4596 3.10844E-03 9.13198E-05-1.40255E-04
 -1      4597 3.55861E-03 8.73670E-06-5.31906E-04
 -1      4598 1.80033E-03-1.04756E-04-1.30096E-02
 -1      4599 4.74518E-03-2.19023E-04-2.43344E-03
 -1      4600 3.63549E-03-1.18478E-04-1.74856E-03
 -1      4601 1.89599E-03-3.64611E-05-3.80843E-04
 -1      4602 1.89032E-03 3.70013E-05-3.81464E-04
 -1      4603 1.62351E-06 1.17105E-05-7.17022E-07
 -1      4604 4.65616E-06 1.26368E-05 2.24088E-06
 -1      4605 8.36044E-06 1.64255E-05 4.17366E-06
 -1      4606 7.34845E-03 1.83234E-04-1.04345E-02
 -1      4607 5.20704E-03 6.09238E-05-9.22837E-03
 -1      4608 2.63459E-03-5.93042E-05-9.55920E-04
 -1      4609 1.22138E-03-1.93559E-04-1.06170E-02
 -1      4610 1.66677E-05 2.45737E-05 1.11473E-05
 -1      4611 7.33450E-03-1.71439E-04-1.09419E-02
 -1      4612 6.22608E-06 1.49969E-05 1.09043E-06
 -1      4613 1.33609E-07 8.05158E-06-2.33480E-07
 -1      4614 5.56533E-06 1.42605E-05-4.39169E-07
 -1      4615 1.09742E-04 3.96251E-05 7.71304E-05
 -1      4616 2.22691E-03 1.39662E-04-2.25439E-03
 -1      4617 1.46567E-03-3.81517E-04-4.80743E-03
 -1      4618-7.10059E-04 1.42675E-05-2.98145E-02
 -1      4619-2.63844E-06-4.54127E-06-2.14327E-07
 -1      4620 2.19173E-03 2.50506E-05-8.70892E-03
 -1      4621 5.92219E-03-1.05241E-04-6.77885E-03
 -1      4622 2.27792E-06 1.07697E-05 8.51753E-08
 -1      4623 7.17831E-03-2.71112E-04-7.44514E-03
 -1      4624-3.93758E-07 2.99548E-06 4.49908E-08
 -1      4625-3.40465E-08 3.73825E-06 2.06454E-07
 -1      4626 5.40355E-07 6.09780E-06 3.71635E-07
 -1      4627-5.62379E-07-2.67081E-06 5.73736E-09
 -1      4628 7.20738E-03 2.41428E-04-8.94177E-03
 -1      4629 7.11008E-03 2.34102E-04-8.05173E-03
 -1      4630 6.19719E-03 1.04143E-04-9.51183E-03
 -1      4631-3.73489E-07 8.04716E-06-3.70784E-08
 -1      4632 1.86825E-03 1.90055E-04-4.76236E-03
 -1      4633 1.86553E-06 8.33366E-06 8.04919E-07
 -1      4634 1.86157E-03-1.95044E-04-4.75591E-03
 -1      4635-2.00480E-04 4.07306E-05-1.80633E-04
 -1      4636-5.68283E-07 2.69375E-06 3.76521E-09
 -1      4637-4.47056E-06-6.21996E-06 1.02175E-06
 -1      4638 1.79252E-03-2.40320E-04-3.79351E-03
 -1      4639-2.95853E-06 2.96031E-06-2.32994E-07
 -1      4640 1.45462E-03-2.58795E-04-2.90523E-03
 -1      4641 1.80093E-03 2.36434E-04-3.80042E-03
 -1      4642 4.46354E-03 8.74913E-05-1.34195E-03
 -1      4643 4.33438E-03 1.39442E-04-1.13431E-03
 -1      4644 3.86272E-03 3.95873E-05-8.32219E-04
 -1      4645 3.99196E-03-2.95263E-06-9.89854E-04
 -1      4646 1.46013E-03 2.55041E-04-2.91036E-03
 -1      4647 5.91933E-03 1.04514E-04-6.60676E-03
 -1      4648 3.39673E-03-6.39224E-05-6.93104E-04
 -1      4649 1.34444E-03 3.80971E-04-3.10246E-03
 -1      4650 1.33861E-03-3.83951E-04-3.09921E-03
 -1      4651 3.65986E-03-9.10676E-05-4.78765E-04
 -1      4652 7.20149E-03-2.27012E-04-9.42734E-03
 -1      4653 6.25500E-03-1.19162E-04-9.60315E-03
 -1      4654 3.39792E-03 6.50955E-05-6.89149E-04
 -1      4655 3.90325E-03-1.40887E-04-6.69341E-04
 -1      4656 3.78670E-03-3.33366E-05-7.49994E-04
 -1      4657-4.41209E-06-4.75653E-06 7.82748E-07
 -1      4658 3.66052E-03 1.06329E-04-4.68900E-04
 -1      4659 4.47068E-03-9.95462E-05-1.33469E-03
 -1      4660 7.10443E-03 2.43963E-04-7.98451E-03
 -1      4661 4.24063E-03-1.36429E-04-1.03676E-03
 -1      4662 1.00879E-02-5.96921E-05-2.28419E-02
 -1      4663 3.98865E-03 1.45811E-04-7.43917E-04
 -1      4664-1.95707E-03-2.20328E-05-1.04885E-02
 -1      4665-1.95342E-03 1.78812E-05-1.05385E-02
 -1      4666 1.02209E-02-2.77584E-05-1.05639E-02
 -1      4667 1.02253E-02 1.37921E-05-1.06225E-02
 -1      4668 6.48068E-04 8.28005E-07 2.51530E-04
 -1      4669-1.91406E-06 1.14156E-06-1.88824E-07
 -1      4670-1.91336E-06 2.63883E-06-3.25360E-07
 -1      4671-5.64764E-06 8.46156E-07-1.17728E-06
 -1      4672-1.14249E-06 2.64146E-06-5.04017E-07
 -1      4673-2.90931E-06-3.52966E-06-2.26506E-07
 -1      4674 7.18559E-03-2.61186E-04-7.51210E-03
 -1      4675 5.21176E-03-9.97932E-05-6.81875E-03
 -1      4676 5.10857E-03 7.89632E-05-7.17664E-03
 -1      4677 5.94848E-03 1.29455E-04-6.61977E-03
 -1      4678 4.54219E-04 7.43686E-07 1.60034E-04
 -1      4679 1.84603E-07 2.98616E-06-7.29295E-07
 -1      4680 7.28520E-03-2.71279E-04-8.37231E-03
 -1      4681 3.42607E-03-6.54154E-05-7.32216E-03
 -3
    1PSTEP                         2           1           1          
  100CL  101 1.000000000        4681                     0    1           1
 -4  STRESS      6    1
 -5  SXX         1    4    1    1
 -5  SYY         1    4    2    2
 -5  SZZ         1    4    3    3
 -5  SXY         1    4    1    2
 -5  SYZ         1    4    2    3
 -5  SZX         1    4    3    1
 -1         1 4.38161E-02 4.50526E-02 1.08764E-01-1.43274E-03-4.45211E-02-3.62936E-02
 -1         2-5.87222E-03-5.58555E-03-1.28402E-02-2.98308E-04-6.25645E-02-1.38066E-02
 -1         3 9.54359E-04 1.05560E-02 1.07727E-03 8.27807E-04 1.12295E-03 1.18537E-03
 -1         4 8.85787E-04-1.11743E-03-3.18823E-03 9.61922E-04 2.32064E-03-2.53724E-03
 -1         5-5.78993E-03-5.18692E-03-1.28208E-02 1.63119E-04 6.20007E-02-1.45435E-02
 -1         6 4.12608E-02 4.36437E-02 1.02290E-01-3.53975E-04 4.46634E-02-3.88246E-02
 -1         7-1.74825E-04-1.49696E-03-4.45202E-03-6.90628E-04-2.57122E-03-2.48347E-03
 -1         8 9.49907E-04 1.07698E-02 1.17306E-03-1.01388E-03-1.30606E-03 1.50073E-03
 -1         9-1.19255E-02-1.37998E-02-2.75663E-02 4.53706E-04 1.66639E-01 2.16995E-03
 -1        10-1.61213E-01-1.65775E-01-3.91811E-01 1.13540E-03 1.55001E-01-2.88114E-02
 -1        11 2.19258E-03 4.19277E-03 1.11773E-02-1.08265E-03-6.80353E-03-1.38790E-03
 -1        12-3.33712E-03 1.33489E-02-1.10221E-03 2.49449E-03-1.09387E-02 1.98019E-03
 -1        13-1.69451E-01-1.65944E-01-4.08243E-01 4.58602E-03-1.50153E-01-1.77028E-02
 -1        14-1.15913E-02-1.34719E-02-2.68389E-02-5.56626E-04-1.64923E-01 1.76523E-03
 -1        15-3.49383E-03 1.69594E-02-9.23367E-04-2.11224E-03 1.20940E-02 2.34067E-03
 -1        16 2.37213E-03 5.52089E-03 1.11963E-02 1.40709E-03 7.30205E-03-1.27079E-03
 -1        17 5.42495E-02 4.99219E-01 3.29733E+00-6.97643E-01-1.19740E+00 4.22809E-01
 -1        18 8.54623E-02 5.29244E-01 3.32356E+00 6.59223E-01 1.21323E+00 3.87793E-01
 -1        19-4.69112E-01-2.94202E+00-5.91185E+00 1.42818E-01 2.32897E+00-4.44481E-01
 -1        20 3.04097E-01 2.24765E-01-1.41324E+01-3.92082E-02 1.09197E+00-1.09084E+00
 -1        21 3.15981E-01 1.39785E-01-1.41517E+01 4.59633E-02-1.08751E+00-1.07350E+00
 -1        22-4.24733E-01-3.01618E+00-5.71984E+00-1.88970E-01-2.45701E+00-4.65440E-01
 -1        23-1.40189E+00-7.86876E-01-2.03775E+00-2.78778E-01 7.48714E-02-7.08312E-01
 -1        24-1.82453E+00-8.91736E-01-2.15778E+00 5.84915E-01 5.46400E-01-1.32903E+00
 -1        25-1.88740E+00-8.86232E-01-2.14303E+00-6.25293E-01-5.65008E-01-1.36750E+00
 -1        26-1.42979E+00-7.87098E-01-2.02196E+00 2.93700E-01-7.83260E-02-6.99886E-01
 -1        27-3.45664E+00-4.50206E-01 1.22566E+00-9.43664E-01 8.27154E-01 6.90776E-01
 -1        28-5.13830E-03 5.73212E-02 7.92724E+00 4.67383E-02-1.79528E-01-5.92137E-02
 -1        29 1.97986E+01 2.84228E+00 6.62904E-01 1.70206E+00-4.12752E-01 6.03556E-01
 -1        30 1.34897E+01-2.45970E-01-7.69839E-02 9.18943E-02 1.19491E-01 1.74412E-01
 -1        31-3.27443E+00-5.80515E-01 1.24186E+00 9.65285E-01-7.92008E-01 6.12104E-01
 -1        32 1.93538E+01 2.88392E+00 5.71711E-01-1.29356E+00 4.49611E-01 7.67176E-01
 -1        33-7.45149E-03 4.74307E-02 7.95882E+00-3.64851E-02 1.94517E-01-6.24871E-02
 -1        34 1.35503E+01-1.33907E-01 2.20585E-02-1.50711E-01-9.74546E-02 1.61179E-01
 -1        35 2.00346E+00 2.64192E+00 1.23861E-01 1.30926E-01 2.60662E-02-5.29224E-01
 -1        36-2.00910E+00-2.93499E+00-1.13192E+00-1.27802E-01 1.56052E-02-5.27991E-01
 -1        37-1.37342E+01-3.64122E+00-3.70301E+00 1.10798E-01-6.59332E-02 2.49114E+00
 -1        38-6.66292E-01-2.27990E-02 2.04635E-02-1.14104E-01 4.98054E-02-6.86484E-01
 -1        39 6.95993E-01 5.50173E-03-9.85341E-01 9.32311E-02 8.52317E-02-7.19863E-01
 -1        40 1.41378E+01 3.16458E+00 3.18155E+00-1.06106E-01-1.07181E-01 3.06271E+00
 -1        41 6.96073E-01 6.99218E-03-9.77080E-01-1.22219E-01-7.10387E-02-7.05870E-01
 -1        42-6.33404E-01-4.85508E-02 1.32912E-02 9.37145E-02-4.69523E-02-6.88441E-01
 -1        43-1.82958E+01 2.36591E-01 2.41012E-01 1.14322E+00 1.07215E-01-1.49981E+00
 -1        44 1.40215E+01-1.12805E-02 7.77736E-02-3.60825E-01-1.03433E-01 3.20378E-01
 -1        45 1.39472E+01-4.08806E-02-5.94538E-02 3.04559E-01 6.32878E-02 3.72082E-01
 -1        46-1.85396E+01 4.37340E-01 6.32561E-01-1.14113E+00 9.33601E-02-2.08761E+00
 -1        47 2.36034E-02 2.35448E-02 5.85771E-02-6.00975E-04-5.49587E-02-2.62689E-02
 -1        48 4.30741E-02 4.29396E-02 9.64707E-02 4.31960E-04-5.19299E-02-3.46260E-02
 -1        49 2.60888E-03 2.36930E-03 9.28327E-03-2.64032E-04-6.03141E-02-2.01595E-02
 -1        50-1.72074E-03 2.04624E-02 3.31243E-03-4.12185E-04-3.44846E-02-7.19531E-03
 -1        51-4.79982E-03 8.13091E-03-3.43853E-03-1.10111E-04-4.90837E-02-1.00371E-02
 -1        52-1.93499E-03 1.34043E-02 1.39265E-03 7.01797E-04-1.56663E-02-1.59418E-03
 -1        53 1.32105E-03-2.22544E-03-2.80350E-03 3.19684E-05 2.82920E-03 9.00143E-04
 -1        54 3.31854E-03-1.06210E-03-2.74866E-03 9.48688E-04 2.20195E-03 4.76003E-04
 -1        55-1.47372E-04 3.49664E-04-9.54670E-04-3.90700E-04 2.69761E-03 6.95521E-04
 -1        56-1.35158E-02-4.40152E-03 5.53257E-03 6.89210E-04-7.39554E-03-2.84347E-02
 -1        57 6.00675E-03 1.33421E-02 4.55184E-02-2.31044E-04-1.93550E-02-3.27272E-02
 -1        58-5.25210E-03 3.65077E-04-2.15244E-03-2.92287E-04-3.06458E-03-1.57866E-02
 -1        59 2.42284E-02 2.42015E-02 5.99511E-02 4.83264E-04 5.44449E-02-2.59595E-02
 -1        60 2.76245E-03 2.56872E-03 9.68684E-03 3.07677E-04 5.96474E-02-2.04217E-02
 -1        61 4.44846E-02 4.43497E-02 9.96924E-02-4.15819E-04 5.14873E-02-3.41835E-02
 -1        62-1.18933E-02-4.31485E-03 5.24610E-03-5.72958E-04 7.72480E-03-2.79106E-02
 -1        63 4.39564E-03 1.17706E-02 4.45214E-02-1.04155E-03 1.82365E-02-3.37761E-02
 -1        64-4.30271E-03 1.69774E-03-1.67859E-03 1.19942E-03 3.15300E-03-1.57062E-02
 -1        65 1.98561E-03-1.66381E-03-2.37128E-03-6.56069E-04-2.56326E-03 8.51063E-04
 -1        66 9.14264E-04 9.87137E-04-9.87270E-04-3.88756E-04-2.31178E-03 1.80505E-04
 -1        67 3.30780E-03-1.90732E-03-3.39562E-03-6.82179E-04-2.04442E-03 7.46946E-04
 -1        68-1.87873E-03 2.06222E-02 4.10787E-03 4.82892E-05 3.45519E-02-6.31269E-03
 -1        69-4.23548E-03 8.50690E-03-2.13833E-03-3.36178E-04 4.86235E-02-9.29752E-03
 -1        70-1.40296E-03 1.68901E-02 2.88493E-03-1.02148E-04 1.59549E-02-1.46699E-03
 -1        71-1.12016E-01-1.11609E-01-2.71654E-01-1.31334E-03 1.52455E-01-4.35000E-03
 -1        72-5.25992E-02-5.24455E-02-1.24369E-01 5.04656E-04 1.61324E-01-2.59523E-04
 -1        73-1.60902E-01-1.61287E-01-3.74037E-01 3.04829E-04 1.61550E-01-2.08919E-02
 -1        74 3.15075E-02 2.43157E-02 8.68992E-04-2.63067E-03-3.72719E-03-3.49473E-02
 -1        75-3.83611E-02-4.71799E-02-1.72057E-01 5.39497E-04 5.37955E-02-3.16969E-02
 -1        76 1.11876E-02-3.36029E-03 1.30473E-02-1.23820E-03 3.73679E-03-1.60795E-02
 -1        77-2.72487E-03 7.61374E-03 8.75397E-03-1.29428E-03-1.05738E-02 6.64154E-03
 -1        78-3.92974E-03 7.57866E-03-1.35481E-03-1.50425E-05-1.05831E-02 4.25421E-03
 -1        79-3.37872E-03 5.29649E-03 1.10639E-02-3.74173E-04-8.80719E-03 3.92414E-03
 -1        80 1.09245E-02-3.61485E-02 1.66238E-02 1.43732E-03 5.41468E-02-1.80153E-02
 -1        81 7.26575E-03-2.62782E-02-5.54379E-03 6.68784E-04 1.10246E-01-1.19555E-02
 -1        82 3.61072E-03-1.10962E-02 5.41754E-03-7.87983E-04 1.45761E-02-1.69201E-03
 -1        83-1.09307E-01-1.08505E-01-2.64921E-01 1.32207E-03-1.49688E-01-5.72872E-03
 -1        84-1.54461E-01-1.54886E-01-3.58835E-01-3.16986E-04-1.58573E-01-2.17347E-02
 -1        85-5.16761E-02-5.14708E-02-1.22162E-01-5.15739E-04-1.58985E-01-7.70863E-04
 -1        86 1.14918E-02-3.94516E-02 1.40807E-02-1.74365E-03-5.44113E-02-1.69035E-02
 -1        87 6.98785E-03-2.92550E-02-6.44497E-03-1.60428E-03-1.10321E-01-1.23767E-02
 -1        88 3.40418E-03-1.05176E-02 5.02370E-03 1.20976E-03-1.38356E-02-1.40630E-03
 -1        89-2.77049E-03 8.33720E-03 7.57941E-03 1.26981E-03 1.06693E-02 6.34934E-03
 -1        90-3.76203E-03 7.12407E-03 1.04690E-02 1.38807E-03 8.34638E-03 3.73852E-03
 -1        91-4.74932E-03 7.76963E-03-2.34104E-03 3.81311E-04 1.04880E-02 3.76777E-03
 -1        92 3.00650E-02 2.00108E-02-1.16237E-02 3.01812E-03 1.91239E-03-3.35368E-02
 -1        93-4.22251E-02-4.59484E-02-1.76652E-01 4.72463E-03-5.20771E-02-2.72276E-02
 -1        94 1.02089E-02-6.51091E-03 1.11215E-02 1.95807E-03-3.57093E-03-1.65093E-02
 -1        95 1.66476E-02 1.75093E-02 3.96705E-02 1.68270E-04-1.65899E-02-4.79559E-02
 -1        96-1.01791E-02-8.69387E-03-2.60292E-02-8.52026E-04 1.03068E-02-5.15241E-02
 -1        97-3.29098E-02-2.74380E-02-8.21372E-02-1.13736E-03 3.35184E-02-5.57392E-02
 -1        98-7.42213E-02-7.02447E-02-1.72260E-01 2.14113E-03 6.80212E-02-6.36267E-02
 -1        99-1.03516E-01-1.00625E-01-2.42629E-01 2.02682E-03 9.95831E-02-6.46806E-02
 -1       100-1.38723E-01-1.40472E-01-3.34297E-01-1.84112E-03 1.33802E-01-4.93868E-02
 -1       101 3.65623E-02 3.67464E-02 8.51279E-02-1.85887E-05-3.20952E-02-4.36329E-02
 -1       102 1.88394E-03 1.95420E-03 4.32551E-03-9.89536E-06-1.83553E-03-4.96061E-02
 -1       103-3.06024E-02-3.05852E-02-7.14229E-02-4.59313E-06 2.73897E-02-5.36982E-02
 -1       104-5.88335E-02-5.88326E-02-1.37279E-01-1.21921E-06 5.51303E-02-5.71544E-02
 -1       105-9.14084E-02-9.14170E-02-2.13278E-01-1.83540E-06 8.73237E-02-6.10423E-02
 -1       106-1.32910E-01-1.32960E-01-3.10073E-01-1.22287E-05 1.22355E-01-5.73719E-02
 -1       107-1.54835E-01-1.54894E-01-3.61223E-01-1.83631E-05 1.42606E-01-3.97390E-02
 -1       108-3.69713E-02-6.70860E-02-9.74628E-02-4.41249E-04-3.37332E-01 3.28988E-02
 -1       109-2.97736E-01-3.04665E-01-6.19363E-01 2.23622E-02-6.68679E-01 1.80538E-01
 -1       110-6.95054E-01-8.32577E-01-2.19170E+00 2.64215E-02-8.37644E-01 3.31809E-01
 -1       111-1.05765E+00-1.29114E+00-3.37748E+00 6.61671E-03-6.15436E-01 5.36165E-01
 -1       112-1.23237E+00-1.50533E+00-3.92558E+00-4.28813E-03-2.33108E-01 6.93511E-01
 -1       113-1.24241E+00-1.51160E+00-3.96219E+00 8.35287E-04 2.35245E-01 6.95122E-01
 -1       114-1.04784E+00-1.28736E+00-3.38004E+00 5.74142E-03 6.21945E-01 5.42062E-01
 -1       115-7.18039E-01-8.38148E-01-2.22005E+00-1.13912E-02 8.37687E-01 3.01915E-01
 -1       116-3.09696E-01-3.09031E-01-6.33612E-01-2.15302E-02 6.68601E-01 1.75183E-01
 -1       117-3.80029E-02-6.58882E-02-8.99129E-02-4.32565E-04 3.36568E-01 2.89305E-02
 -1       118-2.19745E-02-2.20954E-02-5.16795E-02-4.68344E-04-2.45885E-01 1.26455E-02
 -1       119-1.25383E-01-1.25570E-01-2.93189E-01-3.11864E-04-4.92594E-01 8.62458E-02
 -1       120-6.78115E-01-6.78299E-01-1.58289E+00-1.05834E-04-7.87307E-01 2.83562E-01
 -1       121-1.23515E+00-1.23524E+00-2.88230E+00-3.96368E-06-7.46105E-01 5.89369E-01
 -1       122-1.68159E+00-1.68167E+00-3.92397E+00-4.31938E-06-4.24066E-01 7.82711E-01
 -1       123-1.84225E+00-1.84235E+00-4.29890E+00-1.27719E-07 1.32039E-03 8.87033E-01
 -1       124-1.70408E+00-1.70417E+00-3.97648E+00 5.53481E-06 4.33107E-01 7.94001E-01
 -1       125-1.24497E+00-1.24505E+00-2.90520E+00 6.00815E-06 7.48359E-01 5.68589E-01
 -1       126-6.81027E-01-6.81154E-01-1.58949E+00 9.14640E-05 7.91180E-01 2.63710E-01
 -1       127-1.28087E-01-1.28273E-01-2.99496E-01 3.11778E-04 4.94895E-01 8.42511E-02
 -1       128-1.98864E-02-2.00064E-02-4.68041E-02 5.20695E-04 2.46134E-01 1.13404E-02
 -1       129 1.74832E-02 1.89031E-02 4.32026E-02-1.23666E-04 1.65685E-02-4.89182E-02
 -1       130-1.49064E-02-1.62214E-02-3.79902E-02 2.65459E-05-1.58765E-02-5.39825E-02
 -1       131-4.79693E-02-4.78663E-02-1.13355E-01 4.06050E-04-4.18395E-02-5.66950E-02
 -1       132-7.83069E-02-7.81295E-02-1.85878E-01 8.93673E-04-7.03066E-02-5.95235E-02
 -1       133-1.05083E-01-1.02258E-01-2.46784E-01-2.22612E-03-9.85115E-02-6.40234E-02
 -1       134-1.40806E-01-1.39279E-01-3.34170E-01-3.08521E-03-1.33173E-01-5.37045E-02
 -1       135 3.17214E-02 3.18468E-02 7.38910E-02 6.04726E-06 3.05379E-02-4.35527E-02
 -1       136 1.60873E-03 1.68191E-03 3.68040E-03 1.08741E-05 2.81568E-04-5.17426E-02
 -1       137-3.31745E-02-3.31607E-02-7.74211E-02 2.64209E-06-2.90073E-02-5.42719E-02
 -1       138-6.59176E-02-6.59149E-02-1.53811E-01 1.79054E-06-5.67102E-02-5.84188E-02
 -1       139-8.82690E-02-8.82804E-02-2.05950E-01 1.98112E-06-8.30918E-02-5.97599E-02
 -1       140-1.24504E-01-1.24534E-01-2.90479E-01 1.27854E-05-1.17036E-01-5.58137E-02
 -1       141-1.88709E-01-1.88747E-01-4.40283E-01 3.69864E-05-1.55525E-01-3.87207E-02
 -1       142 1.77002E-02 2.37239E-02 4.16023E-02 1.28454E-05 1.10169E-01 5.21213E-03
 -1       143 6.39842E-02 1.14455E-01 1.88232E-01 3.18144E-03 2.29555E-01 4.88309E-02
 -1       144 2.27600E-01 3.45783E-01 6.78440E-01-2.54492E-03 4.97591E-01 1.89030E-01
 -1       145 6.57631E-01 8.75990E-01 2.14378E+00-8.18909E-03 8.27840E-01 5.26218E-01
 -1       146 1.89051E+00 1.92290E+00 4.61843E+00 5.41329E-02 5.35581E-01 1.29150E+00
 -1       147 1.85508E+00 1.89221E+00 4.54308E+00-5.58995E-02-5.50335E-01 1.28778E+00
 -1       148 9.44209E-01 1.06941E+00 2.35468E+00-3.70463E-02-8.68724E-01 6.53570E-01
 -1       149 2.70463E-01 3.14454E-01 7.37221E-01 1.58229E-02-4.96301E-01 2.14366E-01
 -1       150 1.07724E-01 1.23406E-01 2.27808E-01-6.57238E-03-2.37762E-01 7.31503E-02
 -1       151 1.11714E-02 2.73988E-02 3.39597E-02 9.81890E-04-1.09292E-01 3.60389E-03
 -1       152 3.54927E-03 3.61922E-03 8.51549E-03-1.01401E-04 8.35175E-02-4.71529E-03
 -1       153 4.44004E-02 4.45296E-02 1.04033E-01-1.14707E-04 1.53635E-01 3.38887E-02
 -1       154 1.98282E-01 1.98367E-01 4.62944E-01-6.30289E-05 3.44354E-01 1.49981E-01
 -1       155 6.79734E-01 6.79783E-01 1.58622E+00-2.77615E-05 6.78930E-01 4.50942E-01
 -1       156 1.55848E+00 1.55850E+00 3.63651E+00-1.47796E-05 7.11856E-01 1.03243E+00
 -1       157 2.21042E+00 2.21051E+00 5.15793E+00-3.70994E-07-5.65503E-03 1.48383E+00
 -1       158 1.52679E+00 1.52681E+00 3.56258E+00 1.53850E-05-7.45947E-01 1.06771E+00
 -1       159 6.45560E-01 6.45619E-01 1.50651E+00 3.28640E-05-6.63612E-01 4.32612E-01
 -1       160 1.97338E-01 1.97413E-01 4.60712E-01 5.55856E-05-3.55579E-01 1.56923E-01
 -1       161 4.52267E-02 4.53421E-02 1.05916E-01 1.02214E-04-1.61579E-01 3.74257E-02
 -1       162 1.71019E-03 1.78984E-03 4.25655E-03 9.02337E-05-8.13781E-02-3.67412E-03
 -1       163-4.53277E-03-8.18541E-04-3.40464E-04 6.31743E-03 4.70478E-04-6.09753E-03
 -1       164-9.11788E-03 1.22077E-03 2.36704E-03 9.07945E-03-2.07954E-03-8.57424E-03
 -1       165-7.08284E-03 4.83711E-03 2.93106E-03 1.01007E-02-6.74115E-03-7.90666E-03
 -1       166-5.26879E-03 4.97135E-03 5.73476E-03 6.94807E-03-5.35603E-03-7.26791E-03
 -1       167 1.12751E-02 7.43972E-03 7.38249E-03 7.49612E-03-8.21563E-03-7.06131E-03
 -1       168 1.57199E-02 6.98316E-03 7.78548E-03 4.87322E-03-7.04467E-03-5.94547E-03
 -1       169-1.84486E-03-1.11416E-03-1.57702E-03 3.60064E-03 1.34170E-03-4.11268E-03
 -1       170-6.23862E-03 4.22282E-04 5.99260E-04 7.45196E-03-1.24657E-04-7.76247E-03
 -1       171-8.23294E-03 3.74479E-03 4.29049E-03 9.64210E-03-4.16478E-03-8.82124E-03
 -1       172-8.26117E-03 4.75160E-03 5.84828E-03 7.43219E-03-5.08683E-03-7.86939E-03
 -1       173 2.22203E-03 3.77126E-03 5.63152E-03 7.18868E-03-7.23802E-03-6.62739E-03
 -1       174 1.47248E-02 9.35947E-03 9.80073E-03 6.20939E-03-9.03420E-03-7.41973E-03
 -1       175 9.36839E-03 3.80128E-03 8.25819E-03 1.25254E-03-5.53167E-03-3.67557E-03
 -1       176-5.93246E-03-2.86169E-04-5.44236E-05-5.99918E-03-9.91275E-05-6.76344E-03
 -1       177-9.22282E-03 5.92415E-04 1.38225E-03-6.03731E-03 8.16041E-04-7.60575E-03
 -1       178-8.78384E-03 2.69385E-03 3.84019E-03-6.27511E-03 3.27920E-03-6.93409E-03
 -1       179-3.22259E-03 4.51014E-03 6.44429E-03-6.53829E-03 5.42205E-03-7.02203E-03
 -1       180 9.28591E-03 7.88217E-03 9.29745E-03-6.70150E-03 8.51914E-03-7.01083E-03
 -1       181 1.54516E-02 7.62867E-03 8.65677E-03-5.39782E-03 8.18561E-03-6.40174E-03
 -1       182-3.26266E-03-1.13557E-03-3.01080E-03-3.79815E-03-1.17410E-03-4.24502E-03
 -1       183-7.48539E-03 4.48626E-04 1.03422E-03-5.98177E-03 4.46535E-04-7.47316E-03
 -1       184-9.37900E-03 1.55300E-03 2.67200E-03-5.95787E-03 2.05303E-03-7.09159E-03
 -1       185-6.47942E-03 3.89602E-03 6.10261E-03-6.25160E-03 4.55380E-03-6.97132E-03
 -1       186 3.24347E-03 6.33612E-03 8.79742E-03-6.35614E-03 6.68410E-03-7.08458E-03
 -1       187 1.38992E-02 8.59708E-03 9.57192E-03-6.15386E-03 9.09463E-03-7.26554E-03
 -1       188 1.05014E-02 6.03717E-03 9.78307E-03-2.26808E-03 6.33810E-03-3.52428E-03
 -1       189-3.05516E-02 4.22132E-02-2.26038E-01-5.52590E-02-2.43490E-03-5.59279E-02
 -1       190 4.66159E-04 1.93256E-01-2.90035E-02-3.14487E-03 1.84439E-02-7.08697E-03
 -1       191 2.74446E-03 1.86534E-01-1.28030E-02-1.34445E-03 1.48182E-03-4.74471E-03
 -1       192 9.09430E-04 9.56463E-02-2.82158E-04 2.43085E-03 2.11785E-04 1.06856E-03
 -1       193-2.35831E-01 2.05033E-02 4.63030E-01-5.92890E-01-8.03893E-01-1.05981E-01
 -1       194-8.49955E-03 9.96098E-02-4.61222E-02-4.49294E-02 4.74312E-03-1.57859E-03
 -1       195 1.78736E-04 1.98501E-01-8.84101E-03 3.42840E-03 1.60097E-02-3.36165E-03
 -1       196 1.16792E-03 1.46671E-01-1.13699E-03-1.08452E-03 7.73951E-04 3.03403E-03
 -1       197-1.04593E-03 4.75180E-02 4.68326E-05 1.76941E-03 1.34593E-03 1.36447E-03
 -1       198 9.20127E-04 9.36568E-02-3.47932E-04-1.75201E-03 1.26407E-03 5.99265E-04
 -1       199-4.61505E-03 1.83910E-01-5.18882E-03-1.19730E-03 1.10476E-03-7.18695E-03
 -1       200-2.45922E-02 1.86301E-01-3.52129E-02 1.02133E-02-9.74912E-03-3.81366E-02
 -1       201-3.74469E-02 3.20287E-02-1.91563E-01 5.63150E-02 1.00227E-02-5.93028E-02
 -1       202-1.30939E-03 4.73268E-02-5.39581E-04-1.64118E-03-4.89954E-04 1.91560E-03
 -1       203-1.52104E-03 1.43638E-01 1.30022E-04-1.71693E-03 2.44615E-04-1.98416E-03
 -1       204-1.46653E-02 1.89429E-01-1.52447E-02 9.79257E-04-1.00928E-02-1.61716E-02
 -1       205-2.96740E-02 1.07571E-01-5.04582E-02 2.05775E-02-1.90529E-02-1.84545E-02
 -1       206-2.20538E-01 5.42999E-02 5.14396E-01 5.86667E-01 8.39167E-01-1.22233E-01
 -1       207-1.93515E-01-1.80007E-01 2.93278E+00 1.03437E-02 1.45616E-02 2.11294E-01
 -1       208-9.34531E-02 3.38595E-02 3.10337E+00 4.40051E-02 3.47712E-01 2.91053E-01
 -1       209-1.89740E-01-1.35913E-02 3.02552E+00-5.10562E-02-3.20683E-01 2.96991E-01
 -1       210 4.76728E-02 1.74323E-02 2.62502E-01 5.71400E-02-2.35974E-01 4.71016E-02
 -1       211 3.38441E-03-7.46738E-03 1.95376E-02-3.08252E-03-5.09232E-02 5.22663E-03
 -1       212-9.58107E-02-1.48233E+00-9.14841E-01 1.62700E-01 8.97199E-01-1.88557E-01
 -1       213 1.87080E-02 6.70318E-02 3.77729E-02 3.17768E-02-8.46107E-02 1.43349E-02
 -1       214-3.74559E-03-5.74238E-03 1.11889E-03 5.23002E-03-1.97175E-02-5.32795E-03
 -1       215 1.31979E-01 4.67995E-02-8.59922E+00 2.52412E-02 5.28584E-01-5.21824E-01
 -1       216-7.62668E-02-6.93329E-01-8.81353E+00-1.32856E-01 1.75630E+00-6.43968E-01
 -1       217-1.55017E-02 1.39615E-01-1.02826E+01-8.44532E-02 6.13644E-01-8.18712E-01
 -1       218-2.86848E-01-5.12378E-01-1.70614E+01 6.35077E-02-2.07416E+00-2.09034E+00
 -1       219-7.50459E-01-9.02967E-02-1.71018E+01 1.25586E-01-5.16604E-01-3.18110E+00
 -1       220-1.12135E+00-2.26322E-01-1.66875E+01-1.78408E-01 5.50258E-01-3.12441E+00
 -1       221-6.15128E-01-4.64852E-01-1.63369E+01 2.43437E-02 1.98414E+00-2.15290E+00
 -1       222 3.15275E-01-2.62539E-02-1.57287E+01-6.87992E-02-1.95029E+00-1.11565E+00
 -1       223-5.56243E-01-7.76275E-02-1.64674E+01-4.96982E-02-1.16182E+00-2.56895E+00
 -1       224-5.79065E-01-2.50589E-01-1.63963E+01-4.75901E-02 1.34900E-02-3.04506E+00
 -1       225-9.57236E-01-2.76560E-01-1.66383E+01-1.02987E-01 1.30560E+00-2.65684E+00
 -1       226 3.17802E-01-5.96263E-02-1.56726E+01 2.09878E-01 1.92352E+00-1.12660E+00
 -1       227 1.13654E-01 5.95508E-02-8.55789E+00-8.70685E-03-5.08519E-01-5.16276E-01
 -1       228-8.61169E-02-7.46976E-01-8.90538E+00 1.19931E-01-1.76917E+00-6.05127E-01
 -1       229-5.15423E-02 1.12560E-01-1.03311E+01 1.08275E-01-6.38511E-01-8.31651E-01
 -1       230-1.76592E-03-1.58317E-02 1.66170E-02-8.86440E-03 4.69750E-02 3.08075E-03
 -1       231 1.10779E-01 1.29958E-01 3.66494E-01 3.20769E-02 2.85209E-01 9.75596E-02
 -1       232-3.35648E-03-4.96945E-03-7.92801E-04-8.72037E-03 1.89407E-02-6.13983E-03
 -1       233 2.08100E-02 5.62577E-02 1.62982E-02-1.73173E-02 7.12851E-02 7.62491E-04
 -1       234-9.23693E-02-1.38350E+00-5.12316E-01 1.89736E-02-8.20649E-01-4.13213E-02
 -1       235 3.22536E-01 8.94609E-01 2.92825E+00-9.91530E-01-8.69226E-01 1.44782E+00
 -1       236 2.25090E-01 7.05329E-01 2.33083E+00-8.63057E-01-6.68128E-01 1.49599E+00
 -1       237 1.24703E-03 6.97809E-01 2.05291E+00-8.79398E-01-6.43631E-01 1.31937E+00
 -1       238-4.64404E-01 4.34949E-01 1.42084E+00-6.41312E-01-4.42489E-01 8.97508E-01
 -1       239-9.56741E-01 7.81735E-02 3.80728E-01-3.21093E-01-4.17425E-02 3.49708E-01
 -1       240 3.38402E-01 9.29989E-01 3.35379E+00-8.65343E-01-9.49675E-01 1.06515E+00
 -1       241 4.02662E-01 7.99206E-01 2.57493E+00-1.01289E+00-8.00389E-01 1.42303E+00
 -1       242 6.67390E-02 7.14084E-01 2.20323E+00-9.38452E-01-7.01389E-01 1.39340E+00
 -1       243-2.52512E-01 5.88046E-01 1.82212E+00-8.02696E-01-5.75714E-01 1.13104E+00
 -1       244-5.09637E-01 3.66830E-01 1.16426E+00-5.38244E-01-3.27148E-01 7.52643E-01
 -1       245-1.40961E+00-4.88058E-01-1.02915E+00-3.03505E-01 2.67569E-01-1.43266E-01
 -1       246-1.75145E+00-1.01301E+00-2.06253E+00-9.14710E-02-1.56386E-01-1.24679E+00
 -1       247-1.62175E+00-9.45097E-01-2.26655E+00-1.67313E-01-1.19373E-01-1.08003E+00
 -1       248-2.05706E+00-9.89011E-01-2.42052E+00 1.90434E-01 1.73695E-01-1.53411E+00
 -1       249-1.06990E+00-1.96724E+00-4.40922E+00 6.39294E-01 1.48354E+00-2.12618E+00
 -1       250-1.96625E+00-1.59160E+00-3.03192E+00 7.08050E-01 1.15150E+00-1.89368E+00
 -1       251-6.30233E-01-2.71574E+00-5.43730E+00 4.61877E-01 1.92232E+00-1.20793E+00
 -1       252-1.12099E+00-2.06430E+00-4.39914E+00-6.33847E-01-1.48695E+00-2.18188E+00
 -1       253-2.06917E+00-1.63699E+00-3.18539E+00-8.05446E-01-1.18478E+00-1.93744E+00
 -1       254-6.51512E-01-2.92740E+00-5.52634E+00-5.23277E-01-2.06502E+00-1.29875E+00
 -1       255-1.73204E+00-1.00104E+00-2.02523E+00 9.69311E-02 1.23195E-01-1.20674E+00
 -1       256-2.11394E+00-1.02781E+00-2.43071E+00-2.13560E-01-1.64830E-01-1.51049E+00
 -1       257-1.64254E+00-9.44098E-01-2.18612E+00 2.10273E-01 9.70934E-02-1.08548E+00
 -1       258 1.91993E-01 8.41764E-01 2.57526E+00 8.66659E-01 7.62966E-01 1.29805E+00
 -1       259 3.07230E-01 7.78077E-01 2.33484E+00 8.93170E-01 6.88341E-01 1.48260E+00
 -1       260-1.12312E-01 6.52241E-01 1.92117E+00 7.12547E-01 5.71543E-01 1.29489E+00
 -1       261-5.32197E-01 4.59824E-01 1.46698E+00 5.28010E-01 3.76711E-01 9.46199E-01
 -1       262-9.57106E-01 1.03504E-01 3.63281E-01 2.94601E-01 5.18151E-02 3.56656E-01
 -1       263 3.72749E-01 9.87202E-01 3.35372E+00 8.40381E-01 9.77409E-01 1.01458E+00
 -1       264 3.10362E-01 7.59791E-01 2.36731E+00 8.63421E-01 7.04288E-01 1.38282E+00
 -1       265 1.67689E-01 8.17240E-01 2.23915E+00 9.03439E-01 7.00802E-01 1.36528E+00
 -1       266-1.87600E-01 6.26054E-01 1.81136E+00 6.42682E-01 4.88108E-01 1.17532E+00
 -1       267-6.67883E-01 2.96714E-01 9.21834E-01 4.32007E-01 2.13761E-01 6.55768E-01
 -1       268-1.43324E+00-4.68611E-01-1.00638E+00 3.04533E-01-2.44669E-01-1.30778E-01
 -1       269 1.26947E-01 4.06038E-01 6.05666E+00 9.85875E-02 4.28641E-01 2.42276E-01
 -1       270-1.88795E-01 1.00883E-01 4.66690E+00-5.66905E-01 8.54749E-01 1.54038E-01
 -1       271 9.72814E-02 3.43298E-01 7.15782E+00 3.44304E-02 1.28567E-01 1.72694E-01
 -1       272-1.89741E+00-1.09761E-01 2.20967E+00-1.47633E-01 1.80249E+00 3.82964E+00
 -1       273 5.80857E+00 7.75607E-01 1.51222E+00 1.68189E+00 2.41956E+00 5.51153E+00
 -1       274 1.59067E+01 1.93842E+00 7.47922E-01 3.37641E+00 1.26459E+00 4.39436E+00
 -1       275 2.16778E+01 2.65588E+00 4.65943E-01 4.05365E+00-1.87501E-01 1.39861E+00
 -1       276-3.13103E+00-7.58056E-01 1.42934E+00-8.28797E-01 1.38651E+00 2.12966E+00
 -1       277 2.06776E+00 3.88962E-01 2.14310E+00 8.60199E-01 2.30853E+00 4.61354E+00
 -1       278 1.04580E+01 1.57390E+00 1.48901E+00 2.78140E+00 2.07176E+00 5.47242E+00
 -1       279 1.91647E+01 2.73527E+00 1.24101E+00 4.11909E+00 6.97345E-01 2.86430E+00
 -1       280 2.11312E+01 2.89942E+00 1.64105E-01 3.54069E+00-2.32764E-01 8.92260E-01
 -1       281 1.44017E+01 1.01219E+00-1.11761E-02 1.02746E+00-1.95603E-01 6.28898E-01
 -1       282 1.60033E+01 1.66124E+00-3.82196E-02 1.18001E+00-2.07263E-01 6.09989E-01
 -1       283 1.39275E+01 3.51251E-01-6.98101E-03 6.25439E-01-5.44358E-02 4.80509E-01
 -1       284 8.25260E-01 2.07524E-02 1.04927E+01-3.69824E-02-7.09229E-02 3.21234E+00
 -1       285 4.74428E+00 1.32620E-01 9.70650E+00 3.50122E-02 1.50691E-01 7.14179E+00
 -1       286 1.02254E+01-2.93629E-02 5.30512E+00-1.02762E-01 2.69488E-01 7.76009E+00
 -1       287 1.37665E+01-1.45275E-01 1.14740E+00-1.90843E-02 1.65517E-01 4.52994E+00
 -1       288 2.00799E-01-3.44775E-02 9.14950E+00-2.78708E-02-1.15779E-01 1.43859E+00
 -1       289 2.59468E+00 3.93964E-02 1.01037E+01 2.00680E-02-4.60794E-02 5.05090E+00
 -1       290 7.31899E+00-1.02466E-01 7.33599E+00-1.20407E-01 2.15726E-01 7.48875E+00
 -1       291 1.19113E+01-2.39500E-01 3.05641E+00-9.14729E-02 1.66064E-01 6.14846E+00
 -1       292 1.36371E+01-2.72685E-01 2.87211E-01 2.97261E-02 1.39397E-01 2.20469E+00
 -1       293-1.58534E+00-1.97579E-01 2.57984E+00 1.77161E-01-1.35163E+00 3.74956E+00
 -1       294 5.58499E+00 7.25295E-01 1.37284E+00-1.33132E+00-2.10189E+00 5.04972E+00
 -1       295 1.59616E+01 1.91946E+00 7.37474E-01-3.32650E+00-1.12656E+00 4.49045E+00
 -1       296 2.22158E+01 2.65463E+00 5.34259E-01-4.01399E+00 1.24885E-01 1.24742E+00
 -1       297-3.26732E+00-8.85648E-01 1.57043E+00 8.26016E-01-1.18061E+00 2.00710E+00
 -1       298 1.91569E+00 1.88917E-01 1.97160E+00-6.11069E-01-1.88315E+00 4.44503E+00
 -1       299 1.06900E+01 1.61848E+00 1.56018E+00-2.76519E+00-1.98573E+00 5.48293E+00
 -1       300 1.92269E+01 2.38495E+00 8.43301E-01-3.73794E+00-5.31822E-01 2.82388E+00
 -1       301 2.09910E+01 2.91000E+00 1.87701E-01-3.38910E+00 1.00270E-01 9.24760E-01
 -1       302 2.06125E-01 5.24536E-01 6.13775E+00-1.29401E-01-4.94091E-01 2.16916E-01
 -1       303 7.22737E-02 2.69421E-01 7.12149E+00-8.99251E-03-1.56825E-01 1.44554E-01
 -1       304-1.21815E-01 1.99820E-01 4.57214E+00 5.34713E-01-8.49650E-01 1.59597E-01
 -1       305 8.37797E-01 5.46862E-02 1.04542E+01 2.13073E-02 7.33246E-02 3.22314E+00
 -1       306 4.78169E+00 1.33499E-01 9.67786E+00-1.89366E-02-1.24873E-01 7.11515E+00
 -1       307 1.02659E+01-2.05297E-02 5.28751E+00 9.28573E-02-2.83927E-01 7.76664E+00
 -1       308 1.38571E+01-1.10411E-01 1.06198E+00-1.43504E-02-1.65785E-01 4.51785E+00
 -1       309 2.71130E-01-1.01054E-02 9.20520E+00 4.37227E-02 1.28179E-01 1.41484E+00
 -1       310 2.54535E+00 4.06884E-02 1.00455E+01-3.55413E-02 6.67026E-02 5.06334E+00
 -1       311 7.35420E+00-9.96296E-02 7.31159E+00 1.20484E-01-2.27767E-01 7.49517E+00
 -1       312 1.19628E+01-2.33369E-01 3.03962E+00 6.34910E-02-1.51061E-01 6.14634E+00
 -1       313 1.36459E+01-2.34848E-01 1.95934E-01-7.31854E-02-1.43690E-01 2.21109E+00
 -1       314 1.44474E+01 9.74598E-01 1.21616E-01-1.13102E+00 2.16661E-01 7.79241E-01
 -1       315 1.39992E+01 4.04612E-01 1.93240E-01-6.81200E-01 3.84428E-02 5.37813E-01
 -1       316 1.55907E+01 1.61097E+00-7.35844E-02-1.11266E+00 2.79916E-01 8.97919E-01
 -1       317-2.64408E+00-8.17498E-01-6.92278E-01-9.64694E-01 1.11883E-01-4.77010E-01
 -1       318-2.16825E+00-1.02930E+00-1.66611E+00-7.60008E-01 8.07816E-03-5.73007E-01
 -1       319-4.06766E+00-1.15481E+00-2.19815E-01-1.10074E+00 3.33709E-01 7.18808E-02
 -1       320 1.11485E-01 5.02752E-02 3.12706E+00-3.17819E-02-4.66608E-01-4.89074E-01
 -1       321-4.88503E-01-2.32984E-01-1.50537E+00 1.25431E-01-1.23609E-01-1.38913E+00
 -1       322-7.08929E-02-7.40543E-02 5.58035E+00 1.08349E-01-3.04370E-01-3.49356E-01
 -1       323-2.63759E+00-7.83966E-01-6.72573E-01 9.65229E-01-1.17283E-01-4.43702E-01
 -1       324-2.17902E+00-1.02308E+00-1.65887E+00 7.69021E-01-1.55585E-02-5.72682E-01
 -1       325-3.96696E+00-1.19577E+00-2.73735E-01 1.09118E+00-3.27915E-01 7.16455E-02
 -1       326 1.42055E-01 9.73795E-02 3.07629E+00-2.73084E-03 4.62952E-01-5.04684E-01
 -1       327-4.59230E-01-2.07896E-01-1.51469E+00-1.73511E-01 1.32688E-01-1.39864E+00
 -1       328-6.28759E-02-2.08710E-02 5.61183E+00-9.70475E-02 3.09693E-01-3.19137E-01
 -1       329 4.55241E-01 1.06797E+00 2.59368E-01-5.92355E-01 5.76131E-01-2.84551E-01
 -1       330-1.13451E+00-1.70833E-01 2.23711E-02-9.03581E-01 3.56688E-01 2.21809E-01
 -1       331-1.40759E+00-1.54577E-01 6.24876E-03-4.84445E-01-3.23833E-02-6.16252E-02
 -1       332-5.52866E-01 5.05427E-02 1.74999E-03-5.37776E-02 6.69864E-03-4.65099E-02
 -1       333-9.88144E-02 1.83592E-02 4.42795E-02 2.98626E-02 6.94015E-02-4.47894E-02
 -1       334 6.08295E-02 1.67741E-01 4.79424E-02-7.52220E-02 5.67149E-02 1.33733E-03
 -1       335 3.59362E-02 3.24600E-01 4.64180E-02-5.35307E-02 2.05808E-02 4.23390E-02
 -1       336 2.38747E-02 3.07583E-01 2.89656E-02 5.20593E-02-1.80322E-02 2.78683E-02
 -1       337 3.19008E-02 1.75798E-01 1.68354E-02 6.70017E-02-4.12113E-02-7.65846E-03
 -1       338-1.47590E-01 9.41119E-02 5.54412E-02-1.33615E-02-9.53133E-02-3.09519E-02
 -1       339-5.26711E-01 3.77151E-02 1.76087E-03 4.87585E-02-4.24568E-03-4.97030E-02
 -1       340-1.39722E+00-1.47257E-01 2.29570E-03 4.79878E-01 3.65043E-02-5.87395E-02
 -1       341-1.21797E+00-2.11612E-01 1.68568E-02 9.30225E-01-3.44753E-01 2.30641E-01
 -1       342 7.07872E-01 1.23788E+00 3.49650E-01 5.21821E-01-6.89848E-01-2.90936E-01
 -1       343 1.18443E+00 1.53597E+00 1.57698E-01-1.50036E-01 7.36515E-02-3.22458E-01
 -1       344-2.30527E-01 5.36133E-01-3.30838E-02-7.65801E-01 4.65327E-01 8.16927E-02
 -1       345-1.36505E+00-3.02724E-01-3.01210E-02-7.65976E-01 1.64179E-01 1.43986E-01
 -1       346-9.06023E-01-1.92947E-02 3.45966E-02-2.51686E-01-2.76155E-03-6.14265E-02
 -1       347-3.11025E-01 4.83838E-02 2.40812E-02-2.98902E-03 2.24636E-02-1.09917E-02
 -1       348 5.47614E-03 9.44659E-02 5.27575E-02-3.36512E-02 5.37321E-02-3.52542E-02
 -1       349 4.90867E-02 2.46995E-01 5.56940E-02-7.20792E-02 3.36269E-02 2.54752E-02
 -1       350 2.02559E-02 3.32415E-01 3.91131E-02-3.88931E-03-2.99563E-03 2.93862E-02
 -1       351 2.77330E-02 2.39656E-01 1.93853E-02 6.94135E-02-1.65584E-02 3.59196E-03
 -1       352-1.16974E-02 1.49571E-01 4.14891E-02 4.23134E-02-5.48966E-02-3.52110E-02
 -1       353-3.48183E-01 6.35837E-02 9.24956E-03-3.50620E-03-3.23914E-02-2.31528E-03
 -1       354-8.92507E-01-2.17876E-02 3.57363E-02 2.37898E-01 1.28052E-02-5.21526E-02
 -1       355-1.37863E+00-3.01778E-01-1.96008E-02 7.72226E-01-1.62895E-01 1.44746E-01
 -1       356-3.02635E-01 4.76480E-01-3.74750E-02 8.78830E-01-4.36199E-01 1.62448E-01
 -1       357 1.55187E+00 2.05560E+00 3.12860E-01 1.34678E-01-2.35621E-01-5.11795E-01
 -1       358-2.48428E-01-1.05199E+00-1.21839E+00 7.07288E-01 6.18732E-01-1.93075E-01
 -1       359 1.28242E+00 1.75263E-01-1.01546E+00 9.41402E-01 3.56041E-01 2.44565E-01
 -1       360 1.38756E+00 1.84701E-01-1.01784E+00 5.15857E-01-4.76675E-02-9.01928E-02
 -1       361 5.24697E-01-4.03061E-02-1.00210E+00 6.34332E-02 5.44130E-03-4.67454E-02
 -1       362 8.04883E-02-3.70840E-02-1.02563E+00-2.46223E-02 5.37270E-02-4.64548E-02
 -1       363-3.55256E-02-1.62772E-01-1.03910E+00 5.91088E-02 6.33208E-02-1.09454E-02
 -1       364-3.18557E-02-3.18876E-01-1.03694E+00 5.54186E-02 2.56960E-02 3.23584E-02
 -1       365-2.95328E-02-3.24620E-01-1.02619E+00-4.43199E-02-2.87744E-02 2.43104E-02
 -1       366-6.02950E-02-1.42468E-01-1.03148E+00-7.87121E-02-3.98846E-02 9.73823E-03
 -1       367 8.76519E-02-3.00993E-02-1.03985E+00 2.54153E-02-5.77592E-02-4.56426E-02
 -1       368 5.15898E-01-5.41154E-02-1.00996E+00-5.93195E-02-9.71816E-03-5.27900E-02
 -1       369 1.37330E+00 1.74748E-01-1.00719E+00-5.48816E-01 2.38437E-02-1.00608E-01
 -1       370 1.31174E+00 2.17967E-01-1.01565E+00-9.72840E-01-3.45328E-01 2.42141E-01
 -1       371-6.95721E-01-1.34187E+00-1.31462E+00-5.41591E-01-7.29015E-01-3.05414E-01
 -1       372-1.16868E+00-1.69889E+00-1.18300E+00 1.67167E-01 8.10966E-02-3.23544E-01
 -1       373 4.60037E-01-5.72370E-01-9.18470E-01 8.42067E-01 4.94765E-01 1.59278E-01
 -1       374 1.42924E+00 3.40874E-01-9.73532E-01 7.98212E-01 1.41324E-01 1.40343E-01
 -1       375 8.47652E-01 1.52062E-02-1.07020E+00 2.69889E-01-1.08806E-02-7.94181E-02
 -1       376 3.08166E-01-2.79451E-02-9.91570E-01 2.77733E-03 2.18507E-02-1.44109E-02
 -1       377 4.33847E-04-1.09925E-01-1.04621E+00 3.67859E-02 5.61760E-02-3.51357E-02
 -1       378-2.63821E-02-2.35893E-01-1.04337E+00 6.75070E-02 4.65011E-02 3.53215E-03
 -1       379-3.12141E-02-3.33738E-01-1.04409E+00 6.48932E-03-4.11867E-03 3.67943E-02
 -1       380-2.99812E-02-2.22392E-01-1.01122E+00-7.50452E-02-2.51174E-02 6.76871E-03
 -1       381 2.69831E-03-7.97107E-02-1.03813E+00-2.91565E-02-5.37148E-02-1.38817E-02
 -1       382 2.75703E-01-4.93084E-02-1.01798E+00-9.76531E-03-2.47805E-02-1.98387E-02
 -1       383 8.72658E-01 2.68128E-02-1.04449E+00-2.97514E-01-2.14691E-02-6.00038E-02
 -1       384 1.42398E+00 3.35811E-01-9.63211E-01-8.04962E-01-1.41596E-01 1.23045E-01
 -1       385 3.65307E-01-5.24639E-01-9.19554E-01-8.97192E-01-4.95321E-01 1.58039E-01
 -1       386-1.55602E+00-2.18880E+00-1.28127E+00-1.58898E-01-2.40763E-01-5.09576E-01
 -1       387 2.18640E-02 9.86990E-01-1.00969E+00 2.12922E-01 2.00424E-02 5.46147E-01
 -1       388 1.06406E+00 1.88465E+00-1.88929E-01 1.80458E-01 4.71469E-02-1.09799E-03
 -1       389-1.07375E+00-1.42944E-01-4.47592E+00 2.41500E-01-6.17260E-02 2.71728E+00
 -1       390-2.20487E+00 8.17169E-02 5.27089E-01-3.53728E-01 2.55401E-01-3.83870E-01
 -1       391-6.45145E+00 3.69312E-01 4.66957E-01-7.93159E-01 9.83848E-01 6.84162E-01
 -1       392-1.20627E+01-1.62945E+00-1.82847E+00-5.08678E-01 8.26595E-01 1.33631E+00
 -1       393-1.11237E+00 5.32644E-02 3.29603E-01-2.47538E-01 1.02269E-01-5.78670E-01
 -1       394-3.60280E+00 3.12288E-01 7.93887E-01-5.89239E-01 6.63247E-01 1.17968E-01
 -1       395-8.58061E+00-3.09283E-01-5.36820E-01-6.50347E-01 1.04845E+00 1.32591E+00
 -1       396-1.31302E+01-3.43704E+00-4.55744E+00-2.18175E-01 6.15121E-01 2.60063E+00
 -1       397 2.80758E-03-3.62971E-04-4.46836E-01-1.38585E-02 8.46505E-02-1.51032E+00
 -1       398-4.25614E-01 3.23535E-02-1.66991E-01-8.19825E-02 7.48266E-02-1.15560E+00
 -1       399 4.19656E-01-4.71073E-02-7.61000E-01 6.26781E-02 7.56951E-02-1.15474E+00
 -1       400 2.04813E+00-1.82715E-01-1.38325E+00 4.15560E-01 4.23525E-01-5.15088E-01
 -1       401 6.40945E+00-3.03270E-01-1.08159E+00 8.06586E-01 1.16299E+00 5.77627E-01
 -1       402 1.15971E+01 1.58145E+00 1.19795E+00 9.92785E-01 1.04456E+00 1.72351E+00
 -1       403 1.04666E+00-1.36293E-01-1.23904E+00 3.05733E-01 2.45807E-01-7.00377E-01
 -1       404 3.56407E+00-3.89283E-01-1.66795E+00 6.22204E-01 8.26525E-01-1.81822E-02
 -1       405 8.44049E+00 3.89943E-01-2.39766E-01 8.61146E-01 1.22828E+00 1.34469E+00
 -1       406 1.30540E+01 3.10025E+00 3.94268E+00 5.41065E-01 8.13347E-01 3.05377E+00
 -1       407 1.91980E-02-1.25866E+00 2.36824E-01-2.37138E-01-1.05873E-02 7.17269E-01
 -1       408 1.19174E+00-2.31448E-01 4.05154E+00-2.61756E-01-1.41048E-01 3.04185E+00
 -1       409-1.05096E+00-2.16507E+00-7.82980E-01-1.92982E-01 3.01726E-02 6.75721E-02
 -1       410 1.08754E+01 1.38589E+00 5.04403E-01-9.07749E-01-1.14152E+00 1.76741E+00
 -1       411 6.54636E+00-2.97587E-01-1.04340E+00-7.95628E-01-1.15887E+00 5.13703E-01
 -1       412 2.21838E+00-1.24254E-01-1.29883E+00-3.96792E-01-3.36951E-01-6.53543E-01
 -1       413 1.26191E+01 2.46134E+00 2.07282E+00-4.37176E-01-7.80469E-01 2.56750E+00
 -1       414 8.36012E+00 2.81159E-01-4.38476E-01-9.54896E-01-1.35586E+00 1.28514E+00
 -1       415 3.52766E+00-4.58289E-01-1.66718E+00-5.99333E-01-8.20670E-01-9.89842E-02
 -1       416 1.12873E+00-9.93100E-02-1.23527E+00-3.32899E-01-1.97572E-01-7.31764E-01
 -1       417 1.14662E-02 2.33319E-02-4.70143E-01 5.18072E-03-1.02460E-01-1.44312E+00
 -1       418-3.77389E-01 1.22287E-02-1.22904E-01 1.56128E-02-7.25299E-02-1.16507E+00
 -1       419 4.96951E-01-3.40259E-03-7.64226E-01-6.04011E-02-8.86947E-02-1.13062E+00
 -1       420-1.18320E+01-1.56720E+00-1.37123E+00 4.48592E-01-8.46570E-01 9.83078E-01
 -1       421-6.47770E+00 4.40560E-01 4.59109E-01 7.82945E-01-9.86204E-01 7.54550E-01
 -1       422-2.11717E+00 9.16771E-02 5.10159E-01 3.41624E-01-2.35776E-01-3.13243E-01
 -1       423-1.27586E+01-2.78270E+00-2.73223E+00 7.48994E-03-6.25650E-01 1.98734E+00
 -1       424-8.58202E+00-3.14933E-01-4.15030E-01 8.78877E-01-1.15700E+00 1.18273E+00
 -1       425-3.56566E+00 3.62406E-01 7.62671E-01 5.57790E-01-6.64994E-01 1.76117E-01
 -1       426-1.11275E+00 5.30136E-02 2.94222E-01 2.48356E-01-9.38150E-02-5.64422E-01
 -1       427 2.61371E+01 1.74335E+00-2.46931E-01-3.16141E+00 1.33591E-01 8.25025E-01
 -1       428 2.66827E+01-5.02031E-01-2.08798E-01 1.56528E-01-1.44886E-01 3.13713E+00
 -1       429 2.06733E+01-2.23591E-02 6.30068E-01 1.60934E-01 7.05409E-03 3.73279E+00
 -1       430 1.45253E+01-6.83902E-04 8.88467E-01 1.17831E-01 2.95984E-02 3.63824E+00
 -1       431 9.90401E+00-8.16408E-03 9.35050E-01 5.13333E-02 1.81149E-02 3.10189E+00
 -1       432 6.57273E+00-1.21788E-02 1.00187E+00 1.46742E-02-5.73117E-03 2.61757E+00
 -1       433 4.25294E+00-5.37682E-04 1.08824E+00 1.30750E-02 1.17797E-02 2.18764E+00
 -1       434 2.64581E+00-1.72119E-03 1.17502E+00 2.71400E-03 3.56333E-03 1.78050E+00
 -1       435 1.48008E+00 2.80430E-03 1.29095E+00 1.37039E-03 1.90627E-03 1.39267E+00
 -1       436 6.59645E-01-1.87709E-02 1.48871E+00-5.47775E-04-4.10979E-03 1.01088E+00
 -1       437 3.24139E-02-1.06773E-01 1.81827E+00 2.58018E-02-1.19976E-01 5.78830E-01
 -1       438 2.20102E+01 1.91945E+00 5.07673E-01-1.71726E+00 8.45233E-01-4.10193E-01
 -1       439 2.77876E+01-4.13584E-01-5.68906E-01-1.00462E+00-2.09754E-01 1.86576E+00
 -1       440 2.38751E+01 3.97258E-02 4.59994E-01 9.82353E-02-5.21787E-02 3.34784E+00
 -1       441 1.74929E+01 2.79536E-02 7.34283E-01 1.43094E-01 5.42362E-02 3.74521E+00
 -1       442 1.20504E+01-4.45240E-02 8.45156E-01 1.03565E-01 2.73601E-02 3.38100E+00
 -1       443 8.08568E+00-2.59082E-02 9.40264E-01 4.73791E-02 3.97300E-03 2.87210E+00
 -1       444 5.31383E+00-2.45451E-02 1.00342E+00 1.15145E-02 1.71099E-02 2.39132E+00
 -1       445 3.37811E+00-1.27649E-02 1.11637E+00 1.39098E-02 7.37279E-03 1.98291E+00
 -1       446 2.02801E+00-2.68339E-03 1.22559E+00 5.22497E-03 5.23086E-03 1.57866E+00
 -1       447 1.04897E+00-2.55225E-03 1.39377E+00 4.91020E-03 5.16645E-03 1.20305E+00
 -1       448 3.54393E-01 3.14288E-03 1.63678E+00 2.87501E-03-5.38177E-03 7.73881E-01
 -1       449 2.85262E-01-2.84546E-02 3.49163E+00-3.41381E-02 2.36646E-01 7.09042E-01
 -1       450 2.63418E+01 1.64729E+00-2.30293E-03 2.96685E+00-2.26482E-01 8.05182E-01
 -1       451 2.69963E+01-5.57587E-01-1.90260E-01 3.99678E-01 1.64409E-01 2.92413E+00
 -1       452 2.05682E+01-3.32413E-02 6.23282E-01-1.60646E-01 8.05421E-03 3.74864E+00
 -1       453 1.45806E+01-5.98131E-02 8.62462E-01-1.44477E-01 1.00176E-03 3.61076E+00
 -1       454 9.88483E+00 1.39856E-02 9.43680E-01-4.15425E-02-3.28666E-02 3.08324E+00
 -1       455 6.56132E+00-1.56884E-03 1.01200E+00-2.06064E-02-4.25807E-03 2.61912E+00
 -1       456 4.27152E+00-7.79305E-03 1.08294E+00-1.58767E-02-5.61213E-03 2.18591E+00
 -1       457 2.64135E+00-7.11525E-04 1.18564E+00-7.42748E-03-3.53822E-03 1.78732E+00
 -1       458 1.48445E+00-3.53976E-03 1.29867E+00-2.07468E-03-1.51030E-03 1.40496E+00
 -1       459 6.75704E-01-2.11365E-02 1.46574E+00-9.56786E-04 1.67955E-02 1.01583E+00
 -1       460-1.73296E-02-1.20739E-01 1.86282E+00-1.69578E-02 1.18987E-01 5.49501E-01
 -1       461 2.22415E+01 1.90184E+00 7.26865E-01 2.02126E+00-7.10725E-01-1.77385E-01
 -1       462 2.76533E+01-1.34299E-01-3.63988E-01 1.61106E+00 2.20144E-01 2.04495E+00
 -1       463 2.38788E+01 7.52510E-02 4.80037E-01-1.23748E-02 3.05257E-02 3.35656E+00
 -1       464 1.74573E+01-1.10947E-01 7.20948E-01-1.54563E-01 5.73962E-03 3.73636E+00
 -1       465 1.20166E+01-6.87099E-02 8.14969E-01-1.01742E-01-2.82028E-02 3.35808E+00
 -1       466 8.09635E+00-1.86544E-02 9.60069E-01-5.07010E-02-1.23137E-02 2.85160E+00
 -1       467 5.30251E+00-2.84484E-02 1.00501E+00-2.62076E-02-1.32920E-02 2.38733E+00
 -1       468 3.39487E+00-8.61305E-03 1.13251E+00-1.72217E-02-4.90485E-03 1.98611E+00
 -1       469 2.02413E+00-8.95888E-03 1.22920E+00-1.04389E-02-6.01210E-03 1.59075E+00
 -1       470 1.05664E+00-1.73105E-03 1.38802E+00-1.29802E-03 3.34755E-03 1.20689E+00
 -1       471 3.61606E-01-6.22540E-03 1.64876E+00-1.17244E-02 2.75232E-03 7.72829E-01
 -1       472 1.71106E-01-8.06367E-02 3.41215E+00 4.54038E-02-2.32453E-01 7.09935E-01
 -1       473-7.31007E+00 6.60998E-02-1.53875E+01-4.09315E-01-6.16436E-01-9.79162E+00
 -1       474-1.91630E+01 1.00940E-02-7.27880E+00 2.56310E-01 1.24309E-01-1.16018E+01
 -1       475-2.67554E+00-4.10954E-01-1.78429E+01-1.33260E-01-1.16333E+00-5.43001E+00
 -1       476-1.45138E+01-2.84325E-01-1.19415E+01 5.78692E-03-2.98797E-01-1.19869E+01
 -1       477-2.17010E+01-2.58589E-01-3.45835E+00 9.32796E-01 5.80804E-01-7.04929E+00
 -1       478-9.10593E+00 4.76507E-02 2.36760E-01 5.41650E-01 1.63050E-01-8.96559E-01
 -1       479-3.10937E+00 1.92031E-02 1.85299E-01 4.58813E-02-2.64283E-02-5.36529E-01
 -1       480-1.25441E+01-2.47838E-02 3.73586E-01 7.29612E-01 4.50913E-01-1.08883E+00
 -1       481-5.93422E+00 7.03138E-02 1.63791E-01 6.79274E-02 1.57559E-03-9.03489E-01
 -1       482-1.28522E+00-6.75920E-02 1.12201E-01 1.99769E-01 3.02448E-02-5.64358E-01
 -1       483 9.44669E+00 7.01890E-03 1.71772E-02-4.36108E-01 1.52625E-01-1.13331E+00
 -1       484 3.49406E+00 1.87258E-02-3.67966E-01-1.24539E-01-7.08918E-02-1.00833E+00
 -1       485 1.22334E+01 9.59941E-02 2.62390E-01-4.00335E-01 4.04570E-02-5.00190E-01
 -1       486 6.07951E+00-2.88425E-02-2.36576E-01-6.19068E-02 3.87655E-02-1.25350E+00
 -1       487 1.39769E+00 4.56042E-02-7.86189E-01-2.42518E-01-5.91146E-02-7.17251E-01
 -1       488 1.34946E+01-1.32436E-01 1.33424E-01-1.66914E-01-2.84621E-02 3.54001E-01
 -1       489 1.35180E+01-1.21491E-01 1.56824E-01-1.69176E-01-2.83378E-02 3.38193E-01
 -1       490 1.34753E+01-1.41507E-01 1.17418E-01-1.65105E-01-2.86797E-02 3.66939E-01
 -1       491 1.34475E+01-2.73694E-01-9.28658E-02 9.00988E-03 6.01095E-02 4.24176E-01
 -1       492 1.34804E+01-2.65708E-01-7.42656E-02 7.46592E-03 5.64495E-02 4.03668E-01
 -1       493 1.34124E+01-2.82982E-01-1.12980E-01 1.04120E-02 6.36905E-02 4.46775E-01
 -1       494 9.51834E+00 5.19118E-02 1.09870E-01 4.71135E-01-1.48768E-01-9.72016E-01
 -1       495 3.22462E+00-4.10800E-02-3.60883E-01 9.14497E-02 7.94699E-02-8.23810E-01
 -1       496 1.22271E+01 6.28180E-03-7.13429E-04 3.91470E-01-3.69905E-02-4.25102E-01
 -1       497 6.08611E+00-6.24720E-02-8.61639E-02 9.88828E-02-7.10404E-02-1.02277E+00
 -1       498 1.37328E+00 3.95595E-02-6.47394E-01 2.18680E-01 9.98504E-02-6.92651E-01
 -1       499-9.07764E+00 4.78310E-02 2.15438E-01-5.12092E-01-6.81267E-02-1.15467E+00
 -1       500-3.23049E+00-5.38833E-03 2.29902E-01-5.43458E-02 3.36697E-02-6.95079E-01
 -1       501-1.25319E+01 1.17386E-01 3.02854E-02-5.68021E-01 7.02596E-02-1.54843E+00
 -1       502-5.90029E+00 6.97877E-02 2.10754E-01-7.24294E-02 3.51001E-04-1.04753E+00
 -1       503-1.23331E+00-5.43427E-03 2.42734E-01-1.95109E-01-4.00162E-02-5.85615E-01
 -1       504-7.27769E+00 4.43755E-02-1.54251E+01 3.89324E-01 5.83385E-01-9.76539E+00
 -1       505-1.90498E+01 3.13819E-02-7.30784E+00-1.97420E-01-4.49576E-02-1.13848E+01
 -1       506-2.63710E+00-3.41632E-01-1.78310E+01 1.46673E-01 1.19597E+00-5.41403E+00
 -1       507-1.45133E+01-2.74601E-01-1.19709E+01-1.65752E-02 2.73486E-01-1.19929E+01
 -1       508-2.17431E+01-3.19104E-01-3.06786E+00-8.09552E-01-4.70047E-01-6.96949E+00
 -1       509 1.52526E+01 1.35765E+00-1.91947E-01-9.62129E-01 3.16173E-01 7.40710E-01
 -1       510 2.19773E+01 3.47428E+00 1.42854E+00-9.87043E-01 2.87301E-01 1.64642E+00
 -1       511 2.25348E+01 3.54416E+00 1.01723E+00 1.15194E+00-3.62516E-01 1.39127E+00
 -1       512 1.52498E+01 1.47035E+00 5.17258E-03 1.05183E+00-2.62702E-01 7.13591E-01
 -1       513 1.47652E+01 6.43545E-01-7.31747E-02-7.60734E-01 6.25796E-02 5.71383E-01
 -1       514 1.82538E+01 2.56837E+00 4.45583E-01-9.80366E-01 4.31058E-01 1.19147E+00
 -1       515 2.43743E+01 4.09415E+00 1.79919E+00-1.02465E-01-4.87556E-02 2.10585E+00
 -1       516 1.89846E+01 2.61278E+00 3.70473E-01 1.16586E+00-2.77044E-01 9.74519E-01
 -1       517 1.48364E+01 7.81183E-01 2.02452E-01 7.96685E-01-5.16862E-02 4.12294E-01
 -1       518-2.09097E+01-2.09901E+00-1.95199E+00 8.47247E-01 5.63832E-01-3.74749E+00
 -1       519-2.33928E+01-5.00690E+00-3.18555E+00 5.41371E-02 4.08965E-01-2.66580E+00
 -1       520-2.52293E+01-5.33321E+00-2.18154E+00 1.54496E-01-1.92840E-01-3.15787E+00
 -1       521-2.09819E+01-2.15114E+00-1.99099E+00-1.00393E+00-6.95112E-01-3.78941E+00
 -1       522-1.98210E+01-8.26567E-01 8.08239E-02 1.34239E+00 9.62417E-02-2.06907E+00
 -1       523-2.41472E+01-3.92028E+00-1.77468E+00 3.26368E-01 5.69929E-01-3.25751E+00
 -1       524-2.38924E+01-5.45626E+00-2.49780E+00-7.46552E-02 1.15779E-01-3.07978E+00
 -1       525-2.43961E+01-3.67191E+00-1.72814E+00-2.15588E-01-3.99920E-01-3.24733E+00
 -1       526-1.96433E+01-8.40345E-01-4.43921E-02-1.52602E+00-3.92302E-01-2.22075E+00
 -1       527 1.75913E-03 8.27030E-03 3.15506E-02 1.85045E-03-2.59944E-02-2.76499E-02
 -1       528 4.03194E-03 1.36814E-02 2.09865E-02-1.50483E-03-4.28460E-02-1.66602E-02
 -1       529 1.70964E-03 9.19695E-03 1.26033E-03 1.89142E-03-1.32537E-02-4.07651E-03
 -1       530-6.21153E-03-3.20276E-03-1.63201E-03-2.05709E-03-4.23377E-03-1.16228E-02
 -1       531-4.94784E-03 5.35747E-03 4.14421E-03 2.48277E-04-2.15923E-02-1.73009E-02
 -1       532 4.50973E-03 1.39721E-02 2.22944E-02 1.19042E-03 4.23844E-02-1.62435E-02
 -1       533 2.40391E-03 7.36552E-03 3.10837E-02-1.96839E-03 2.50965E-02-2.71414E-02
 -1       534-5.73692E-03-2.10622E-03-8.77852E-04 2.03878E-03 3.82933E-03-1.12946E-02
 -1       535 1.35293E-03 9.56002E-03 1.71619E-03-1.78905E-03 1.35183E-02-3.68152E-03
 -1       536-4.60574E-03 5.66423E-03 4.35096E-03-1.87895E-04 2.11280E-02-1.72210E-02
 -1       537-2.92777E-02-5.63436E-02-9.37041E-02-1.45647E-03 9.60849E-02-1.90858E-02
 -1       538-2.34889E-02-2.99034E-02-1.31181E-01 2.32646E-03 5.84493E-02-2.38743E-02
 -1       539 1.15895E-02 3.19196E-03 1.16254E-02-4.26980E-03 3.78865E-03-9.27136E-03
 -1       540 1.16985E-03-1.28290E-02 8.91349E-03 3.33754E-04 1.33309E-02-3.23726E-03
 -1       541 1.67841E-02-3.74469E-03 3.35168E-03 9.53424E-04 2.74533E-02-3.07838E-02
 -1       542-2.44236E-02-3.14124E-02-1.37596E-01-2.40063E-03-5.97743E-02-2.47792E-02
 -1       543-2.89414E-02-5.73137E-02-9.31850E-02 8.99129E-04-9.59677E-02-1.85115E-02
 -1       544 1.02795E-03-1.34369E-02 8.03049E-03-1.45149E-04-1.29180E-02-2.66781E-03
 -1       545 1.15534E-02 1.91636E-03 9.79388E-03 3.76364E-03-3.43522E-03-8.87627E-03
 -1       546 1.59134E-02-6.31313E-03-3.36670E-03-1.53263E-03-2.85040E-02-2.87230E-02
 -1       547-8.17807E-03-1.04329E-02-1.90410E-02-2.56548E-04 5.04763E-02-3.74605E-02
 -1       548-1.38095E-02-1.47550E-02-2.60046E-02-9.18871E-04-5.18506E-02-4.05485E-02
 -1       549-1.13383E+00-1.12763E+00-2.77305E+00 1.06617E-02 3.13432E-01-1.13265E-01
 -1       550 6.36930E-01 5.66813E-01 1.34940E+00-1.07329E-02 4.58574E-01 5.33763E-01
 -1       551 1.83278E-01 2.02935E-01 4.03101E-01 1.74690E-02-3.57951E-01 2.24097E-01
 -1       552-8.81314E-01-8.85107E-01-2.23223E+00-4.58914E-04-6.67125E-01-1.49941E-01
 -1       553 5.30374E-02 7.91853E-02 1.16173E-01-1.22636E-03 2.11698E-01 5.21925E-02
 -1       554-4.90650E-01-5.07356E-01-1.22192E+00 1.10555E-02 6.64094E-01-1.08433E-01
 -1       555 2.31529E-02 2.78246E-02 1.61304E-02 6.26258E-03-9.65009E-02 6.09847E-03
 -1       556-8.42187E-02-1.68419E-01-2.30351E-01-1.30313E-02-4.19473E-01-4.62582E-02
 -1       557-2.15463E-02-3.31659E-02-3.52510E-02 3.35967E-03 1.29746E-01-4.50437E-02
 -1       558-4.16833E-03-2.27466E-03-7.55992E-03-9.08341E-04 1.77996E-03-2.80294E-02
 -1       559-1.90013E-02-2.73315E-02-3.60855E-02-1.04396E-03-1.20173E-01-4.32737E-02
 -1       560-3.74277E-03-2.21222E-03-8.30759E-03 1.56812E-04-4.29391E-03-2.94849E-02
 -1       561 5.05431E-03 5.61792E-03 1.33689E-02-9.38241E-05 5.99394E-02-1.50934E-02
 -1       562-2.77025E-02-3.20809E-02-7.11041E-02 2.86696E-03 2.11998E-01-1.91206E-02
 -1       563-3.08518E-02-4.25518E-02-8.17473E-02 4.85005E-04-1.55274E-01-1.75928E-02
 -1       564 5.51100E-03 7.83656E-03 1.94630E-02 1.18050E-05-4.75966E-02-2.30189E-02
 -1       565-5.87285E-02-1.48383E-01-1.52738E-01 1.27363E-02 3.80144E-01-5.08736E-02
 -1       566-1.34859E-01-2.08913E-01-3.17766E-01 3.55318E-02 3.94027E-01-1.58944E-01
 -1       567-4.32564E-01-4.58726E-01-1.12205E+00 2.44590E-02 4.79902E-01-3.87552E-01
 -1       568-1.51236E-01-1.25968E-01-2.94494E-01 2.55203E-02 3.02582E-01-2.10591E-01
 -1       569-2.42672E-01-2.44589E-01-5.41529E-01 7.37192E-03 2.36724E-01-3.53348E-01
 -1       570-7.33049E-02-6.12049E-02-1.41183E-01 1.61005E-02 1.12318E-01-1.43008E-01
 -1       571-6.07735E-02-3.20909E-02-1.08691E-01 1.17138E-02 8.76613E-03-1.61505E-01
 -1       572-5.60528E-03 7.13160E-03-2.32998E-02-2.57346E-03-9.95937E-03-2.47910E-02
 -1       573 1.08529E-01 1.13874E-01 2.49811E-01 1.48219E-03-1.34539E-01 7.23214E-02
 -1       574 4.59398E-02 7.86312E-02 2.33447E-01 2.42866E-02-5.27934E-02-8.53148E-02
 -1       575 3.37244E-01 3.06567E-01 8.48420E-01 2.15111E-02-7.95840E-02 2.08889E-01
 -1       576 1.32591E-01 1.28974E-01 4.05308E-01-2.36409E-02 1.03560E-02-4.13194E-02
 -1       577 3.10900E-01 2.81607E-01 7.73176E-01-7.84939E-03 1.32274E-01 1.98013E-01
 -1       578 6.84393E-02 8.29889E-02 2.02430E-01-4.30116E-03 6.85405E-02-5.21022E-02
 -1       579 1.07191E-01 1.15907E-01 2.70853E-01-3.87488E-03 1.66571E-01 1.14069E-01
 -1       580-5.11122E-02-8.15230E-03-6.69232E-02-2.87398E-02 4.87104E-03-7.59339E-02
 -1       581-2.26814E-01-2.02058E-01-4.68249E-01-1.25643E-02-3.43088E-02-3.38886E-01
 -1       582-1.03642E-02 1.64379E-02-9.51090E-03-6.64220E-03 5.28753E-02 2.59105E-02
 -1       583-3.40585E-02-1.81681E-02-5.78618E-02-5.08610E-03-5.04144E-02-5.61831E-02
 -1       584-1.01258E-01-7.99789E-02-1.92835E-01-1.52250E-02-1.54187E-01-1.84217E-01
 -1       585-1.89826E-02-1.89771E-02-4.42743E-02 2.93549E-06 5.01054E-02-3.93088E-02
 -1       586-1.13951E-02 2.51466E-02-3.21601E-02 1.00528E-02-2.32182E-02 2.96056E-02
 -1       587 3.19297E-01 3.07663E-01 8.01699E-01 1.57459E-02-2.38708E-01 3.05068E-01
 -1       588-1.50828E-02-1.19510E-02-3.18223E-02-3.92469E-04-1.14687E-02-9.27233E-03
 -1       589-4.89058E-02-4.25403E-02-8.09328E-02-1.42935E-02-1.35916E-01-1.02884E-01
 -1       590 8.71078E-02 9.66619E-02 1.72554E-01-9.37939E-03 1.88321E-01 1.53224E-01
 -1       591-1.68389E-01-1.74478E-01-3.73379E-01-1.37716E-02-3.11477E-01-2.23161E-01
 -1       592-1.15640E-02-1.73970E-03-2.63740E-02 4.06643E-03 1.67119E-02-9.31851E-03
 -1       593-3.78876E-01-3.65839E-01-8.30795E-01-1.89857E-02-3.38346E-01-4.18182E-01
 -1       594-4.05564E-02-4.66167E-02-9.80480E-02 1.15396E-03 1.88429E-01-8.95825E-02
 -1       595-6.91921E-01-6.92182E-01-1.70919E+00 1.17122E-02 3.03283E-01-4.68128E-01
 -1       596-3.33016E-01-3.84843E-01-8.71859E-01-2.49090E-02-5.29957E-01-2.82250E-01
 -1       597 1.76416E-03 1.42054E-02-2.22600E-02 5.65549E-03-3.54350E-02 8.37258E-03
 -1       598 3.57011E-02 6.28852E-02 5.45822E-02 1.34704E-02-1.41687E-01 1.00711E-01
 -1       599 1.32064E-02 2.41143E-02 2.88041E-02-4.05822E-03 9.44003E-02-2.13447E-03
 -1       600 4.17495E-03 1.43360E-02-1.10317E-02-8.29781E-03 7.54630E-02 9.92918E-03
 -1       601-3.80138E-02-4.60142E-02-7.32002E-02-6.37373E-03-1.79164E-01-8.82694E-02
 -1       602-1.70480E-02-1.55765E-02-3.27485E-02-5.17490E-03-5.74996E-02-4.16033E-02
 -1       603-7.10749E-03-5.68520E-03-1.70427E-02 3.84752E-04-2.08041E-02-2.38241E-02
 -1       604-3.52492E-02-3.16613E-02-7.61629E-02 5.22081E-03 1.31928E-01-1.00567E-01
 -1       605 4.60769E-02 8.96382E-02 7.42832E-02 1.78049E-02-1.87827E-01 6.16973E-02
 -1       606-9.11331E-01-9.14236E-01-2.28384E+00-4.45256E-03 6.13802E-01-1.87470E-01
 -1       607-7.24468E-01-7.29640E-01-1.86965E+00 1.94170E-02 1.08726E-01-4.13125E-01
 -1       608-1.18288E+00-1.17816E+00-2.84640E+00-1.09084E-02 1.29567E-02-6.32747E-02
 -1       609-7.08398E-01-7.33121E-01-1.76597E+00-2.96555E-03-7.92366E-02-4.21437E-01
 -1       610-1.09684E+00-1.08106E+00-2.63261E+00-6.43151E-03-3.38180E-01-1.94582E-01
 -1       611-2.91763E-01-2.58139E-01-6.24813E-01 4.33938E-02 8.71537E-02-3.65622E-01
 -1       612 2.17599E-01 2.57839E-01 5.09922E-01 1.55712E-03 4.27450E-01 2.21268E-01
 -1       613 5.94287E-01 5.54076E-01 1.38366E+00 3.25006E-02-4.16952E-01 5.30992E-01
 -1       614 8.55099E-01 8.37378E-01 1.88471E+00 2.21707E-03 1.52880E-02 7.32989E-01
 -1       615 6.07547E-01 5.27396E-01 1.46280E+00-3.24689E-02 1.96858E-01 5.19724E-01
 -1       616-1.86630E-01-1.43374E-01-3.58962E-01-3.48334E-02-1.14696E-01-2.90541E-01
 -1       617-6.98706E-03-8.15135E-03-1.61640E-02-5.03942E-05 2.08722E-02-3.42100E-02
 -1       618-1.75566E-02-2.52784E-02-3.02974E-02 3.47767E-03 8.96727E-02-4.62587E-02
 -1       619 6.55241E-02 1.05216E-01 1.52992E-01 1.83959E-02-1.42373E-01 1.32339E-01
 -1       620-1.65797E-02-2.46478E-02-3.05304E-02-2.04015E-03-8.78240E-02-4.65434E-02
 -1       621-5.62087E-01-5.46822E-01-1.25156E+00-1.03223E-02-2.25241E-01-4.95701E-01
 -1       622-1.66000E-02-1.60365E-02-3.05944E-02 2.44393E-03 6.26868E-02-4.15645E-02
 -1       623 2.30968E-01 2.49464E-01 5.37000E-01 1.53438E-02-3.19517E-01 2.86803E-01
 -1       624 5.87366E-01 5.32632E-01 1.36722E+00 2.17543E-02-1.75543E-01 5.01398E-01
 -1       625-2.34934E-02-4.16910E-02-4.85724E-02-3.12838E-03-1.57567E-01-3.57746E-02
 -1       626-3.38666E-02-4.80485E-02-8.10761E-02-6.03413E-03-2.21960E-01-6.25474E-02
 -1       627 1.81434E-03 5.21625E-03 5.52127E-03 8.24306E-04-2.94700E-02-2.52998E-02
 -1       628-1.58824E-04 1.11487E-03 4.02815E-04 1.04447E-03-2.96523E-02-1.45596E-02
 -1       629 3.89138E-03 7.03247E-03 6.98127E-03-7.10755E-04 2.98551E-02-2.53249E-02
 -1       630-1.96455E-02-2.95620E-02-3.56598E-02 1.27178E-03 1.43911E-01-3.12930E-02
 -1       631-2.44194E-01-2.31784E-01-5.28491E-01 4.80375E-04 1.32202E-02-3.70435E-01
 -1       632 2.00584E-03 4.38974E-03-1.04050E-02-4.55969E-03 2.53257E-02-1.51103E-02
 -1       633-3.93333E-02-4.75160E-02-1.04850E-01 8.06447E-04 2.21326E-01-5.74330E-02
 -1       634 5.04409E-01 5.07872E-01 1.18651E+00-5.59118E-04 1.58048E-02 3.87723E-01
 -1       635-7.77142E-03-9.63422E-03-1.75018E-02 9.65510E-04-2.59598E-02-3.47991E-02
 -1       636-3.15807E-03 7.67870E-03-1.87846E-02-3.25937E-03 5.62383E-02 3.43226E-02
 -1       637 3.31590E-01 3.16394E-01 8.10635E-01-1.06003E-02 2.66277E-01 3.12776E-01
 -1       638 6.55085E-03 8.40363E-03 1.97861E-02-1.41548E-04 4.81033E-02-2.20691E-02
 -1       639-2.94738E-02-4.15576E-02-8.37575E-02 1.92034E-03 1.54026E-01-1.54773E-02
 -1       640-1.92386E-02-2.09803E-02-3.33894E-02-2.97049E-03-8.50577E-02-5.09273E-02
 -1       641-3.37371E-02-3.75564E-02-8.55368E-02-2.05083E-03-2.26100E-01-2.03628E-02
 -1       642 5.42984E-03 5.90126E-03 1.63618E-02 6.78852E-04-6.20408E-02-1.31320E-02
 -1       643-9.67805E-02-1.33478E-01-2.43198E-01-1.09707E-02-3.28438E-01-1.37771E-01
 -1       644 2.44829E-01 2.46327E-01 5.46363E-01-4.82844E-03 3.35647E-01 2.93246E-01
 -1       645-4.88256E-01-5.17614E-01-1.25618E+00-1.53476E-02-7.05349E-01-2.97292E-02
 -1       646-2.60329E-02-2.67586E-02-3.03696E-02 8.07392E-03 9.88123E-02-5.53350E-02
 -1       647-5.88920E-03-5.90235E-03-1.37415E-02 1.34567E-05 3.43095E-03-1.81679E-02
 -1       648 5.44992E-02 6.06254E-02 8.21912E-02-1.93625E-02 1.85029E-01 9.67277E-02
 -1       649 1.53271E-02 1.79985E-02 3.92239E-02 5.05520E-06-3.67542E-02-3.13730E-02
 -1       650-5.11950E-02-6.00951E-02-1.23847E-01-3.66949E-03-1.39306E-01-3.06003E-02
 -1       651 4.15307E-03-2.34779E-03-1.95152E-02-5.49330E-03 1.52248E-02-6.30157E-03
 -1       652-6.88392E-01-6.93192E-01-1.75770E+00-1.84970E-02-4.40363E-01-4.09460E-01
 -1       653-1.09260E-02-1.01495E-02-1.88915E-02-2.02072E-03-4.27978E-02-3.50619E-02
 -1       654-1.03435E-02-9.08845E-03-2.04206E-02 1.08303E-03 3.08289E-02-2.84908E-02
 -1       655 2.78911E-02 2.82947E-02 6.36965E-02 5.53671E-05-4.60122E-02-3.05972E-02
 -1       656 1.61011E-02 1.78137E-02 4.14631E-02-3.19137E-04-5.17397E-02-2.44694E-02
 -1       657 1.75340E-02 1.76926E-02 4.07985E-02-2.50106E-06-2.60015E-02-3.96629E-02
 -1       658 2.95550E-02 3.15666E-02 7.46422E-02-9.15446E-04-4.05985E-02-3.38029E-02
 -1       659 1.42094E-02 1.45218E-02 3.16676E-02 2.94313E-04-4.21777E-02-2.72415E-02
 -1       660 1.51758E-04-6.25438E-04 3.04661E-03 5.26666E-05-5.48799E-02-1.73483E-02
 -1       661 1.64588E-03 1.78066E-03 4.06006E-03 6.82990E-05-6.29090E-02-1.21514E-02
 -1       662 4.22381E-03 5.70681E-03 1.65359E-02 1.66067E-03-8.13225E-02-5.13174E-03
 -1       663 3.83750E-03 5.29803E-03 1.41378E-02-2.97754E-04-5.54715E-02-1.79222E-02
 -1       664-7.35718E-04-1.35845E-03 1.28813E-03-3.62233E-04 5.48093E-02-1.78704E-02
 -1       665 1.63775E-02 1.78234E-02 4.20665E-02 1.32535E-04 5.17762E-02-2.39616E-02
 -1       666 9.10860E-03 9.20725E-03 2.14081E-02-7.40245E-05 8.26719E-02-4.87271E-03
 -1       667 2.39197E-04 3.62735E-04 7.22909E-04-6.70063E-05 6.11336E-02-1.42859E-02
 -1       668 3.68753E-03 4.08963E-03 1.12801E-02 6.47020E-04 5.48009E-02-1.88585E-02
 -1       669 2.66405E-02 2.82314E-02 6.55431E-02-5.57034E-04 4.62710E-02-3.04481E-02
 -1       670 2.03258E-02 2.04843E-02 4.72946E-02-1.26743E-05 3.47461E-02-3.24954E-02
 -1       671 1.01792E-02 1.02861E-02 2.36391E-02-1.62034E-05 2.09154E-02-3.60225E-02
 -1       672 8.65152E-03 1.19476E-02 1.63096E-02-3.87396E-04 3.93630E-02-2.38373E-02
 -1       673-2.42629E-02-2.61117E-02-5.86471E-02 1.80455E-03 1.60233E-01-3.44674E-03
 -1       674-7.43700E-02-7.78427E-02-1.84524E-01-2.89064E-04 1.52939E-01-7.85850E-03
 -1       675-3.34963E-02-3.38411E-02-7.80719E-02 4.46908E-04 2.71883E-01 2.89375E-03
 -1       676-1.98645E-02-2.01361E-02-4.62360E-02 4.64685E-04 1.95048E-01-6.51198E-03
 -1       677-2.62137E-02-3.03313E-02-6.86564E-02 1.11179E-03 1.86434E-01-1.77015E-02
 -1       678-9.53615E-02-9.97440E-02-2.39437E-01 2.24835E-03 1.52194E-01-2.28811E-02
 -1       679-7.86922E-02-7.88452E-02-1.83609E-01-4.89832E-06 1.37766E-01-3.09643E-02
 -1       680-6.87958E-02-6.88709E-02-1.60494E-01-9.98124E-06 1.27010E-01-3.78146E-02
 -1       681-2.95515E-02-4.04302E-02-5.83795E-02 1.18227E-03 1.50066E-01-2.48993E-02
 -1       682-1.00327E-01-1.00291E-01-2.33493E-01 9.12987E-05-1.50322E-01-2.09690E-02
 -1       683-7.18196E-02-7.55509E-02-1.77819E-01 4.75467E-04-1.50112E-01-1.00118E-02
 -1       684-1.07590E-01-1.07622E-01-2.51063E-01 2.95892E-05-1.39320E-01-3.81890E-02
 -1       685-1.16498E-01-1.18533E-01-2.82128E-01 1.87015E-03-1.47388E-01-2.28233E-02
 -1       686-4.43766E-02-5.09179E-02-1.01173E-01 3.81360E-04-1.48569E-01-2.41737E-02
 -1       687-2.47583E-02-2.70552E-02-5.94043E-02-2.18336E-03-1.57944E-01-4.76497E-03
 -1       688-2.22348E-02-2.25414E-02-5.17346E-02-4.66929E-04-1.99959E-01-7.57745E-03
 -1       689-3.82483E-02-3.85850E-02-8.91960E-02-4.26762E-04-2.78271E-01 3.72081E-03
 -1       690-2.98173E-02-3.28791E-02-7.64067E-02 4.87614E-05-1.94211E-01-1.99274E-02
 -1       691-2.29371E-03-3.11596E-03-1.09046E-02-9.30320E-04 3.18466E-03-3.88135E-02
 -1       692 4.15447E-03 5.34231E-03 1.13351E-02 1.55100E-04-9.56385E-03-3.85927E-02
 -1       693-1.20281E-03 4.20758E-05-4.12831E-03 3.13348E-04-1.63209E-02-2.80096E-02
 -1       694 9.84241E-03 9.95030E-03 2.28888E-02 1.84899E-05-2.10629E-02-3.62634E-02
 -1       695 7.48510E-03 1.06014E-02 2.06766E-02 4.16270E-04-3.23076E-02-2.78060E-02
 -1       696-1.35798E-02-1.46838E-02-3.94391E-02-1.38036E-03 2.70932E-02-4.13107E-02
 -1       697-1.06520E-02-9.19521E-03-2.08833E-02-7.68783E-05 1.55379E-02-4.18775E-02
 -1       698-4.52009E-03-4.51477E-03-1.05240E-02 1.83315E-05 8.17310E-03-3.23671E-02
 -1       699-3.18238E-02-3.18247E-02-7.42534E-02 7.59172E-07 5.54274E-02-4.79352E-02
 -1       700-2.21221E-02-1.95300E-02-4.60016E-02 3.89060E-04 4.21799E-02-4.64496E-02
 -1       701-1.11474E-02-1.11442E-02-2.60067E-02 5.30854E-06 3.57017E-02-3.65315E-02
 -1       702-5.05136E-02-5.05285E-02-1.17847E-01 3.21281E-06 8.98763E-02-5.22643E-02
 -1       703-4.49316E-02-4.05498E-02-1.01308E-01 1.69237E-03 7.46994E-02-5.28017E-02
 -1       704-1.28567E-02-1.62176E-02-2.54000E-02 1.71628E-03 6.64264E-02-4.21911E-02
 -1       705-6.53654E-02-6.64621E-02-1.56472E-01-4.52659E-04 1.22870E-01-4.58204E-02
 -1       706-5.58068E-02-5.45640E-02-1.31876E-01 1.21824E-03 1.06895E-01-5.26371E-02
 -1       707-2.11050E-02-3.03594E-02-3.99331E-02 1.17389E-03 1.09046E-01-4.65387E-02
 -1       708-1.98874E-02-3.19938E-02-3.37498E-02 1.66020E-03 1.41133E-01-3.99775E-02
 -1       709-9.20639E-02-1.32087E-01-2.13051E-01-4.48494E-03-3.84862E-01 1.02570E-02
 -1       710-1.89744E-01-2.19208E-01-3.94790E-01 1.22403E-02-5.52816E-01 6.51772E-02
 -1       711-4.30074E-02-5.59956E-02-1.25956E-01-8.94890E-03-2.91075E-01-2.95110E-02
 -1       712-4.29954E-01-4.30033E-01-1.00348E+00-1.08549E-04-6.99409E-01 1.15229E-01
 -1       713-6.67621E-01-7.24121E-01-1.80639E+00-5.06359E-02-7.83461E-01 1.06776E-01
 -1       714-2.25959E-01-2.46595E-01-5.97325E-01-3.51562E-03-6.08345E-01-4.12690E-02
 -1       715-8.74411E-01-9.09874E-01-2.21551E+00 6.20174E-02-7.58935E-01 1.07433E-01
 -1       716-1.02608E+00-1.13753E+00-2.81943E+00-8.05290E-02-6.40071E-01 1.70827E-01
 -1       717-7.67330E-01-7.67326E-01-1.79031E+00-4.13445E-06-7.07605E-01-1.19400E-01
 -1       718-1.23918E+00-1.25942E+00-3.05812E+00 6.78123E-02-4.76820E-01 1.49086E-01
 -1       719-1.26449E+00-1.35205E+00-3.29014E+00-8.18565E-02-2.76056E-01 2.12659E-01
 -1       720-1.06434E+00-1.06430E+00-2.48342E+00 8.93021E-06-5.06991E-01-1.85390E-01
 -1       721-1.35676E+00-1.41323E+00-3.42466E+00 7.05319E-02-1.12922E-01 3.00348E-01
 -1       722-1.34995E+00-1.41984E+00-3.42956E+00-8.38283E-02 1.23761E-01 2.86470E-01
 -1       723-1.20034E+00-1.20032E+00-2.80073E+00 3.86570E-06-1.65935E-01-1.38292E-01
 -1       724-1.31288E+00-1.38951E+00-3.39325E+00 8.68286E-02 2.65838E-01 2.62583E-01
 -1       725-1.24659E+00-1.29114E+00-3.14561E+00-6.92340E-02 4.69508E-01 2.07758E-01
 -1       726-1.22006E+00-1.22003E+00-2.84673E+00-3.72319E-06 1.61612E-01-1.20491E-01
 -1       727-1.07264E+00-1.14885E+00-2.85295E+00 8.94066E-02 6.15888E-01 1.52430E-01
 -1       728-8.87877E-01-9.43976E-01-2.26631E+00-5.41642E-02 7.32306E-01 6.76649E-02
 -1       729-1.10921E+00-1.10918E+00-2.58812E+00-1.02829E-05 4.74708E-01-1.51550E-01
 -1       730-6.81298E-01-7.07300E-01-1.79668E+00 5.45600E-02 7.57669E-01 5.31760E-02
 -1       731-4.28280E-01-4.28368E-01-9.99448E-01 9.60930E-05 6.80986E-01 6.90964E-02
 -1       732-7.67932E-01-7.67917E-01-1.79177E+00 5.78423E-06 6.55957E-01-1.80037E-01
 -1       733-1.65567E-01-1.75779E-01-3.38430E-01-1.26402E-02 5.30386E-01 5.43364E-02
 -1       734-8.98055E-02-1.27389E-01-1.86516E-01 6.09585E-03 3.74898E-01 4.84035E-03
 -1       735-2.00346E-01-2.08219E-01-4.94970E-01-3.90919E-03 5.73115E-01-6.97494E-02
 -1       736-3.43347E-02-4.68347E-02-9.92276E-02 1.18395E-02 2.68954E-01-2.75069E-02
 -1       737 3.90431E-03 5.03801E-03 1.17758E-02 1.03287E-04 8.83662E-03-3.83929E-02
 -1       738-7.41299E-03-8.28659E-03-1.73201E-02-5.68633E-04-7.11106E-03-4.14526E-02
 -1       739-7.03269E-04 6.78935E-04-2.96571E-03-1.41203E-04 1.65312E-02-2.65887E-02
 -1       740-1.20289E-02-1.20145E-02-2.80818E-02-5.58069E-07-1.97313E-02-4.38406E-02
 -1       741-2.48519E-02-2.44901E-02-5.85757E-02 3.25528E-04-3.24536E-02-4.59689E-02
 -1       742-4.65723E-03-5.67581E-03-1.04748E-02 6.64971E-04-1.49142E-02-3.22595E-02
 -1       743-2.83132E-02-2.83106E-02-6.60668E-02 3.90743E-07-4.43829E-02-4.75604E-02
 -1       744-4.45686E-02-4.41010E-02-1.02122E-01-2.29000E-04-5.99632E-02-5.01737E-02
 -1       745-9.79440E-03-1.14290E-02-2.12053E-02 1.77797E-04-3.88756E-02-3.73078E-02
 -1       746-4.24129E-02-4.24244E-02-9.89537E-02-7.89706E-07-7.30242E-02-5.09391E-02
 -1       747-5.15372E-02-5.15527E-02-1.20233E-01-2.69555E-06-8.66257E-02-5.13217E-02
 -1       748-1.20208E-02-1.51582E-02-2.52591E-02-4.55403E-04-6.83863E-02-4.36873E-02
 -1       749-5.78528E-02-5.61466E-02-1.36085E-01-1.40201E-03-1.04336E-01-5.23922E-02
 -1       750-6.31088E-02-6.31728E-02-1.47215E-01-6.04936E-07-1.17146E-01-4.66704E-02
 -1       751-2.10521E-02-2.97755E-02-4.05522E-02-1.31255E-03-1.03771E-01-4.57714E-02
 -1       752-2.43680E-02-3.61079E-02-4.44738E-02-1.79011E-03-1.37618E-01-4.27479E-02
 -1       753-6.67793E-02-6.82827E-02-1.64031E-01-1.41219E-03-1.32217E-01-4.16190E-02
 -1       754-3.25936E-02-4.12625E-02-6.34662E-02-6.31963E-03-1.46007E-01-3.31246E-02
 -1       755 2.90883E-02 3.86152E-02 8.10432E-02-2.12540E-03 1.50821E-01 2.20659E-02
 -1       756 1.91738E-02 2.61538E-02 4.22971E-02-7.30677E-04 1.04377E-01 3.80894E-03
 -1       757 6.44699E-03 7.85975E-03 1.64287E-02-1.86124E-03 7.31213E-02-8.34465E-03
 -1       758 1.20119E-01 1.36121E-01 3.24290E-01-9.73536E-03 3.22918E-01 1.16654E-01
 -1       759 6.16141E-02 8.80293E-02 1.50842E-01 1.24118E-03 2.22738E-01 5.26864E-02
 -1       760 2.31454E-02 2.31906E-02 5.39668E-02 2.57976E-05 1.40776E-01 2.41554E-02
 -1       761 4.42071E-01 4.55362E-01 1.16820E+00-3.44934E-02 5.70695E-01 3.63241E-01
 -1       762 2.32973E-01 2.90727E-01 5.90464E-01 7.73260E-03 4.67700E-01 2.12189E-01
 -1       763 1.24683E-01 1.24719E-01 2.90922E-01 1.32260E-05 3.08434E-01 1.34349E-01
 -1       764 1.07045E+00 1.07045E+00 2.49771E+00-9.47855E-06 5.05471E-01 8.01062E-01
 -1       765 6.78338E-01 7.38417E-01 1.63478E+00 1.07822E-02 6.50439E-01 5.32370E-01
 -1       766 4.53474E-01 4.53465E-01 1.05811E+00 1.82124E-05 4.75035E-01 3.66108E-01
 -1       767 1.28474E+00 1.28793E+00 3.03455E+00-9.65735E-03-2.15114E-01 1.01075E+00
 -1       768 1.27015E+00 1.27105E+00 3.01632E+00 1.39301E-02 2.29109E-01 1.00082E+00
 -1       769 7.31831E-01 7.13443E-01 1.64509E+00-8.36495E-03 2.19812E-01 6.11676E-01
 -1       770 8.41097E-01 9.09894E-01 1.98487E+00-5.04582E-03-6.33485E-01 6.31324E-01
 -1       771 1.08680E+00 1.08680E+00 2.53587E+00 9.11768E-06-4.88170E-01 8.21505E-01
 -1       772 7.32574E-01 7.29437E-01 1.69884E+00 3.74679E-04-2.04319E-01 6.14593E-01
 -1       773 2.46727E-01 2.86083E-01 6.05158E-01-6.94692E-03-4.49276E-01 2.17790E-01
 -1       774 5.03237E-01 5.37089E-01 1.21781E+00 1.08368E-02-5.87370E-01 3.93864E-01
 -1       775 3.68030E-01 3.67273E-01 8.56190E-01 1.07065E-03-4.47875E-01 3.73497E-01
 -1       776 7.26510E-02 7.27233E-02 1.69691E-01 3.59596E-05-2.26325E-01 7.26626E-02
 -1       777 1.30738E-01 1.39630E-01 3.57973E-01 1.38843E-02-3.36339E-01 1.35016E-01
 -1       778 1.32490E-01 1.32524E-01 3.09138E-01-1.71437E-05-3.02817E-01 1.48191E-01
 -1       779 1.60784E-02 2.60904E-02 3.10146E-02 2.17558E-03-1.03660E-01 5.00436E-03
 -1       780 5.30245E-02 6.49447E-02 1.12476E-01-3.20929E-03-1.66946E-01 3.61200E-02
 -1       781 1.28723E-02 1.03884E-02 1.91068E-02 2.46049E-02-1.34664E-01 3.23703E-02
 -1       782 5.31566E-03 5.36367E-03 1.22855E-02-7.40525E-05-7.32878E-02-1.76739E-03
 -1       783-1.06542E-02-1.06513E-02-2.48515E-02 5.78805E-06 4.17490E-02-3.41260E-02
 -1       784-9.08571E-03-8.05490E-03-1.96595E-02 4.43094E-04 2.53745E-02-3.15084E-02
 -1       785-1.90247E-02-2.06764E-02-2.58383E-02 5.95564E-03 9.47825E-02-5.19563E-02
 -1       786-7.83753E-03-7.83494E-03-1.82803E-02 3.88977E-06 6.43070E-02-4.17248E-02
 -1       787-9.85728E-03-9.85398E-03-2.29907E-02 5.13620E-06 5.47140E-02-3.70518E-02
 -1       788-1.98810E-02-2.41451E-02-3.23221E-02 3.98676E-03 7.81846E-02-4.69667E-02
 -1       789-8.30647E-03-8.30502E-03-1.93691E-02 6.23440E-06 4.54516E-02-3.19662E-02
 -1       790-1.18197E-02-1.18144E-02-2.75719E-02-4.74209E-06-6.63784E-02-4.37269E-02
 -1       791-1.72134E-02-1.91710E-02-3.27267E-02-2.49421E-03-8.82734E-02-4.95271E-02
 -1       792-9.27167E-03-7.64948E-03-1.98008E-02-1.67185E-04-3.27627E-02-3.46694E-02
 -1       793-1.14652E-02-1.14596E-02-2.67444E-02-4.89471E-06-4.85757E-02-3.77696E-02
 -1       794-9.57378E-03-9.56925E-03-2.23272E-02-5.47810E-06-6.20504E-02-4.06512E-02
 -1       795-9.06680E-01-8.94452E-01-2.18797E+00 1.92661E-02 3.16631E-01-3.01073E-01
 -1       796-8.53331E-01-8.29639E-01-2.05317E+00-1.70019E-02 4.60670E-01-3.17814E-01
 -1       797-9.67946E-01-9.67937E-01-2.25852E+00-6.44675E-06 2.00375E-01-2.80575E-01
 -1       798-7.60291E-01-7.60029E-01-1.77576E+00-8.21983E-03 2.25023E-01-4.30243E-01
 -1       799-9.88031E-01-9.88023E-01-2.30538E+00-2.11289E-06 6.70445E-02-2.56736E-01
 -1       800 4.65577E-01 4.65562E-01 1.08635E+00 1.61822E-05 4.24085E-01 4.08363E-01
 -1       801 2.35814E-01 2.35815E-01 5.50229E-01 1.72149E-05 4.01404E-01 2.51713E-01
 -1       802 7.26942E-01 7.26977E-01 1.69611E+00 2.00219E-05 8.93710E-02 5.48560E-01
 -1       803 6.61267E-01 5.92345E-01 1.54243E+00 2.25984E-03 3.44014E-01 5.37554E-01
 -1       804 5.06495E-01 5.11551E-01 1.19118E+00-1.15050E-02 3.30732E-01 4.40570E-01
 -1       805 1.28089E-01 1.28115E-01 2.98862E-01-1.75623E-05-2.76801E-01 1.71052E-01
 -1       806 3.34203E-02 3.34423E-02 7.79573E-02-1.56733E-05-1.94954E-01 8.09061E-02
 -1       807 1.19985E-01 1.25453E-01 3.00673E-01 4.16322E-03-2.35485E-01 2.03570E-01
 -1       808 2.33937E-01 2.33956E-01 5.45848E-01-1.82982E-05-3.50380E-01 2.77617E-01
 -1       809 3.80673E-01 3.75800E-01 9.24637E-01 9.92366E-03-4.01113E-01 3.97137E-01
 -1       810-7.06946E-01-7.06931E-01-1.64948E+00-8.19918E-06-6.25678E-01-2.25705E-01
 -1       811-4.65399E-01-4.65413E-01-1.08582E+00-1.76376E-06-6.23155E-01-1.61686E-01
 -1       812-6.16071E-01-6.16050E-01-1.43749E+00-1.39128E-05-5.34988E-01-3.25639E-01
 -1       813-8.38449E-01-7.94069E-01-1.99378E+00-4.03821E-04-5.62368E-01-2.87702E-01
 -1       814-9.24997E-01-9.24971E-01-2.15831E+00 9.60003E-06-4.19709E-01-3.05461E-01
 -1       815 1.57808E-02 3.73525E-02 4.45101E-02-7.90714E-04 1.45645E-01 2.57632E-02
 -1       816 5.70149E-03 5.71313E-03 1.32438E-02 2.93305E-05 9.05260E-02 6.22023E-03
 -1       817 5.07234E-02 5.07481E-02 1.18341E-01 1.35379E-05 2.10734E-01 7.68506E-02
 -1       818 3.33083E-02 2.40001E-02 4.64561E-02-2.92341E-03 1.39907E-01 5.42291E-02
 -1       819 9.22564E-02 1.40863E-01 2.48803E-01-3.87390E-03 3.09477E-01 1.36293E-01
 -1       820-2.96534E-01-2.96539E-01-6.91826E-01 1.54102E-05 5.60839E-01-1.55757E-01
 -1       821-1.17345E-01-1.78308E-01-2.19379E-01 1.53535E-02 3.88298E-01-9.59504E-02
 -1       822-4.86115E-01-4.86103E-01-1.13422E+00 1.36566E-05 5.73080E-01-2.40939E-01
 -1       823-2.75405E-01-2.75403E-01-6.42611E-01 1.95547E-05 4.73300E-01-2.71014E-01
 -1       824-7.46839E-01-7.46816E-01-1.74260E+00 7.33413E-06 5.68436E-01-2.95291E-01
 -1       825-4.60722E-03 4.59275E-03-8.71221E-03-2.98547E-03-6.55710E-02 1.48822E-02
 -1       826-4.18056E-03 4.50508E-02 2.41296E-03-1.00110E-04-1.07270E-01 3.14053E-02
 -1       827 2.55577E-03 2.49906E-03 5.80701E-03-6.00594E-05-5.92179E-02-1.61193E-03
 -1       828-3.83474E-03-2.70078E-05-6.32044E-03 2.80931E-03-2.98866E-02-6.03953E-03
 -1       829 4.21269E-03 4.07824E-03 9.71149E-03-5.56614E-05-4.73423E-02-1.36422E-02
 -1       830-2.23722E-01-2.47206E-01-4.98599E-01-1.79158E-02-4.88141E-01-1.48957E-01
 -1       831-1.27623E-01-1.27699E-01-2.97852E-01-5.61586E-06-3.78658E-01-1.09283E-01
 -1       832-2.10753E-01-2.10849E-01-4.91851E-01-8.06848E-06-4.19854E-01-1.82129E-01
 -1       833-6.65591E-02-1.00136E-01-1.68873E-01 5.59558E-03-3.12061E-01-5.83905E-02
 -1       834-3.45210E-02-3.46903E-02-8.05679E-02 1.72032E-04-2.20208E-01-3.89159E-02
 -1       835-8.40741E-02-8.33020E-02-1.50194E-01-1.89292E-02-2.70489E-01-1.01015E-01
 -1       836-2.95908E-02-2.95964E-02-6.91718E-02-1.22218E-05 1.60089E-01-6.64565E-02
 -1       837-2.71447E-02-2.71433E-02-6.34013E-02-2.44393E-06 1.40741E-01-6.63462E-02
 -1       838-2.86063E-02-3.30212E-02-7.70808E-02 6.90383E-04 1.80296E-01-5.35008E-02
 -1       839-4.49679E-02-4.49893E-02-1.05075E-01-1.47308E-05 2.03793E-01-7.48762E-02
 -1       840-3.29338E-02-3.29551E-02-7.72851E-02-1.69020E-04 1.84440E-01-4.08196E-02
 -1       841-6.14594E-03-3.26631E-03-1.32588E-02-5.30821E-04-9.94020E-03-2.59815E-02
 -1       842-3.07837E-03-6.07720E-03-1.10212E-02-7.46418E-04 1.16314E-02-2.21617E-02
 -1       843-8.30557E-03-8.31765E-03-1.93739E-02-3.71516E-06 1.91204E-03-1.69034E-02
 -1       844-7.02875E-03-7.02592E-03-1.63932E-02-1.79164E-05-2.42937E-02-2.99950E-02
 -1       845 1.37146E-04-2.95721E-05 3.39291E-04 1.41611E-06 3.10496E-02-1.96757E-02
 -1       846-2.72965E-02-2.73072E-02-6.38661E-02 1.51837E-05-1.53918E-01-6.60834E-02
 -1       847-2.11672E-02-1.79850E-02-4.83727E-02-1.82586E-03-1.32409E-01-6.73595E-02
 -1       848-3.37459E-02-3.37850E-02-7.89520E-02 2.11597E-05-1.95133E-01-7.44861E-02
 -1       849-2.64802E-02-2.64606E-02-6.19904E-02 1.45318E-05-1.69671E-01-5.61500E-02
 -1       850-1.92808E-02-2.57392E-02-6.36667E-02 3.90788E-04-1.90876E-01-4.97038E-02
 -1       851-6.36430E-03-6.36749E-03-1.48369E-02 1.51503E-05 1.22951E-02-2.61785E-02
 -1       852-4.04329E-03-4.05349E-03-9.42993E-03 1.79529E-05-6.90601E-04-2.43573E-02
 -1       853-1.87306E-03-1.89592E-03-4.36276E-03 2.47374E-05-1.49583E-02-2.29017E-02
 -1       854 6.60085E-04 1.91511E-03 3.02792E-03 8.94848E-04-3.02944E-02-2.03062E-02
 -1       855-3.71145E-03-3.73036E-03-8.67186E-03 1.54482E-05-1.08318E-02-1.67148E-02
 -1       856 2.43293E-03 1.23918E-02 7.74210E-03-3.88980E-04 6.20701E-02-1.00765E-02
 -1       857 1.07137E-03 9.46702E-04 2.41260E-03 4.76588E-05 4.50567E-02-1.49154E-02
 -1       858 5.07333E-03 4.83571E-03 1.16842E-02 5.27600E-05 4.56480E-02-2.03638E-02
 -1       859-3.72760E-02-6.15235E-02-1.21335E-01 3.95781E-03 2.68594E-01-5.91615E-02
 -1       860-3.40756E-02-3.42520E-02-7.96463E-02-2.08691E-04 2.09480E-01-3.57089E-02
 -1       861-2.76283E-02-2.77564E-02-6.46750E-02-3.08909E-04 1.79352E-01-2.65903E-02
 -1       862-2.68255E-02-2.69829E-02-6.30263E-02 3.08571E-04-1.65661E-01-2.79072E-02
 -1       863-3.10524E-02-3.12272E-02-7.25715E-02 2.52234E-04-1.92604E-01-2.93960E-02
 -1       864 6.97879E-03 8.07496E-03 1.35438E-02 5.74813E-04-3.93959E-02-2.40652E-02
 -1       865 5.88802E-03 5.64394E-03 1.36084E-02-5.38947E-05-4.65419E-02-1.92044E-02
 -1       866-6.27141E-02-6.27635E-02-1.46490E-01-2.02127E-05 2.63548E-01-9.00403E-02
 -1       867-2.42230E-01-2.16611E-01-5.80758E-01 6.72765E-03 3.92897E-01-3.16675E-01
 -1       868-1.66601E-01-1.92421E-01-3.09306E-01 2.24123E-02 3.46906E-01-2.00914E-01
 -1       869-7.70934E-02-7.70952E-02-1.79929E-01 7.60984E-07 2.33873E-01-1.40613E-01
 -1       870-5.42920E-02-7.69439E-02-1.61714E-01 4.04318E-03 2.57836E-01-1.16746E-01
 -1       871-4.01372E-01-4.04817E-01-9.00202E-01 1.06664E-02 3.48521E-01-4.03123E-01
 -1       872-1.94797E-01-1.94782E-01-4.54561E-01 3.15074E-06 2.57661E-01-2.81168E-01
 -1       873-6.16198E-01-6.57554E-01-1.57101E+00 1.62097E-02 4.08438E-01-4.42438E-01
 -1       874-4.89467E-01-4.89460E-01-1.14211E+00-1.13519E-06 2.80433E-01-4.29413E-01
 -1       875-1.46106E-01-1.46092E-01-3.40925E-01 3.47146E-06 1.72718E-01-2.41820E-01
 -1       876-1.06385E-01-1.06371E-01-2.48237E-01 6.82841E-06 2.04038E-01-1.87632E-01
 -1       877-6.63755E-02-5.14797E-02-9.94746E-02 7.36826E-03 1.22154E-01-1.14308E-01
 -1       878-6.94044E-02-8.39272E-02-1.85165E-01 3.93051E-03 2.13763E-01-1.50738E-01
 -1       879-4.02445E-02-4.02424E-02-9.39417E-02 1.53849E-06 1.67198E-01-9.96501E-02
 -1       880-1.23223E-01-1.22209E-01-2.68821E-01 5.85644E-03 1.34097E-01-2.66592E-01
 -1       881-7.31293E-02-7.79725E-02-1.76040E-01 1.36005E-02 6.56085E-02-1.65889E-01
 -1       882-2.63921E-01-2.63914E-01-6.15829E-01 5.47702E-07 1.78743E-01-3.65815E-01
 -1       883-7.06885E-02-5.85423E-02-2.40915E-01 1.99486E-02 4.77468E-02-2.34345E-01
 -1       884-5.31417E-01-5.31417E-01-1.24000E+00-1.34313E-06 2.10082E-01-4.23712E-01
 -1       885-3.84861E-02-3.84762E-02-8.97846E-02-2.24876E-07-1.37624E-02-8.58276E-02
 -1       886-4.23947E-02-2.42814E-02-9.16429E-02 3.83985E-03 4.97603E-02-8.80837E-02
 -1       887-2.56174E-02-2.56116E-02-5.97552E-02 2.92101E-06 3.50621E-02-3.89365E-02
 -1       888-2.80827E-02-2.80757E-02-6.55036E-02 3.89272E-06 7.74606E-02-7.20649E-02
 -1       889-2.52884E-02-2.52808E-02-5.89826E-02 3.81626E-06 8.51458E-02-6.85270E-02
 -1       890 2.11713E-02 2.11805E-02 4.94147E-02-1.82458E-06-6.81774E-02-4.20931E-02
 -1       891 5.51759E-02 5.51838E-02 1.28751E-01-1.22085E-06-7.51655E-02 2.61793E-02
 -1       892-5.85593E-02-1.49533E-02 1.36649E-02 7.68053E-03-3.64534E-02-1.36541E-01
 -1       893 1.45875E-01 1.55716E-01 3.51508E-01-1.50352E-03-1.15433E-01 3.10957E-02
 -1       894-1.24198E-01-1.24186E-01-2.89759E-01 2.17002E-07 1.87898E-03-2.56126E-01
 -1       895 9.22921E-02 1.00581E-01 1.89675E-01 7.23566E-03-1.38771E-01 9.61313E-02
 -1       896 2.66489E-02 2.66544E-02 6.21850E-02-5.40767E-07-7.38039E-02 5.62375E-02
 -1       897-1.70268E-02 1.71490E-03-4.07961E-02 2.59595E-03-1.67397E-02-1.50920E-03
 -1       898-1.62484E-02-1.62437E-02-3.78970E-02 2.16396E-06 2.30181E-02-1.08014E-02
 -1       899 3.22140E-02 1.83774E-02 3.71414E-02 8.51344E-03-8.45890E-02 7.95905E-02
 -1       900 2.14565E-01 2.09921E-01 5.82836E-01 2.54164E-02-7.49126E-02 7.16415E-02
 -1       901 2.76978E-01 2.76989E-01 6.46318E-01-7.71632E-06-1.48185E-01 1.68854E-01
 -1       902 3.84793E-01 3.51744E-01 8.77627E-01 9.81690E-04-1.61881E-01 2.68150E-01
 -1       903 2.30754E-01 2.30764E-01 5.38457E-01-9.01992E-06-1.89154E-01 1.83342E-01
 -1       904 1.53514E-01 1.83346E-01 4.63140E-01 9.20525E-03-2.10137E-01 2.17988E-01
 -1       905 8.92995E-02 1.02486E-01 2.52224E-01 3.51213E-04-2.49605E-02-8.26677E-02
 -1       906 2.44886E-01 2.44922E-01 5.71506E-01-2.23433E-06-1.84206E-02 5.99396E-02
 -1       907-8.59539E-02-8.59405E-02-2.00516E-01 4.22279E-07-1.31059E-02-2.34990E-01
 -1       908-3.53526E-02-3.53381E-02-8.24413E-02 4.29348E-07 1.87671E-03-2.19065E-01
 -1       909-2.81715E-01-2.70065E-01-6.11741E-01 9.15502E-03 4.23776E-02-3.86324E-01
 -1       910 2.90655E-01 2.44002E-01 6.51795E-01-1.25269E-02 6.78216E-02 9.96214E-02
 -1       911 3.48527E-01 3.48569E-01 8.13342E-01 1.05243E-06 1.66330E-02 1.75332E-01
 -1       912 4.02048E-01 3.97112E-01 9.76090E-01-9.78291E-03 6.90527E-02 2.91541E-01
 -1       913 4.06708E-01 4.11714E-01 9.83721E-01 9.69175E-03-3.14977E-02 2.86788E-01
 -1       914 4.29126E-01 4.29185E-01 1.00144E+00-1.90715E-05-9.94142E-02 3.36476E-01
 -1       915 1.24851E-01 1.53868E-01 3.83729E-01-1.55027E-03 6.43129E-02-3.07690E-02
 -1       916 2.18705E-01 2.18719E-01 5.10347E-01 5.57492E-06 1.20334E-01 8.52735E-02
 -1       917-3.07206E-02-3.34506E-02-3.87528E-02-8.36449E-03 2.02918E-03-1.94120E-01
 -1       918-6.73880E-02-6.73740E-02-1.57204E-01 3.98554E-07 1.29938E-02-2.01356E-01
 -1       919-2.39735E-01-2.14453E-01-4.82135E-01-7.82418E-03-1.05077E-02-3.57167E-01
 -1       920 1.02721E-01 1.02733E-01 2.39714E-01 4.69573E-06 1.26482E-01 3.39656E-02
 -1       921 2.29167E-01 2.29179E-01 5.34758E-01 6.09200E-06 1.64214E-01 1.52841E-01
 -1       922 2.05509E-01 2.01493E-01 5.06424E-01-6.99628E-03 2.17155E-01 2.18397E-01
 -1       923 3.43937E-01 3.33390E-01 8.05162E-01 2.60651E-04 1.88677E-01 2.55859E-01
 -1       924 4.35642E-01 4.35694E-01 1.01663E+00 2.55003E-05 1.26465E-01 3.46117E-01
 -1       925-3.73400E-03 8.37777E-03 2.07649E-02-1.02078E-02 5.02798E-02-8.60757E-02
 -1       926 6.02560E-03 3.37486E-02 7.53130E-02-1.17608E-02 1.00077E-01 1.06463E-02
 -1       927-5.02761E-02-5.02635E-02-1.17283E-01 1.89120E-06-9.02529E-03-1.97306E-01
 -1       928-5.10082E-02-5.73469E-02-1.79239E-01-2.10402E-02-5.30373E-02-1.76949E-01
 -1       929-1.85681E-01-1.76419E-01-4.20231E-01-1.15581E-02-7.42508E-02-3.24580E-01
 -1       930 1.38458E-02 3.07292E-02 6.95484E-03-6.32521E-03 3.78923E-02-2.24294E-03
 -1       931 5.62327E-02 5.62371E-02 1.31202E-01 4.60443E-06 1.18104E-01 7.35214E-02
 -1       932 2.81518E-02 4.10921E-02 8.71180E-02-3.64263E-03 1.24982E-01 9.57427E-02
 -1       933 1.01207E-01 1.01211E-01 2.36138E-01 5.60546E-06 1.77089E-01 1.42126E-01
 -1       934 2.19801E-01 2.09854E-01 4.74982E-01-4.96350E-03 2.44230E-01 2.25409E-01
 -1       935-5.21639E-02-3.06615E-02-5.48732E-02-3.91386E-03-2.62435E-02-5.10892E-02
 -1       936-1.54017E-02-1.53988E-02-3.59285E-02-1.20452E-06-2.93394E-03-9.78717E-03
 -1       937-4.59072E-02-4.58976E-02-1.07102E-01-2.34575E-06-7.10686E-02-1.16130E-01
 -1       938-5.10357E-02-5.10265E-02-1.19064E-01-2.96703E-06-8.94957E-02-1.16214E-01
 -1       939-1.56238E-01-1.20853E-01-2.72177E-01-1.43409E-02-1.36809E-01-2.24713E-01
 -1       940-4.79650E-01-4.71879E-01-1.15110E+00-9.69546E-03-6.51487E-02-4.17888E-01
 -1       941-6.82471E-01-6.67468E-01-1.52696E+00 9.85837E-03-1.77136E-01-4.49628E-01
 -1       942-3.74993E-01-3.74991E-01-8.75006E-01 1.18828E-06-1.40282E-01-4.18844E-01
 -1       943-5.20625E-01-5.20645E-01-1.21486E+00 2.13320E-07-1.61036E-02-4.36861E-01
 -1       944-3.27319E-01-3.27313E-01-7.63766E-01 5.11240E-07-1.88560E-01-4.11820E-01
 -1       945-1.69273E-02-1.69245E-02-3.94832E-02-2.21099E-06-2.40937E-02-2.94858E-02
 -1       946-1.23298E-02-1.23283E-02-2.87665E-02-5.56454E-07 1.20999E-02 7.55257E-03
 -1       947-8.82883E-03-4.58550E-03-3.13210E-02 3.12102E-03 1.33261E-02 1.20718E-02
 -1       948-1.83845E-03 1.42071E-02-6.88232E-03-1.25390E-03 5.64888E-02 3.77035E-02
 -1       949 3.36048E-02 3.36095E-02 7.83757E-02 1.08187E-05 1.22101E-01 1.02383E-01
 -1       950-5.83968E-02-5.76141E-02-1.43197E-01-8.98582E-03-1.47255E-01-1.50818E-01
 -1       951-4.58652E-02-3.51081E-02-7.85932E-02-5.72162E-03-9.69637E-02-8.50282E-02
 -1       952-1.82241E-02-1.79005E-02-4.72605E-02-5.28514E-03-5.69537E-02-5.20382E-02
 -1       953-2.23373E-02-1.75788E-02-3.45651E-02-3.51825E-03-3.32039E-02-2.74369E-02
 -1       954-2.02553E-02-2.02503E-02-4.72442E-02-4.51989E-06-9.04436E-02-6.27014E-02
 -1       955-1.41035E-01-1.31801E-01-2.86991E-01-9.31577E-03-2.41967E-01-2.10699E-01
 -1       956-9.41396E-02-9.41341E-02-2.19701E-01-1.98406E-06-2.20529E-01-1.61295E-01
 -1       957-2.12604E-01-2.12601E-01-4.96103E-01-2.28723E-06-2.48495E-01-2.97183E-01
 -1       958-2.50061E-01-2.50058E-01-5.83514E-01-4.41120E-06-3.21384E-01-3.25642E-01
 -1       959-2.73358E-01-2.54908E-01-5.73318E-01-1.23741E-02-2.28075E-01-3.50517E-01
 -1       960-3.53844E-02-2.95951E-02-4.68267E-02 1.09731E-02 7.75221E-04 1.36833E-02
 -1       961-1.93801E-02-1.93765E-02-4.52060E-02 2.34955E-06 3.46416E-02-2.32456E-02
 -1       962-1.19566E-02-1.15844E-02-2.92027E-02-3.88904E-04 4.35349E-02-2.79556E-02
 -1       963-1.75309E-02-1.75255E-02-4.08862E-02 3.16873E-06 5.69626E-02-4.27435E-02
 -1       964-2.18480E-02-1.43703E-02-5.43271E-02 1.12731E-03 9.74335E-02-7.36853E-02
 -1       965-1.78853E-02-1.79193E-02-4.18098E-02-1.17794E-05-3.25252E-02 3.32292E-02
 -1       966 3.37665E-04 1.49592E-02-2.10957E-02-5.44312E-03-8.83152E-03 1.32195E-03
 -1       967-2.18593E-03 3.99651E-02-8.22738E-03 2.73592E-03-7.41216E-02 6.36141E-02
 -1       968 2.91698E-02 2.70790E-03-1.21562E-02 1.94557E-02-8.41522E-02 4.67994E-02
 -1       969 5.05725E-02 5.05792E-02 1.17982E-01-8.85680E-06-1.58466E-01 1.24737E-01
 -1       970 3.08938E-01 2.98008E-01 6.76340E-01 1.05794E-02-2.93287E-01 3.03621E-01
 -1       971 1.53426E-01 1.53431E-01 3.57974E-01-1.10514E-05-2.32775E-01 2.22626E-01
 -1       972 4.45023E-01 4.18183E-01 1.09632E+00 1.57914E-02-2.10340E-01 4.01449E-01
 -1       973 4.28264E-01 4.28248E-01 9.99291E-01-2.35150E-05-2.94882E-01 3.92050E-01
 -1       974 5.53684E-01 5.53740E-01 1.29200E+00-7.00271E-06-5.81464E-02 4.38082E-01
 -1       975-8.83109E-03-8.83533E-03-2.05831E-02-6.57675E-06-3.50509E-02-2.82358E-02
 -1       976-1.10911E-02-1.11001E-02-2.58664E-02-4.61894E-06-1.65278E-02-1.47207E-02
 -1       977-9.01528E-03-9.02643E-03-2.10310E-02-3.23852E-06-2.33375E-03-1.11234E-02
 -1       978-1.14480E-02-1.14571E-02-2.67083E-02-3.00005E-06 4.84184E-04-2.85416E-03
 -1       979 4.11133E-03-5.10589E-03-2.37467E-02-9.46685E-03 3.40277E-02 6.84728E-03
 -1       980-8.88986E-02-8.89008E-02-2.07495E-01-3.47505E-07-2.49267E-01-1.52289E-01
 -1       981-4.61984E-02-4.76660E-02-7.35203E-02-8.36753E-03-1.60936E-01-9.48271E-02
 -1       982-1.86063E-02-1.85975E-02-4.34196E-02-3.69917E-06-1.25525E-01-6.73335E-02
 -1       983-1.86020E-02-1.68238E-02-4.33175E-02-2.27868E-03-1.09054E-01-6.96678E-02
 -1       984-1.77682E-02-1.78759E-02-3.26684E-02-2.09919E-03-7.29737E-02-4.56660E-02
 -1       985 2.10889E-02 2.10902E-02 4.91699E-02 1.09604E-05 1.25330E-01 7.72902E-02
 -1       986 6.18224E-02 6.18295E-02 1.44212E-01 1.28295E-05 1.79407E-01 1.41817E-01
 -1       987 1.39174E-01 1.55870E-01 3.16615E-01 3.75674E-03 2.57220E-01 2.19691E-01
 -1       988 3.10132E-01 3.10122E-01 7.23657E-01 1.71548E-05 2.98950E-01 3.19246E-01
 -1       989 1.35619E-01 1.15331E-01 2.44330E-01-1.65330E-02 2.65852E-01 1.78759E-01
 -1       990-3.98725E-01-4.57236E-01-9.64385E-01 1.67059E-03-4.36366E-01-3.74126E-01
 -1       991-2.16146E-01-2.30805E-01-5.77741E-01-2.66389E-02-4.06500E-01-2.62451E-01
 -1       992-1.29602E-01-1.62037E-01-3.30098E-01 1.39086E-03-3.27230E-01-1.80405E-01
 -1       993-5.19987E-02-7.33575E-02-1.40155E-01-1.80162E-03-2.48028E-01-1.11812E-01
 -1       994-7.63709E-03-7.65607E-03-1.78264E-02 9.68484E-06-6.05321E-03-9.22525E-03
 -1       995-6.94485E-03-6.95639E-03-1.62016E-02 8.85589E-06 1.04380E-02-1.54988E-02
 -1       996-1.47963E-02-1.30562E-02-2.27059E-02 2.62363E-03 2.72831E-02-2.33002E-02
 -1       997-6.59993E-03-6.60354E-03-1.53950E-02 1.10299E-05 1.57911E-02-2.24778E-02
 -1       998-5.47051E-01-5.18481E-01-1.34360E+00-1.83036E-02-4.09594E-01-4.40261E-01
 -1       999-4.42181E-01-4.42173E-01-1.03179E+00 7.90310E-07-2.80335E-01-4.58965E-01
 -1      1000-6.27785E-01-6.62226E-01-1.51576E+00 1.29870E-03-3.17544E-01-4.60970E-01
 -1      1001-2.72945E-02-2.72884E-02-6.37025E-02 2.76141E-06 1.22731E-01-8.06755E-02
 -1      1002-3.00420E-02-3.11831E-02-7.11679E-02 7.99238E-04 1.49916E-01-7.67288E-02
 -1      1003-5.32987E-01-5.32876E-01-1.32722E+00 2.05462E-02 1.09544E-01-4.27572E-01
 -1      1004-2.10666E-03-5.57733E-03-1.36085E-02-4.11385E-03 4.79031E-02-1.52261E-03
 -1      1005-1.46365E-02 6.15707E-03-2.62710E-02-3.97242E-03 3.70551E-02 2.16424E-03
 -1      1006-8.66374E-03-8.67580E-03-2.02145E-02-3.06234E-06 1.89238E-02-5.03782E-03
 -1      1007-9.64746E-03-9.65238E-03-2.25494E-02 8.54657E-06 7.77852E-02 2.18467E-02
 -1      1008-9.00503E-03-7.98154E-03-1.98144E-02-8.63493E-04-5.00319E-02-3.63347E-02
 -1      1009-7.10436E-03-6.96840E-03-1.51139E-02-5.29615E-04-3.19125E-02-2.93858E-02
 -1      1010-9.63043E-01-9.57164E-01-2.25670E+00-2.51796E-03-3.77373E-02-2.46481E-01
 -1      1011-6.99970E-01-7.48995E-01-1.79841E+00-4.61288E-03 8.08899E-03-4.29921E-01
 -1      1012-5.38911E-01-5.38932E-01-1.25753E+00-1.02955E-06 4.42126E-02-4.46431E-01
 -1      1013-9.14419E-01-9.14415E-01-2.13364E+00 7.22440E-06-1.94486E-01-3.21408E-01
 -1      1014-7.95485E-01-7.85285E-01-1.89326E+00-1.41369E-02-2.81292E-01-3.71171E-01
 -1      1015 6.25475E-01 6.00762E-01 1.45169E+00 7.06894E-04-3.11664E-01 5.07266E-01
 -1      1016 7.20785E-01 7.20819E-01 1.68174E+00-1.82721E-05-8.80074E-02 5.48529E-01
 -1      1017 5.97371E-01 5.78555E-01 1.33163E+00 1.26421E-03 5.98343E-04 4.82639E-01
 -1      1018 5.46859E-01 5.46912E-01 1.27607E+00 1.41298E-05 7.96789E-02 4.41925E-01
 -1      1019 4.66618E-01 4.35190E-01 1.18036E+00-2.56662E-02 2.32503E-01 4.17115E-01
 -1      1020-6.06402E-03 2.51271E-03-2.69338E-02 3.14207E-03 8.94876E-03-3.77244E-02
 -1      1021-1.13009E-02 1.20909E-03-1.06273E-02-2.55513E-04 3.33390E-03-3.82011E-02
 -1      1022 7.27639E-03 1.19005E-02-2.82073E-02 2.23804E-03 9.35499E-03-3.99656E-02
 -1      1023-9.36029E-03-4.01991E-03-7.86778E-04 8.54164E-04 1.82855E-03-3.45888E-02
 -1      1024-1.30063E-02-1.66019E-03-2.25060E-02 1.56505E-03 6.68456E-03-3.97765E-02
 -1      1025 2.08578E-02-1.17676E-03-2.53864E-03 1.75979E-03 3.15325E-03-3.10898E-02
 -1      1026-5.94378E-03-1.85504E-03 1.13941E-02 2.53947E-03-5.51118E-03-4.02235E-02
 -1      1027-8.58184E-03-6.53985E-03-1.15383E-01-8.49069E-04 4.06939E-02-3.81227E-02
 -1      1028-9.29417E-03-2.82447E-03-3.69882E-05 4.33356E-03-1.02957E-03-2.50200E-02
 -1      1029-8.16658E-03-4.11561E-03 1.07302E-02 3.33569E-03-5.28276E-03-3.77031E-02
 -1      1030 1.11638E-02 1.15398E-02 5.03167E-02 5.67586E-04-1.50193E-02-4.14884E-02
 -1      1031 4.30435E-03 7.80920E-03 2.59759E-02 1.51878E-03-1.06902E-02-4.39964E-02
 -1      1032-4.58885E-03-1.21946E-03-2.76405E-03 1.37178E-03 4.32855E-04-1.46603E-02
 -1      1033-9.06699E-03-2.89257E-03 4.63523E-04 3.40567E-03-5.11381E-03-2.65403E-02
 -1      1034-8.60156E-03-1.07612E-03-2.19717E-03 3.58917E-03 1.01914E-04-1.76291E-02
 -1      1035-8.13839E-02-7.97967E-02-2.47189E-01 2.31038E-03 9.35742E-02-3.66078E-02
 -1      1036 1.23883E-02 1.75168E-02-5.93046E-02-1.58335E-03 9.40758E-03-4.01805E-02
 -1      1037-7.95512E-02-7.98912E-02-2.35070E-01-1.07420E-03 8.98908E-02-4.44069E-02
 -1      1038 2.22707E-02 9.81188E-03 3.13062E-03-3.65805E-06 3.90078E-03-3.35987E-02
 -1      1039 1.23586E-02-4.12469E-03 8.11092E-03 2.98554E-05 2.47508E-04-1.71022E-02
 -1      1040 1.81829E-02-3.92473E-03 5.37616E-03 2.59994E-03-5.72205E-04-1.99666E-02
 -1      1041-6.04124E-03-3.01963E-03 8.70403E-03 5.20260E-03-3.94448E-03-3.30812E-02
 -1      1042 1.69634E-02 1.10464E-02-3.98446E-02 7.32908E-04 1.68251E-02-3.81580E-02
 -1      1043 2.34612E-03 6.55676E-03 1.75225E-02 1.00313E-03-7.28189E-03-4.32127E-02
 -1      1044-5.14323E-03-1.14543E-03-6.12546E-03 4.43777E-04 4.00368E-03-4.58474E-02
 -1      1045-6.72563E-03-3.84938E-03 4.29687E-03 1.45893E-03-2.00802E-03-3.65941E-02
 -1      1046-1.69060E-02-5.13535E-03-2.67113E-02-2.88151E-04 6.59089E-03-4.80877E-02
 -1      1047-1.78014E-02-7.80211E-03-4.61492E-02-1.67731E-03 1.60387E-02-4.77573E-02
 -1      1048-1.03870E-02-6.68122E-04-4.03278E-03 2.35008E-03 1.73232E-03-3.99387E-02
 -1      1049-3.48132E-02-1.58021E-02-6.59021E-02 8.88785E-04 1.94540E-02-5.32118E-02
 -1      1050-4.17289E-02-3.19414E-02-9.48605E-02 3.90584E-03 3.50288E-02-5.31746E-02
 -1      1051-1.31420E-02 1.77243E-03-1.21371E-02 1.41734E-03 3.10884E-03-4.18698E-02
 -1      1052-3.81539E-02-2.78206E-02-9.81149E-02 3.62559E-03 3.36456E-02-5.19303E-02
 -1      1053-5.13779E-02-4.66834E-02-1.25256E-01 5.26240E-03 4.85904E-02-5.18158E-02
 -1      1054-8.88384E-03-2.99046E-03-2.66907E-02 1.24536E-03 8.68092E-03-3.81197E-02
 -1      1055-4.40378E-02-3.54392E-02-1.35827E-01 5.96839E-03 4.75353E-02-5.55149E-02
 -1      1056-5.35447E-02-4.67525E-02-1.64626E-01 3.15036E-03 6.28165E-02-4.76715E-02
 -1      1057-2.26289E-03 5.53971E-03-3.17767E-02 3.75532E-03 9.40660E-03-4.18189E-02
 -1      1058 4.40636E-03 1.08891E-02-6.05654E-02 1.46567E-03 2.17101E-02-3.96960E-02
 -1      1059-1.22631E-02-1.68783E-03-3.47552E-03 5.48266E-03 1.86939E-04-2.30697E-02
 -1      1060-6.53934E-03-5.34843E-05-2.69742E-03 8.26785E-04 1.55619E-03-2.16474E-02
 -1      1061-9.61937E-03-5.45457E-03 1.34469E-04 2.01208E-03 1.06426E-03-2.90892E-02
 -1      1062-1.26468E-02 4.96058E-04-3.68838E-03 4.64969E-03-1.37780E-03-2.24095E-02
 -1      1063-7.45469E-03 1.11201E-03 3.83944E-04 4.60098E-03 3.17881E-04-2.33553E-02
 -1      1064-8.34962E-03-1.76113E-03-1.51054E-03 1.00881E-03 1.16988E-03-2.38649E-02
 -1      1065-7.04549E-03 3.04611E-03-1.13881E-03 5.70442E-03-1.07204E-03-2.46414E-02
 -1      1066 1.72051E-03-3.09313E-03-3.83442E-03 3.35276E-03 3.10590E-03-2.52064E-02
 -1      1067-6.28666E-03-2.66388E-03-4.08740E-03 1.72665E-03 3.92120E-03-2.49563E-02
 -1      1068 1.30974E-02-4.57886E-03-2.14521E-04 1.40460E-04 4.07261E-03-2.59181E-02
 -1      1069 8.49806E-03-3.78168E-03-1.18391E-03 1.98534E-03 3.47660E-03-2.63787E-02
 -1      1070 1.51789E-02 4.22009E-03-1.21680E-02 1.87842E-04 6.07697E-03-3.57360E-02
 -1      1071 3.89149E-03 2.44389E-03-3.88427E-02-3.02700E-03-1.38465E-02-3.94241E-02
 -1      1072-1.40916E-02 2.17656E-03-2.18935E-02-9.92281E-05-7.38899E-03-4.16973E-02
 -1      1073-6.08751E-03-2.28021E-03-9.65030E-05 9.49041E-04-9.92065E-04-3.78137E-02
 -1      1074-9.19854E-03 3.23484E-04-3.62297E-02-2.09894E-03-1.51201E-02-3.86753E-02
 -1      1075-1.21254E-02 2.34853E-03-1.07141E-02 1.34553E-03-1.34581E-03-3.87320E-02
 -1      1076 1.99816E-02 2.73329E-04-4.44862E-03-1.54158E-04-3.51952E-03-3.24868E-02
 -1      1077-8.32628E-03-1.37542E-03 1.72595E-03-1.67392E-03 2.42222E-03-3.00007E-02
 -1      1078 4.24964E-03 1.90836E-02-9.60854E-02 1.14391E-03-1.83489E-02-3.83931E-02
 -1      1079-3.40977E-03 8.28570E-04 2.33812E-02-3.40306E-04 9.96596E-03-3.92895E-02
 -1      1080 1.56542E-02 1.94540E-02 5.83279E-02-5.28202E-04 2.51452E-02-4.00808E-02
 -1      1081-8.00719E-03-2.75327E-03 1.84589E-02-1.40375E-03 7.49489E-03-3.60964E-02
 -1      1082 9.14722E-03 1.17012E-02 3.69988E-02-3.39854E-04 1.42524E-02-4.44079E-02
 -1      1083-8.35618E-03-2.18700E-03 2.61260E-03-2.17120E-03 6.75549E-03-2.92918E-02
 -1      1084-6.35173E-03-9.62638E-04-2.28985E-03 2.42618E-05 1.81592E-04-1.74595E-02
 -1      1085-8.03252E-03 9.16499E-04 1.77853E-04-1.71834E-03 8.49760E-04-1.99998E-02
 -1      1086 1.81562E-02 2.92063E-02-5.47812E-02 1.49889E-03 9.41411E-04-3.88395E-02
 -1      1087-6.29075E-02-3.51102E-02-2.29733E-01 1.73071E-03-5.75621E-02-3.34303E-02
 -1      1088-7.09433E-02-5.67548E-02-2.27516E-01-1.90566E-03-7.35386E-02-4.85856E-02
 -1      1089 1.45310E-02-9.64946E-04 9.13056E-03 5.12838E-04-4.13442E-05-1.74385E-02
 -1      1090 2.10957E-02 9.31984E-03-4.25344E-03-4.38079E-04-4.98618E-03-3.41307E-02
 -1      1091 1.76665E-02-3.34034E-03 5.21653E-03-2.05489E-03 9.56536E-04-2.05556E-02
 -1      1092-5.47453E-03-1.87236E-03 1.01918E-02-2.89483E-03 5.89208E-03-3.55239E-02
 -1      1093 1.23219E-02 1.01293E-02-3.77214E-02-2.91767E-04-1.37684E-02-3.87691E-02
 -1      1094-8.23698E-03-2.71967E-03-1.07387E-02-7.32185E-04-6.04742E-03-4.64328E-02
 -1      1095 2.76862E-03 7.66108E-03 1.83227E-02-8.67463E-04 8.11273E-03-4.34899E-02
 -1      1096-3.91851E-03-4.15933E-03 6.99662E-03-1.11324E-03 3.88593E-03-3.75332E-02
 -1      1097-2.60885E-02-1.51199E-02-5.45227E-02-5.94947E-04-1.78220E-02-4.95268E-02
 -1      1098-1.48479E-02-8.28760E-03-2.93929E-02-9.32387E-04-9.45040E-03-4.64647E-02
 -1      1099-1.01987E-02 6.75302E-04-4.21886E-03 8.70396E-04-2.04171E-03-3.96937E-02
 -1      1100-3.92229E-02-2.37156E-02-9.40733E-02-1.04314E-03-3.19771E-02-5.35295E-02
 -1      1101-3.21012E-02-2.06945E-02-7.15390E-02-1.32080E-03-2.37684E-02-5.03606E-02
 -1      1102-1.31991E-02 4.24392E-03-1.51315E-02 9.06259E-04-3.81840E-03-4.04673E-02
 -1      1103-5.46935E-02-4.79270E-02-1.32899E-01-5.71025E-03-5.13558E-02-5.41350E-02
 -1      1104-4.48818E-02-3.70124E-02-1.11405E-01-1.76951E-03-4.15292E-02-4.97048E-02
 -1      1105-9.99773E-03 3.15578E-03-2.43533E-02-7.00224E-04-1.10666E-02-4.08532E-02
 -1      1106-5.85845E-02-5.94051E-02-1.72678E-01-7.80098E-03-6.64081E-02-4.90765E-02
 -1      1107-4.70694E-02-3.97748E-02-1.44069E-01-4.19720E-03-5.01786E-02-5.29022E-02
 -1      1108-3.97938E-03 4.62911E-03-3.78343E-02-1.49668E-03-1.18634E-02-4.16924E-02
 -1      1109-3.47157E-06 6.58079E-03-7.15512E-02-3.20414E-03-1.63178E-02-4.32846E-02
 -1      1110-7.41209E-03 4.79044E-05-1.87277E-03 2.84394E-04 1.99034E-05-2.55839E-02
 -1      1111-9.14893E-03 1.25167E-03-1.78569E-03-4.39078E-04-1.13025E-04-2.63598E-02
 -1      1112-5.79044E-03-3.80105E-03 1.50320E-03-1.65617E-04-9.64987E-05-3.39236E-02
 -1      1113-1.09916E-02-8.02270E-04-2.41757E-03-3.74236E-04-1.35255E-03-2.52718E-02
 -1      1114-1.15397E-02 8.85565E-04-1.81024E-03-7.82511E-04-3.41685E-04-2.53461E-02
 -1      1115-1.14574E-02-2.58728E-03-4.12474E-03-5.92710E-04-2.57433E-03-2.53532E-02
 -1      1116-9.44451E-03-1.17527E-03-3.23756E-03-9.73557E-04-1.47908E-03-2.61037E-02
 -1      1117-4.89216E-03-3.94872E-03-6.87885E-03-1.02977E-03-4.58625E-03-2.52235E-02
 -1      1118 2.39486E-04-2.33015E-03-5.90065E-03-1.29425E-03-3.52524E-03-2.62861E-02
 -1      1119 5.44259E-03-6.05193E-03-4.12076E-03-1.47576E-03-4.89196E-03-2.54968E-02
 -1      1120 1.20543E-02-5.32942E-03-1.78111E-03-7.74918E-04-4.36862E-03-2.57958E-02
 -1      1121 1.50308E-02 2.52237E-03-1.64458E-02-8.46641E-05-7.80562E-03-3.65693E-02
 -1      1122-5.92557E-02-7.36867E-01 3.46903E+00-1.90231E-02-5.73155E-01 3.02685E-03
 -1      1123 1.04762E-01 5.24301E-01 1.02858E+00-7.95353E-02 1.20516E+00-8.60704E-02
 -1      1124-3.97070E-03 1.58130E-01 2.43733E-03-8.57378E-03 6.77647E-02-2.68381E-03
 -1      1125-1.48796E-02 1.71604E-01 2.29546E-03 9.68467E-03-7.25247E-02-1.04819E-02
 -1      1126-2.22875E-02 7.13126E-01 2.44300E-01 3.10932E-02-3.87289E-01-1.95583E-02
 -1      1127-9.31789E-03 3.83273E-01 4.00439E-02-1.64909E-02 1.38565E-01-5.19492E-03
 -1      1128-4.82862E-03 4.61919E-01 1.30630E+00-6.76472E-02-1.07246E+00 3.47066E-02
 -1      1129-4.21843E-03 3.80522E-01 5.93813E-02 2.77446E-02-1.42584E-01-5.99014E-03
 -1      1130-1.54160E-02 7.10293E-01 2.97539E-01-3.83965E-02 4.23676E-01-1.24412E-02
 -1      1131-7.43078E-02-6.79695E-01 3.42770E+00-2.73154E-03 6.69012E-01 8.15300E-02
 -1      1132-2.08888E-01-2.43003E-01 3.68083E+00 8.68058E-03 9.90665E-03 1.04632E-01
 -1      1133-2.40329E-03 6.58570E-02 2.43193E-03-5.62595E-03 6.49529E-02-1.98775E-03
 -1      1134 8.94632E-04 6.20596E-02-5.89754E-04 5.06236E-03-6.56380E-02-1.83162E-03
 -1      1135-5.58142E-03 1.09171E-01 3.02461E+00-2.15803E-02-7.38309E-01 2.43058E-01
 -1      1136-2.48766E-02 1.93768E-01 3.03339E+00 5.79531E-03 7.23630E-01 2.07209E-01
 -1      1137-4.91777E-04 6.68320E-02 2.55927E-03 3.48816E-03-3.08090E-02-2.45151E-03
 -1      1138-1.11073E-03 6.78524E-02 2.34233E-03-2.85050E-03 3.16037E-02-1.75154E-03
 -1      1139-4.21424E-03 2.74684E-02-6.37166E-03 1.81799E-03-6.45940E-02-7.00822E-03
 -1      1140-1.27268E-03 4.10136E-02-5.80227E-04 2.14705E-03-5.24668E-02-3.86019E-03
 -1      1141 4.23079E-03 4.72384E-02 1.38036E-02 3.97998E-03-8.66803E-02 2.22487E-04
 -1      1142-1.94829E-03 3.95850E-02 4.69964E-03-1.23773E-04-3.21613E-02-4.53039E-03
 -1      1143 7.47224E-04 3.66279E-02 1.25069E-03 8.94861E-04-1.35060E-02-8.36337E-04
 -1      1144-1.39969E-03 8.33161E-02 6.05234E-04 1.56629E-03-1.51086E-02 9.41168E-05
 -1      1145-1.31109E-03 4.25387E-02 1.76492E-03-1.80296E-03 5.30599E-02-3.74548E-03
 -1      1146-3.98278E-03 3.04394E-02-3.26375E-03-2.80851E-03 6.39195E-02-6.81943E-03
 -1      1147 4.80489E-03 4.77215E-02 1.73780E-02-4.69609E-03 8.63795E-02-4.41437E-04
 -1      1148 5.92212E-04 3.70184E-02 2.22015E-03-7.38421E-04 1.44311E-02-8.02636E-04
 -1      1149-1.86720E-03 3.96160E-02 3.44331E-03-1.03725E-05 3.35317E-02-3.81839E-03
 -1      1150-2.38151E-03 8.06742E-02-1.78598E-04-1.18102E-03 1.59052E-02 1.34656E-04
 -1      1151 2.04907E-01 6.00188E-01 3.28848E-01 8.38087E-02-5.56707E-01 1.92961E-02
 -1      1152 1.74312E-01 7.13625E-01 1.89497E+00-4.60271E-01-1.53157E+00 2.76366E-02
 -1      1153-7.57527E-02-4.93419E-01 3.50035E+00-1.67183E-01-7.69963E-01 2.08033E-01
 -1      1154-1.54161E-01-6.00184E-01 3.23488E+00 4.48183E-02-1.60469E-01 1.57040E-01
 -1      1155-4.32646E-02-8.11812E-02 2.48692E+00-4.64374E-02-1.10631E+00-1.34777E-01
 -1      1156 1.53646E-01 7.04174E-01 1.77269E+00 3.85273E-01 1.50462E+00-1.21780E-03
 -1      1157 1.94572E-01 5.98742E-01 2.62924E-01-7.67987E-02 6.04770E-01-6.96862E-03
 -1      1158-1.16531E-01-6.15838E-01 3.28075E+00-5.73184E-02 1.89931E-01 1.63394E-01
 -1      1159-5.56128E-02-5.09657E-01 3.49730E+00 1.75126E-01 7.91295E-01 2.10744E-01
 -1      1160-1.04305E-02-1.67946E-01 2.17928E+00-1.07310E-02 1.07953E+00-6.40573E-02
 -1      1161 3.14037E-03 6.46566E-02 4.17601E-03 6.08670E-03-4.86154E-02-2.16584E-03
 -1      1162 1.30711E-04 6.46025E-02 3.91524E-03-3.25141E-03 4.86636E-02-2.20261E-03
 -1      1163-1.64581E-03 9.93470E-02 2.67556E-02-3.64140E-03 9.67083E-02-2.21507E-03
 -1      1164 1.69445E-02 1.49272E-01 8.35230E-02-3.60581E-03 1.43071E-01 1.60158E-02
 -1      1165-5.52639E-03 1.04655E-01 5.12293E-03-5.98082E-03 6.89123E-02-2.15752E-03
 -1      1166 1.74831E-02 2.76734E-01 1.53068E-01-3.37241E-03 2.11851E-01 1.72896E-02
 -1      1167 6.13554E-02 3.71887E-01 3.27469E-01-1.40675E-02 3.14802E-01 7.08195E-02
 -1      1168-4.23872E-03 2.45649E-01 8.93732E-03-9.29087E-03 9.93638E-02-4.68720E-03
 -1      1169 5.61686E-02 5.72897E-01 5.89910E-01-2.75297E-03 5.04825E-01 7.30600E-02
 -1      1170 1.67984E-01 6.75685E-01 1.14403E+00-2.30896E-02 6.43490E-01 2.06616E-01
 -1      1171-1.13268E-02 5.06377E-01 1.12883E-01-7.43103E-03 2.58708E-01-1.11561E-02
 -1      1172 3.81809E-01 7.21460E-01 2.74928E+00 1.68381E-02 8.27475E-01 4.05472E-01
 -1      1173 8.21999E-01 1.05381E+00 3.89459E+00 7.40639E-02 6.23858E-01 7.27958E-01
 -1      1174 2.83610E-02 6.28877E-01 5.93461E-01-2.24288E-02 7.61154E-01-1.21004E-02
 -1      1175 1.85717E-01 6.85819E-01 1.81976E+00 4.60180E-02 1.00639E+00 1.23932E-01
 -1      1176 6.54652E-02 2.48621E-01 2.20507E+00 7.29698E-03 1.00767E+00 1.60320E-02
 -1      1177 6.18233E-01 7.76241E-01 4.26357E+00 4.87712E-02 2.79873E-01 6.73740E-01
 -1      1178 6.08301E-01 7.65701E-01 4.24906E+00-3.45780E-02-2.82737E-01 6.72616E-01
 -1      1179-1.40667E-01-9.30792E-03 3.39655E+00 2.69786E-02 4.25102E-01 1.22876E-01
 -1      1180 7.56779E-01 9.50364E-01 3.79046E+00-5.16601E-02-6.54624E-01 7.17599E-01
 -1      1181 3.23650E-01 6.83930E-01 2.71475E+00-4.51730E-02-8.40647E-01 4.53913E-01
 -1      1182-1.43835E-01-9.29362E-02 3.43746E+00-2.60520E-02-4.42678E-01 1.31543E-01
 -1      1183 2.69285E-01 7.66995E-01 1.14344E+00-3.91724E-03-6.43154E-01 2.32570E-01
 -1      1184 1.08350E-01 5.00646E-01 5.77934E-01 1.83708E-02-4.47376E-01 1.01600E-01
 -1      1185 2.96796E-01 7.47963E-01 1.84029E+00-8.55164E-02-8.84208E-01 3.15676E-01
 -1      1186-5.31243E-02 5.82459E-01 6.35055E-01-4.26570E-02-6.91534E-01 9.27966E-02
 -1      1187-6.19103E-02 1.74123E-01 2.17951E+00-1.40097E-01-9.88993E-01 1.07933E-01
 -1      1188 1.11792E-01 4.22808E-01 3.70651E-01 4.17431E-03-3.27516E-01 8.21993E-02
 -1      1189 5.46463E-02 2.59141E-01 1.60259E-01 2.77772E-03-2.00496E-01 2.97565E-02
 -1      1190-3.90830E-02 5.16895E-01 9.55519E-02 1.62574E-02-2.38006E-01-1.72320E-02
 -1      1191 2.53317E-02 1.59860E-01 9.60846E-02 7.41115E-03-1.48092E-01 2.05162E-02
 -1      1192-1.13349E-03 1.08644E-01 2.98290E-02 6.23537E-03-9.77471E-02-3.75292E-03
 -1      1193-9.07121E-03 2.29034E-01 2.25391E-02 1.00238E-02-9.99032E-02 9.60115E-04
 -1      1194-1.53210E-03 1.08857E-01 5.92385E-03 5.99641E-03-7.08376E-02-5.36483E-03
 -1      1195 8.32284E-02 5.69462E-01 7.51577E-02 4.96580E-02-1.51626E-01-1.14107E-02
 -1      1196 6.28618E-02 4.93852E-01 7.90570E-02 3.03153E-02-3.00074E-01-2.02579E-02
 -1      1197 2.16569E-02 2.95336E-01 1.91325E-02 1.36528E-02-5.88021E-02 3.45280E-03
 -1      1198 5.04098E-03 3.45719E-01 3.35420E-02 4.41993E-03-7.76451E-02 6.24276E-03
 -1      1199 4.14243E-03 1.36273E-01 5.52099E-04 5.91474E-03-3.40546E-02-4.70500E-03
 -1      1200-3.79539E-03 1.88739E-01-1.93422E-03 9.71406E-04-3.84123E-02-3.42355E-03
 -1      1201-5.08308E-03 1.09494E-01-1.55604E-03 5.03901E-03-5.17633E-02-5.07763E-03
 -1      1202 1.53761E-03 1.83065E-01 3.33171E-03-4.34568E-03 3.42420E-02-2.30765E-03
 -1      1203 5.95605E-03 1.30765E-01 2.54506E-03-4.87244E-03 3.22024E-02-8.83041E-04
 -1      1204-2.32268E-04 1.06250E-01-6.17956E-04-4.36770E-03 4.80326E-02-2.06522E-03
 -1      1205 1.16135E-02 3.46986E-01 2.19133E-02-3.24531E-03 6.50191E-02-1.66938E-02
 -1      1206 5.35541E-03 2.86137E-01 6.12463E-03-6.20592E-03 5.85582E-02-6.70644E-03
 -1      1207 6.08902E-02 5.10837E-01 1.34088E-01-3.19836E-02 2.84628E-01-1.26073E-02
 -1      1208 1.58393E-02 5.11857E-01 7.66917E-02-4.08199E-03 1.89130E-01-2.65949E-02
 -1      1209-4.21340E-02-7.50748E-01 3.53321E+00-3.35869E-02 3.60734E-02 1.11671E-01
 -1      1210 2.61276E-03-3.07378E-01 3.17447E+00-7.82776E-02-7.50806E-01 3.49687E-02
 -1      1211-1.19086E-02-4.66389E-01 3.51446E+00-3.83051E-02-3.11404E-01 7.90757E-02
 -1      1212-1.46619E-02-4.99099E-01 3.46958E+00 2.15399E-02 3.72263E-01 1.38162E-01
 -1      1213-3.71520E-02-2.32248E-01 3.07613E+00 1.54935E-03 7.61836E-01 9.23159E-02
 -1      1214 2.29620E-01 1.26412E+00-9.15258E+00-6.72006E-03-5.47496E-02-1.74844E-01
 -1      1215 2.19805E-01-4.18069E-01-3.83234E+00-1.76996E-02 4.92623E-01-8.85437E-02
 -1      1216 2.03923E-01-4.30630E-01-3.87634E+00 1.31068E-02-4.77938E-01-8.33912E-02
 -1      1217 1.61965E-01-8.08159E-01-6.61263E+00 2.53578E-02-2.46459E+00-5.38712E-02
 -1      1218 1.74892E-01-8.27695E-01-6.60121E+00-1.61627E-02 2.46080E+00-5.16258E-02
 -1      1219 1.05795E-01-9.30723E-01-9.37047E-01-3.51233E-02 8.86059E-01-1.69683E-03
 -1      1220 5.62994E-02-1.02211E+00-1.02082E+00 6.05705E-03-8.68540E-01-7.15868E-02
 -1      1221 2.13992E-01-5.11056E-01-3.32286E+00 6.51652E-03 7.35552E-01-7.40195E-02
 -1      1222 1.94109E-01-5.16778E-01-3.31314E+00 8.33060E-03-7.48143E-01-5.37847E-02
 -1      1223 1.96938E-02-4.83449E-01 4.22876E-03-5.25041E-03-1.44419E-01-2.35319E-02
 -1      1224 3.82621E-02-4.79926E-01 8.31698E-03-7.41447E-03 1.65407E-01-1.06548E-03
 -1      1225 2.19799E-01-2.11345E-01-4.11091E+00 3.87360E-03-1.88313E-02-6.61840E-02
 -1      1226 1.86939E-01 2.62974E-01-5.63632E+00 1.41147E-02-4.79599E-01-1.05554E-02
 -1      1227 1.44332E-01 3.14425E-01-5.65329E+00-5.56443E-03 5.19778E-01 3.90651E-02
 -1      1228 2.19756E-01 5.04364E-01-8.96223E+00-1.49964E-01 1.58147E+00-3.18163E-01
 -1      1229 3.30460E-01 5.77379E-01-9.20510E+00 1.90831E-01-1.55933E+00-3.24276E-01
 -1      1230 2.15239E-01-7.28289E-01-4.79831E+00-1.12321E-01 1.01003E+00-7.05957E-02
 -1      1231 2.04078E-01-7.36997E-01-4.78150E+00 1.05926E-01-1.02122E+00-8.53888E-02
 -1      1232 1.93468E-02-2.07771E-01 5.24782E-02 2.90377E-03-1.42417E-01 1.06357E-04
 -1      1233 1.93667E-02-2.00784E-01 4.89271E-02-5.47048E-03 1.37920E-01 9.27399E-04
 -1      1234 2.01214E-01 1.21299E-01-1.04150E+01-2.49540E-02-2.24775E+00-3.09169E-01
 -1      1235 1.62665E-01 1.18932E-01-1.03265E+01-7.12844E-02 2.28896E+00-8.03937E-02
 -1      1236 4.22777E-03-9.55311E-02 1.53896E-02-4.49791E-03-1.85270E-02-2.54970E-03
 -1      1237 4.21011E-03-9.79265E-02 1.26133E-02 4.66512E-03 2.38611E-02-2.03708E-03
 -1      1238 1.37770E-02-1.00140E-01 3.18355E-02-3.10028E-03 1.07487E-01-9.93122E-03
 -1      1239 2.51033E-03-1.07080E-01 1.55878E-02-1.36224E-03 1.53308E-01 4.11460E-04
 -1      1240-1.05396E-03-1.55263E-01-1.01878E-02 9.94410E-04 2.29362E-01 1.01618E-02
 -1      1241-2.71247E-04-4.16489E-02 4.90951E-03 6.64508E-04 5.51685E-03-1.04530E-04
 -1      1242-1.82167E-03-8.02000E-02 3.45259E-03 1.85227E-03 4.03449E-02-5.52061E-03
 -1      1243 5.57659E-04-7.39786E-02 7.04579E-03 5.00509E-04-5.20302E-03-3.34507E-03
 -1      1244 4.20954E-03-1.09662E-01 1.75557E-02 1.96497E-03-1.54797E-01 3.24416E-04
 -1      1245 1.35932E-02-1.05082E-01 3.25582E-02 2.57179E-03-1.07955E-01-1.09214E-02
 -1      1246 1.66151E-03-1.57755E-01-1.27200E-02-2.94310E-03-2.33295E-01 1.19581E-02
 -1      1247-8.62933E-04-8.14056E-02 4.89871E-03-1.07025E-03-3.76067E-02-5.19787E-03
 -1      1248-2.69823E-04-3.71929E-02 6.37825E-03-1.18042E-03-2.18801E-03-1.02091E-04
 -1      1249 1.24927E-03-7.45688E-02 6.79178E-03-4.75595E-03 6.20919E-03-4.29201E-03
 -1      1250 1.97321E-02-1.99762E+00-1.87083E+00 1.04147E-01 1.70647E+00 2.89718E-02
 -1      1251 8.14791E-02-6.57858E-01-1.12698E-01-4.45956E-02 1.73334E-01 7.72243E-02
 -1      1252 2.10398E-01-1.56441E-01-7.37268E+00 1.21385E-01 1.73515E+00-1.49253E-01
 -1      1253-4.23476E-01-1.99290E+00-7.67753E+00-7.10482E-02 2.68701E+00-4.71934E-01
 -1      1254 2.98214E-01-8.62180E-01-5.42449E+00-1.59169E-01 1.63274E+00 1.01055E-02
 -1      1255-5.35327E-02-1.90478E+00-4.58936E+00 6.42511E-02 1.26005E+00-2.25519E-01
 -1      1256 2.06307E-01-1.17384E+00-3.79336E+00 8.31276E-02 9.64773E-01 5.97006E-02
 -1      1257 8.54000E-02-6.63381E-01-2.13989E+00 1.95481E-02 9.52182E-01-8.09615E-03
 -1      1258 1.81056E-01-6.26482E-01-3.99560E+00-5.14401E-02 8.08836E-01-1.37400E-01
 -1      1259-3.15003E-02 1.96923E-01-1.16675E+01-1.06911E-01 1.63299E+00-2.73204E-01
 -1      1260-1.29662E-02-4.08907E-02-9.66928E+00-7.50245E-02 1.60682E+00 2.83577E-02
 -1      1261-1.39675E-01 5.77561E-02-1.28575E+01 9.33116E-02 2.21870E+00-7.45728E-01
 -1      1262 9.66554E-02 2.03499E-01-1.17509E+01 2.68779E-02-1.68732E+00-3.11636E-01
 -1      1263 4.24456E-01 2.13746E-01-1.29508E+01-1.76424E-01-2.22726E+00-9.50329E-01
 -1      1264 1.41375E-03-2.94384E-02-9.57829E+00 7.10157E-02-1.59235E+00-1.26739E-02
 -1      1265-3.20144E-01-1.96166E+00-7.69850E+00 4.24816E-02-2.72106E+00-4.23214E-01
 -1      1266 1.92375E-01-1.51318E-01-7.34815E+00-1.01296E-01-1.72438E+00-1.19360E-01
 -1      1267 9.98031E-02-5.96893E-01-1.63775E-01 7.32199E-02-2.40704E-01 9.70802E-02
 -1      1268-1.78129E-01-1.98302E+00-2.07204E+00-2.82377E-02-1.56666E+00-2.51382E-01
 -1      1269 1.60397E-01-1.78688E+00-4.41683E+00-1.22466E-01-1.30473E+00-1.84229E-01
 -1      1270 2.80657E-01-8.43134E-01-5.41190E+00 1.45514E-01-1.64276E+00-1.15529E-02
 -1      1271 1.31847E-01-6.23480E-01-2.11211E+00 9.47898E-03-9.16147E-01-7.95537E-02
 -1      1272 9.36474E-02-1.30123E+00-4.06695E+00-1.44379E-01-1.17290E+00-3.17860E-03
 -1      1273 1.57212E-01-6.56298E-01-4.04037E+00 5.02934E-02-8.09041E-01-1.51458E-01
 -1      1274 3.90202E-03-1.35335E-01 2.24024E-02 1.21788E-03 7.64135E-02-9.06774E-03
 -1      1275 2.80940E-03-1.41394E-01 2.75619E-02-1.98585E-03-7.48179E-02-1.09727E-02
 -1      1276-7.73565E-02-4.00329E-01-2.38171E-01 7.31356E-03-3.82173E-01 3.49887E-02
 -1      1277 1.65989E-02-3.05125E-01-5.61923E-02-2.66083E-03-2.60725E-01-1.11485E-03
 -1      1278 2.58078E-02-2.95060E-01 4.20195E-02 4.41045E-03-1.47682E-01-4.84004E-03
 -1      1279-1.73260E-01-7.74472E-01-1.64664E+00 1.74240E-02-8.66545E-01 8.91156E-02
 -1      1280-3.07539E-02-5.65059E-01-7.94260E-01 5.10281E-03-7.25839E-01 4.42345E-02
 -1      1281 7.83317E-02-6.91936E-01-3.96166E-01 2.23022E-03-4.67719E-01-5.44086E-02
 -1      1282-1.65265E-01-7.78444E-01-3.16940E+00-2.43723E-02-7.08624E-01 2.17479E-01
 -1      1283-5.10039E-03-5.21755E-01-2.54378E+00 4.49969E-02-7.76266E-01 1.32510E-01
 -1      1284-2.53327E-01-8.11364E-01-3.79291E+00-3.30588E-02-3.67101E-01 3.10169E-01
 -1      1285-2.11988E-01-7.65948E-01-3.54217E+00 4.99541E-02-5.14242E-01 2.23688E-01
 -1      1286 6.26139E-02-5.81314E-01-3.54840E+00 2.48791E-02-5.80336E-01-9.54992E-02
 -1      1287-2.45061E-01-7.47372E-01-3.94037E+00-3.23520E-02 1.08071E-01 3.21123E-01
 -1      1288-2.41779E-01-7.54545E-01-3.91880E+00 3.28569E-02-1.24105E-01 3.09551E-01
 -1      1289 5.03114E-02-3.33408E-01-3.94413E+00-6.88738E-03-2.75434E-01-9.37025E-02
 -1      1290-1.70471E-01-7.45414E-01-3.50986E+00-4.65365E-02 5.23590E-01 2.21602E-01
 -1      1291-2.22111E-01-7.94892E-01-3.78493E+00 2.96043E-02 3.76444E-01 3.03341E-01
 -1      1292 3.25792E-02-3.23987E-01-3.92043E+00-5.00873E-03 2.77706E-01-6.74501E-02
 -1      1293-3.35196E-02-5.53330E-01-2.60041E+00-3.74832E-02 7.62124E-01 1.04213E-01
 -1      1294-1.59634E-01-7.79054E-01-3.18958E+00 3.60139E-02 7.11870E-01 2.23046E-01
 -1      1295 7.14730E-02-5.75314E-01-3.51983E+00-8.88473E-03 5.79388E-01-8.50766E-02
 -1      1296-5.45862E-02-5.77085E-01-7.86192E-01 5.65245E-03 7.02517E-01 6.26678E-02
 -1      1297-1.93873E-01-7.97469E-01-1.66184E+00 4.17283E-03 8.96342E-01 8.61635E-02
 -1      1298 3.70078E-02-2.94547E-01-3.33549E-02-9.48553E-03 2.53703E-01-1.77908E-03
 -1      1299-7.77715E-02-4.07184E-01-2.49240E-01-1.88858E-02 3.90600E-01 3.82412E-02
 -1      1300 1.30870E-01-6.72222E-01-3.73931E-01-8.69395E-03 4.57894E-01-1.97085E-02
 -1      1301 4.33264E-02-2.73668E-01 4.86494E-02-1.10665E-02 1.35971E-01 6.55764E-05
 -1      1302-6.82040E-02-4.07874E-01-4.87814E-02 5.78379E-02 8.13708E-02 8.46047E-04
 -1      1303-1.13530E-02-2.75396E-01 4.28569E-04-1.53568E-03 3.31518E-02 1.28422E-02
 -1      1304 8.55848E-03-2.24587E-01 2.89875E-02-2.96971E-04 6.40073E-02-5.85719E-04
 -1      1305 6.09570E-02-3.12771E-01-8.56638E+00 2.95189E-02 2.42352E+00-2.02705E-01
 -1      1306 6.32371E-01 3.82553E-01-1.21307E+01 1.71214E-01-1.75752E+00-1.09921E+00
 -1      1307-2.77029E-01 5.30624E-01-1.29185E+01 8.42753E-02-1.10639E+00-1.20865E+00
 -1      1308 1.39844E-01 1.43297E-01-1.02188E+01-3.01182E-02-2.15174E+00-5.57150E-01
 -1      1309-3.28485E-01 7.10056E-01-1.28999E+01 7.30881E-02-2.95796E-01-1.16632E+00
 -1      1310-4.77647E-01 5.27938E-01-1.27521E+01-8.59091E-02 2.56587E-01-1.26491E+00
 -1      1311 3.38761E-01 9.33265E-01-8.92120E+00 9.22246E-02-7.97148E-01-2.83680E-01
 -1      1312-2.93819E-01 5.05169E-01-1.25392E+01-6.74488E-02 1.15730E+00-1.18437E+00
 -1      1313-1.98008E-01 1.99321E-01-1.22232E+01-7.11988E-02 1.73319E+00-1.08930E+00
 -1      1314 3.19305E-01 9.92745E-01-9.02710E+00-1.14681E-01 7.34998E-01-2.95278E-01
 -1      1315 3.01160E-03 2.00940E-01-9.72857E+00-2.95435E-02 2.07222E+00-4.00793E-01
 -1      1316-5.23631E-02-3.62278E-01-8.53768E+00 4.01968E-03-2.43447E+00-2.39428E-01
 -1      1317-1.37799E-02-2.72584E-01 2.14913E-02-1.05971E-02-2.71056E-02 1.23577E-03
 -1      1318-5.76644E-02-4.25803E-01-5.57871E-02-2.81122E-02-6.22916E-02-2.86555E-02
 -1      1319 3.57534E-03-2.36153E-01 3.35384E-02-2.38696E-03-6.40833E-02-4.98747E-03
 -1      1320 1.34700E-01 8.11695E-01-6.99004E+00-1.31263E-02-3.23084E-01-7.44238E-02
 -1      1321 2.13223E-01 3.15013E-01-5.64366E+00 2.13395E-02 4.01020E-02-3.19096E-02
 -1      1322 1.25022E-01 8.24636E-01-7.06143E+00-4.50089E-03 3.02722E-01-2.63420E-02
 -1      1323 2.92122E-01 5.14022E-01-6.78054E+00 1.29504E-01-9.92468E-01-8.58897E-02
 -1      1324 2.14857E-01 4.44406E-01-7.01443E+00-1.17100E-01 1.02893E+00-1.40218E-01
 -1      1325 1.75249E-01-5.36797E-01-4.13173E+00-1.45769E-02 7.66078E-01-1.08049E-01
 -1      1326 6.59224E-02-7.00472E-02-4.46696E+00 6.31631E-03 5.06805E-01-8.28129E-02
 -1      1327 4.30994E-02 3.60493E-02-4.63089E+00-7.67839E-03 2.59192E-01-5.56073E-02
 -1      1328 1.03772E-01-8.02191E-02-5.25817E+00-3.31405E-02 8.06376E-01-3.05691E-02
 -1      1329 1.79475E-01-5.46215E-01-4.15338E+00 1.93058E-02-7.63174E-01-1.09419E-01
 -1      1330 1.19566E-01-5.36857E-04-4.64242E+00 2.27811E-02-2.39880E-01-9.65776E-02
 -1      1331 1.02458E-01-5.80038E-02-4.50157E+00-1.12276E-02-4.90115E-01-9.51765E-02
 -1      1332 1.13734E-01-6.80721E-02-5.24704E+00 3.25715E-02-8.17908E-01-2.96883E-02
 -1      1333 8.67856E-02 9.75618E-02-7.69129E+00 1.86512E-01-2.00897E+00-1.77502E-01
 -1      1334 4.34334E-02-1.81992E-01-6.45570E+00 1.02087E-01-1.45482E+00-3.95239E-02
 -1      1335 7.82045E-02-1.76832E-02-7.75570E+00-1.57309E-01 2.05840E+00-2.25994E-01
 -1      1336 2.25743E-02-2.53394E-01-6.58467E+00-8.71269E-02 1.49313E+00-1.16970E-01
 -1      1337-1.78949E-02-2.11233E-03 4.90318E-04 3.07315E-02 1.53517E-03 2.06292E-03
 -1      1338-3.26455E-02 3.35425E-02-2.35639E-02-3.52337E-02 4.21660E-02 1.14280E-02
 -1      1339-4.71739E-01-2.74139E-01-1.22190E-01-3.50557E-01 1.07981E-01 3.53492E-02
 -1      1340-1.34931E-02-1.40735E-02 4.77633E-03 4.64115E-02-1.94776E-03 6.60373E-03
 -1      1341 1.27030E-03 2.76073E-02-2.31861E-03 2.07101E-02 5.73203E-04 1.93984E-04
 -1      1342 3.12369E-03 1.30677E-02-1.33208E-03 2.15089E-02-6.29997E-03-1.46721E-03
 -1      1343 5.29923E-02-8.39881E-02 1.16523E-01 5.60158E-02-6.98950E-02 2.99132E-02
 -1      1344-4.59200E-01-4.13691E-03 2.05680E-01-7.80608E-02-3.79803E-02 9.84123E-02
 -1      1345-3.25803E-01-8.13837E-02 1.30377E-01 1.53131E-01-3.08183E-03-1.06392E-02
 -1      1346-6.24797E-01-3.66062E-01-3.25337E-01-5.38308E-01 1.93309E-01-1.88358E-02
 -1      1347-2.55678E-01-6.23342E-02 1.12555E-02-2.96971E-02 5.39955E-04 2.32707E-02
 -1      1348-1.03941E-01-4.74292E-02 8.04145E-03 4.55391E-02-4.71886E-03 3.01450E-02
 -1      1349-3.64897E-02-3.84463E-02-1.54496E-02 6.75498E-02-5.34506E-03 6.46993E-03
 -1      1350-1.74357E-01-7.92907E-02-2.41177E-03-3.65597E-02 9.30717E-03 1.16281E-02
 -1      1351-8.68226E-02-4.25009E-02-4.81115E-04 3.76053E-02 3.72846E-03 4.60768E-03
 -1      1352-9.68350E-02-4.17897E-02-3.87439E-03 3.76473E-04 2.69952E-02 8.08904E-03
 -1      1353 4.35039E-03-3.42000E-03 2.21327E-03 3.86990E-02-4.03169E-03 5.63128E-03
 -1      1354-5.81640E-01-2.67270E-01-2.71870E-01-4.28019E-01 1.83394E-01-2.70903E-02
 -1      1355-2.76434E-01-2.45914E-01-4.87812E-02-2.15835E-01 9.44602E-02 2.25003E-02
 -1      1356-1.73715E-02-2.20105E-03-4.89395E-05 3.74450E-02 1.24556E-03 2.41519E-03
 -1      1357-1.19042E-02 5.20280E-02 2.03711E-03 1.77933E-02 6.08598E-03 3.55254E-03
 -1      1358-1.09443E-02 7.51846E-03 2.26737E-03 2.83611E-02 2.85713E-04-5.03620E-04
 -1      1359-4.65305E-02 4.10731E-03-1.78260E-02-1.42834E-02 4.06432E-02 2.08653E-03
 -1      1360-3.96486E-02-2.43834E-02-4.05810E-03 2.04828E-02 1.87344E-02 3.10288E-04
 -1      1361-5.77076E-02-2.10569E-01 8.10754E-02 1.86560E-01 7.93481E-03-7.21931E-04
 -1      1362-4.89971E-02-4.50175E-02 1.22871E-02 6.53726E-02-2.98389E-03 8.03911E-03
 -1      1363 1.08411E-02-1.36629E-02-6.55432E-03 4.29045E-02-1.04738E-02 2.86440E-03
 -1      1364-2.06712E-01-3.00622E-01-1.07216E-02-2.58332E-01 1.02056E-01-3.42263E-03
 -1      1365-4.18835E-01-6.52509E-03 1.24485E-01-2.78976E-01-3.66526E-02 1.88155E-01
 -1      1366-2.79819E-01-1.08777E-01-8.16008E-02-1.31066E-01 8.65099E-02 3.17104E-02
 -1      1367-1.73480E-03 4.26775E-03 2.21478E-03 2.13116E-02-1.37465E-03 6.00227E-04
 -1      1368-9.22529E-03-2.17031E-03 1.95481E-03 2.57580E-02 1.57670E-03 9.78918E-04
 -1      1369 3.25187E-04-5.06516E-03-3.13568E-03 3.50127E-02-1.10305E-02-5.60502E-03
 -1      1370-1.01807E-02-2.82034E-02 7.76657E-03 5.60586E-02-1.66779E-02 1.30796E-02
 -1      1371-4.37814E-02-2.66935E-02 1.61394E-03 3.00325E-02 2.84342E-03 3.29363E-03
 -1      1372 2.10605E-01-6.67875E-04 4.77337E-01 1.03520E-01-3.04204E-01-4.68992E-03
 -1      1373 1.15115E-03 8.95099E-03-2.34451E-04 1.19354E-02 1.95670E-03 9.83395E-04
 -1      1374-1.39965E-03 7.06506E-03-1.84347E-03 1.17571E-02-1.08146E-02-2.89506E-03
 -1      1375 1.19607E-02 1.57281E-02-5.61056E-03 2.90265E-02-1.48281E-02 3.94114E-03
 -1      1376-5.88180E-01-3.31263E-01-3.33329E-01-7.48057E-01 1.60702E-01 2.26442E-02
 -1      1377-3.84591E-02-2.74120E-02 1.61874E-03 4.43386E-02-9.09778E-04 2.43454E-03
 -1      1378-1.28348E-01-3.49997E-02-2.25068E-02-6.82458E-02 5.87252E-02 1.14370E-02
 -1      1379-6.14291E-01-5.98703E-02 2.05505E-01-3.30014E-01 7.23302E-02 1.31205E-01
 -1      1380-1.66585E-01-1.76961E-01-3.18982E-02-1.46364E-01 5.08394E-02-1.24286E-03
 -1      1381-2.61807E-01-1.03955E-01-9.88598E-03-1.17634E-01 1.16085E-02 3.55166E-02
 -1      1382 1.09767E-03 1.04252E-02 1.31273E-03 6.66641E-03 2.21568E-03 9.24791E-04
 -1      1383 1.77042E-03 5.74597E-03-7.71091E-04 5.21974E-03 2.05714E-03 1.44611E-03
 -1      1384 2.94522E-04 5.68956E-02-1.63428E-03 1.12164E-02 7.85776E-04 1.14485E-03
 -1      1385 2.82693E-03 2.02155E-02 3.37861E-04 1.03186E-02 1.85337E-03-6.71693E-04
 -1      1386 1.27492E-03 1.75003E-02-2.12208E-03 1.64480E-02 1.69891E-03 3.44588E-04
 -1      1387 1.11879E-03 2.75714E-03-2.11879E-03 6.77796E-03 9.93407E-04 4.40763E-04
 -1      1388 3.49654E-03 3.99673E-03 1.25364E-03 1.03857E-02 1.93121E-04 1.88495E-03
 -1      1389-1.63336E-03 1.61350E-03 2.66896E-03 1.51883E-02-5.72461E-04-4.12356E-04
 -1      1390 1.09718E-03 5.70398E-03-1.93893E-04 1.52495E-02 4.95516E-04 5.91389E-04
 -1      1391-2.62209E-05 4.92060E-03 4.40556E-03 5.14891E-03-8.11142E-03-7.50606E-04
 -1      1392-5.41188E-03 1.86256E-03 1.56160E-03 4.23062E-03-9.92720E-03 2.24261E-03
 -1      1393 7.50113E-03 8.84932E-03-3.63045E-04 1.46101E-02-5.65278E-03-1.87353E-03
 -1      1394-4.62155E-04 6.54509E-03 1.30715E-03 9.02156E-03-5.12607E-03-1.02265E-04
 -1      1395 1.48894E-03 9.25561E-03-1.27655E-03 1.52498E-02-8.39169E-03-2.00893E-03
 -1      1396-2.58775E-03 1.34492E-02-2.71312E-03 9.53206E-03-1.03461E-02-1.52029E-03
 -1      1397-2.12162E-03-7.19027E-03-8.15080E-04 1.85620E-02-3.30741E-03 5.06068E-05
 -1      1398-9.12184E-03-3.01213E-02-1.36500E-02 2.12224E-02-1.91048E-02-6.48143E-03
 -1      1399-9.38965E-04-3.00092E-04-1.75762E-03 2.23594E-02-7.91948E-03-3.71034E-03
 -1      1400-5.71390E-01-9.24650E-02 2.38971E-01-1.20269E+00-4.94666E-01 6.95235E-02
 -1      1401-2.82859E-01-2.19527E-01-3.43014E-01-4.30812E-01 2.01919E-01-4.21686E-02
 -1      1402-4.74843E-01 2.85703E-01 3.62800E-01-1.36526E+00-5.63645E-01 4.97115E-01
 -1      1403 1.45247E-01 4.96934E-02 3.99256E-01 8.11883E-02-2.90657E-01 1.59739E-02
 -1      1404 9.07241E-02-1.65083E+00-5.58504E-01 2.26955E-01 9.45487E-01-1.10437E-01
 -1      1405-4.35276E-01-1.44319E+00-1.10303E+00 7.95218E-01 9.64478E-01-6.53993E-01
 -1      1406-1.29559E+00-4.84741E-01-8.22092E-01-3.07418E-01 1.97506E-01-4.36076E-01
 -1      1407-8.43781E-01-5.38368E-02 2.12514E-01-3.15481E-01 5.03350E-02 1.75551E-01
 -1      1408-1.69382E+00-5.53028E-01-5.09778E-01-3.08266E-01 2.14297E-02-7.47441E-01
 -1      1409-1.36191E+00-2.43910E-01-2.64670E-01 1.19717E-01 7.47529E-02-4.97147E-01
 -1      1410-1.61824E+00-4.57613E-01-4.03843E-01-1.95060E-01-9.37399E-02-7.22772E-01
 -1      1411-6.38294E-01-6.33587E-01-2.40216E-01 5.97168E-01 3.61533E-01-2.69667E-01
 -1      1412-9.97062E-01-3.54770E-01-2.63612E-01 3.94586E-01 2.05420E-01-4.29960E-01
 -1      1413-5.38110E-01-1.11134E-01 1.08809E-01 2.88941E-02 2.58095E-02-2.97287E-04
 -1      1414-3.39214E-01-3.49196E-01-6.90957E-02 4.15108E-01 2.96177E-01-1.96848E-01
 -1      1415-1.60794E-01-1.18667E-01 1.98049E-01 1.83175E-01-2.97078E-02 1.05250E-02
 -1      1416 1.39644E-01-1.59381E-02 3.29231E-01 8.59145E-02-1.19876E-01-4.51334E-04
 -1      1417-8.64068E-03-1.58006E-03-1.21497E-03 1.67013E-02 2.73883E-04 6.55847E-04
 -1      1418-7.10760E-03 5.08035E-04 1.18123E-03 1.70604E-02 1.17531E-04-3.03452E-03
 -1      1419-6.28324E-03 1.24516E-03 2.54987E-03 2.35693E-02-1.14229E-04 5.63607E-04
 -1      1420-1.47183E-02 1.84685E-04 1.82246E-03 1.84734E-02-3.78036E-04-1.66277E-03
 -1      1421-9.95909E-03 2.04727E-03 1.01899E-03 2.04369E-02-2.08152E-03-1.36823E-03
 -1      1422-1.15375E-02 1.20843E-03 2.23120E-03 2.89907E-02 1.22618E-03-1.03969E-03
 -1      1423-1.17754E-02 1.72430E-03 1.73060E-03 2.23882E-02-3.16622E-03-2.18936E-03
 -1      1424-8.37790E-03 2.77526E-03 2.67477E-03 2.28296E-02-1.30246E-03-6.83563E-04
 -1      1425-1.85484E-02-2.29269E-03-6.42057E-04 3.51401E-02 1.27406E-04 5.50345E-04
 -1      1426-8.71518E-03 3.20916E-03 2.93219E-03 2.76481E-02-2.04553E-03 1.64863E-03
 -1      1427 3.06259E-04 2.48041E-03 3.16594E-03 2.83037E-02-3.19804E-03 2.35349E-03
 -1      1428-1.53715E-02-4.78905E-03 7.31762E-04 4.15002E-02 2.62411E-03 4.28486E-03
 -1      1429 7.84861E-03 4.68684E-03 3.60363E-03 2.54647E-02-4.77757E-03 1.06948E-03
 -1      1430 7.66910E-03 4.50158E-03 1.49736E-03 2.21452E-02-4.57397E-03 2.80756E-03
 -1      1431-3.07451E-03-7.85391E-03-9.60105E-04 4.35396E-02-3.33241E-03 4.91201E-03
 -1      1432 5.42514E-03 6.08006E-03-1.98722E-04 2.93489E-02-5.40546E-03 2.03768E-03
 -1      1433-1.84471E-01-3.43459E-01-6.15954E-02-2.25893E-01 2.47148E-02-6.41333E-03
 -1      1434-7.71158E-02-5.61440E-02-3.55269E-02-1.11885E-01 5.49763E-02-9.84611E-03
 -1      1435-3.70401E-01-3.97350E-01-9.78701E-03-4.95962E-01 4.87521E-02-3.11692E-02
 -1      1436-4.00379E-02 2.38561E-02-2.96037E-02-3.19002E-02 3.25324E-02 3.90859E-04
 -1      1437-3.62847E-03 1.07054E-01-1.73550E-02-1.30785E-02 2.16607E-02-2.79035E-03
 -1      1438-1.08880E-01-1.52343E-01-1.52533E-02-1.39883E-01 7.63346E-02-4.47161E-03
 -1      1439-1.12186E-02 1.07927E-01-2.76409E-03 2.57880E-03 5.01023E-03 2.92193E-03
 -1      1440-2.71144E-03 7.82411E-02 1.25147E-03 1.21109E-02 4.53469E-03 9.58176E-04
 -1      1441-1.95030E-02 4.47159E-02-6.40023E-03-6.77928E-03 8.62009E-03-5.61516E-05
 -1      1442-5.60078E-03 3.92348E-02-8.63540E-04 2.15512E-02 1.34325E-03 2.32307E-03
 -1      1443-2.64567E-03 5.89694E-02 4.51568E-02 3.02352E-02-6.67525E-02-2.19824E-03
 -1      1444-1.41672E-02 9.89602E-02 3.27027E-02 7.09953E-02-4.29828E-02-1.89779E-02
 -1      1445 2.07274E-01 8.55178E-02 2.65308E-01 1.33235E-02-1.37740E-01 5.17136E-02
 -1      1446-1.22242E-02 6.21806E-03 2.08620E-02 5.26447E-02-3.61777E-02-4.23674E-04
 -1      1447-3.42682E-01 1.75000E-01 2.02039E-01-1.13360E+00-3.61881E-01 4.06904E-01
 -1      1448-5.65302E-01 2.24559E-01 3.42937E-01-1.16474E+00-4.64942E-01 3.31172E-01
 -1      1449-6.85270E-01-3.58993E-01-3.22712E-01-6.81999E-01 1.07709E-01-1.11643E-03
 -1      1450-4.85501E-01 3.19176E-01 1.55901E-01-1.00026E+00-3.25657E-01 2.82952E-01
 -1      1451-2.90793E-01 3.29495E-01 4.41183E-01-1.12883E+00-4.69837E-01 4.29411E-01
 -1      1452-5.91095E-01-2.27649E-01-3.20247E-01-4.82123E-01 1.66460E-01-6.13915E-02
 -1      1453-3.39808E-01 1.95239E-01 1.46615E-01-7.27823E-01-2.31081E-01 2.13752E-01
 -1      1454-3.05313E-01 3.39378E-01 2.36191E-01-9.95452E-01-3.54605E-01 3.26684E-01
 -1      1455-5.44155E-01-4.60457E-01-2.88722E-01-3.56521E-01 2.60457E-01-1.78075E-03
 -1      1456-5.00263E-01 1.56681E-02 1.96130E-01-3.81149E-01-6.37340E-02 2.83509E-01
 -1      1457-4.70516E-01 1.83106E-01 4.10075E-01-5.80663E-01-2.48277E-01 3.74541E-01
 -1      1458-3.18880E-01-1.63679E-01-2.32168E-02-3.66596E-01 1.73846E-02 8.93436E-02
 -1      1459-4.28601E-01-1.50322E-02 2.41691E-01-3.28961E-01-6.94327E-02 2.16114E-01
 -1      1460-3.37450E-01-3.65045E-03 3.19041E-01-2.51320E-01-1.55170E-02 2.85931E-01
 -1      1461-3.10971E-02-1.29200E-02 2.32677E-03 3.55528E-02 3.32855E-03 2.61861E-03
 -1      1462-2.84435E-02-1.15949E-02 2.32648E-03 3.75747E-02 3.21900E-03 3.35633E-03
 -1      1463-2.03917E-02-1.62727E-02 9.39904E-05 2.60957E-02 5.46331E-03 2.38647E-03
 -1      1464-2.69437E-02-1.77487E-02-2.48726E-03 2.56089E-02 6.81213E-03 4.85573E-03
 -1      1465-4.75567E-02-3.35471E-02-4.38565E-03 2.29520E-02 7.83525E-03 5.58199E-03
 -1      1466-4.75892E-02 3.53154E-02-2.29909E-02-4.43821E-02 4.31059E-02 9.39737E-03
 -1      1467-3.35184E-02-2.30104E-03-7.29897E-04 2.64164E-03 1.07668E-02 6.95822E-03
 -1      1468-1.00561E-01-1.01814E-01-1.84154E-02-9.79191E-02 4.34306E-02 3.03399E-03
 -1      1469-8.69267E-02-2.45805E-02 1.62078E-02-8.32146E-02 2.43768E-02-1.77220E-02
 -1      1470-2.29556E-01-2.67457E-01-3.00902E-02-2.15303E-01 7.57123E-02 5.63040E-03
 -1      1471-4.26361E-01-1.92284E-01-8.94254E-02-2.30169E-01 6.62492E-02 2.13472E-02
 -1      1472-3.30798E-01-2.43719E-01-1.07354E-01-2.58980E-01 1.34923E-01-1.01940E-02
 -1      1473-2.15154E-01-8.65161E-02-1.82130E-02-2.30612E-01 1.60407E-02 8.10271E-02
 -1      1474-3.53908E-01-1.78545E-01-7.22565E-03-2.48166E-01 6.46828E-03 6.12924E-02
 -1      1475-2.80576E-01-1.48034E-01-4.10430E-02-1.24125E-01 4.76252E-02 4.10899E-02
 -1      1476-1.27088E-02-2.21107E-02 9.45573E-04 5.08504E-02-1.22134E-02 8.23402E-03
 -1      1477-8.23506E-04-9.59194E-03 5.53282E-03 5.02718E-02-8.10842E-03 7.58682E-03
 -1      1478-2.71813E-02-9.74746E-03 1.47722E-03 4.23954E-02 5.60638E-04 1.24012E-03
 -1      1479-2.39470E-02-1.50106E-02 2.69956E-03 4.73764E-02 1.17054E-03 1.37842E-03
 -1      1480-2.33676E-02-3.06935E-02 1.37723E-02 5.75278E-02-1.36709E-02 9.16851E-03
 -1      1481-3.03263E-02-2.91835E-02 4.95197E-03 5.74676E-02-1.10590E-03 2.34854E-03
 -1      1482-4.43485E-02-3.96262E-02 5.96453E-03 5.50832E-02 1.81310E-04 4.31197E-03
 -1      1483-1.01057E-02 2.23043E-02 9.04860E-04 1.97962E-02 2.09072E-03 3.08182E-03
 -1      1484-2.24032E-03 1.45737E-02 1.74755E-03 2.43378E-02 1.26002E-03-1.45604E-03
 -1      1485-4.85025E-03 8.39453E-03 3.57471E-03 2.46389E-02 1.65478E-04-2.89712E-03
 -1      1486-1.66631E-03 1.16403E-02-2.44460E-03 1.95176E-02 1.40009E-03-1.02896E-03
 -1      1487 1.04709E-02 1.02567E-02-1.66648E-04 3.26651E-02-1.28057E-02 3.07537E-03
 -1      1488 5.97724E-03 1.81859E-02-4.07715E-03 2.78770E-02-9.85005E-03-5.38137E-05
 -1      1489-1.45320E-03 6.58447E-03 2.74406E-03 2.70076E-02-8.70495E-03-5.45687E-03
 -1      1490-1.89639E-03 1.56615E-02-2.18411E-03 3.47440E-02-1.41808E-02-1.40459E-03
 -1      1491 4.96785E-02-1.40004E-02-6.57635E-03 2.50874E-02-1.04370E-03 1.49517E-02
 -1      1492-1.19647E-02-8.69094E-02 4.95323E-03 8.57612E-02 1.62258E-02-9.32812E-03
 -1      1493 8.26998E-03-1.78206E-01 9.47615E-02 1.16939E-01-2.61326E-02 2.37556E-02
 -1      1494 4.48913E-02 3.05298E-02 4.81034E-03 1.69819E-02-1.89993E-02 1.10163E-02
 -1      1495 1.21885E-02-3.69178E-03-4.89041E-03 3.79697E-02-1.39877E-02 5.82271E-03
 -1      1496-1.70496E-01-5.90010E-02 1.92138E-02-2.76064E-03-7.13402E-03 3.79671E-02
 -1      1497-3.10391E-01-5.02720E-02-8.56197E-03-8.93893E-02-3.22442E-02-2.55214E-02
 -1      1498-2.52105E-01-2.97301E-02 3.62387E-02-1.75587E-01-1.27920E-02 7.24763E-02
 -1      1499-5.16257E-01-8.13605E-02 1.21103E-01-1.63376E-01-3.40248E-02 8.20730E-02
 -1      1500-8.55803E-02-2.13285E-02 3.51883E-02 3.64492E-02-3.42708E-02 4.81661E-02
 -1      1501-1.89600E-01-6.60024E-02 1.18083E-02 1.85993E-02 1.25567E-03 2.86656E-02
 -1      1502-9.63607E-02-3.94628E-04 2.73456E-02 6.50111E-02-2.88344E-02-9.25331E-04
 -1      1503-7.31601E-02-3.99438E-02-7.59730E-03 4.65185E-02-8.41603E-03 1.09981E-02
 -1      1504-6.43910E-02-9.53118E-02-1.97708E-02 1.11724E-01 2.47802E-02-1.53279E-02
 -1      1505-4.15454E-01-3.35318E-01-5.96245E-02-2.98791E-01 1.01623E-01 3.30764E-02
 -1      1506-3.81133E-01-3.19924E-01-3.23285E-02-3.66290E-01 7.27311E-02 4.38967E-02
 -1      1507-2.24054E-01-2.30626E-01-5.59497E-02-1.73567E-01 7.57051E-02 1.04760E-02
 -1      1508-3.30510E-01-3.15754E-01-1.07950E-02-3.27613E-01 5.13521E-02 4.79291E-02
 -1      1509-3.93535E-01-4.39986E-01-5.17458E-03-4.32506E-01 6.89681E-02 7.94482E-02
 -1      1510-1.19801E-01-6.33575E-02 4.87917E-03 1.25021E-02 2.37638E-03 1.95178E-02
 -1      1511-1.87471E-01-5.54647E-02 1.22914E-02-3.08198E-02 5.02117E-03 1.57549E-02
 -1      1512-2.22336E-01-7.84277E-02-4.99290E-03-7.40663E-02 7.41537E-03 2.13437E-02
 -1      1513-2.59518E-01-7.01584E-02-3.64481E-03-7.82905E-02 1.05174E-02 2.09951E-02
 -1      1514-3.87436E-02-3.86519E-02-2.67612E-05 6.09482E-02-1.13361E-02 8.88775E-03
 -1      1515-8.02669E-02-4.24708E-02 8.47171E-03 5.55345E-02-5.26708E-03 1.93867E-02
 -1      1516-8.53177E-02-4.06377E-02 5.57836E-03 4.03984E-02 1.74577E-04 1.65837E-02
 -1      1517-1.28855E-01-6.37218E-02-2.34738E-03 1.31508E-02 9.66513E-03 1.08375E-02
 -1      1518-6.61889E-02-3.84690E-02 1.01640E-02 5.13615E-02-3.76699E-03 7.56394E-03
 -1      1519-4.82749E-03-1.88560E-02-1.07484E-02 5.44390E-02-7.86414E-03 4.46658E-03
 -1      1520-1.71688E-02-2.99239E-02-4.75478E-03 6.07479E-02-1.56617E-02 1.12875E-02
 -1      1521-3.93849E-03-2.53954E-02-3.95613E-03 5.11691E-02-1.36939E-02 6.70923E-03
 -1      1522-9.42379E-02-5.42883E-02-2.50308E-03 1.62817E-02 7.84346E-03 9.07378E-03
 -1      1523-1.45522E-01-7.79626E-02 5.40619E-04-1.98036E-02 1.19169E-02 1.68967E-02
 -1      1524-1.83197E-01-1.14019E-01-3.18675E-02-5.72333E-02 4.66759E-02 3.00846E-02
 -1      1525-2.26020E-01-8.87221E-02-1.92976E-02-9.86881E-02 2.25066E-02 2.75292E-02
 -1      1526-6.53683E-02-3.47178E-02-4.01531E-04 2.99712E-02 2.13104E-03 3.10826E-03
 -1      1527-6.89810E-02-4.43513E-02-3.53658E-03 1.61665E-02 8.33313E-03 5.88697E-03
 -1      1528-6.34301E-02-3.67924E-02 6.53005E-04 4.15324E-02 1.24825E-03 3.23277E-03
 -1      1529-4.18037E-02-2.38389E-02 1.73432E-03 3.71245E-02 1.55098E-03 3.72414E-03
 -1      1530-6.60491E-02-3.47378E-02-4.88272E-03 1.20709E-02 2.23710E-02 5.19026E-03
 -1      1531-7.45051E-02-4.27518E-02-1.35123E-02-4.77275E-03 2.90226E-02 9.63887E-03
 -1      1532-1.05050E-01-2.45024E-02-8.87534E-03-3.88670E-02 3.49794E-02 1.17099E-02
 -1      1533-2.04595E-01-9.01383E-02-3.54347E-02-9.41088E-02 7.05132E-02 1.66797E-02
 -1      1534 1.25232E-02-4.23285E-03-2.82820E-03 4.11479E-02-1.24123E-02 4.34399E-03
 -1      1535-2.77182E-01-2.02375E-01-5.64028E-02-1.50195E-01 1.09186E-01-1.40491E-02
 -1      1536-1.79444E-01-1.17662E-01-9.05779E-03-1.30887E-01 7.42016E-02-1.07691E-02
 -1      1537-1.38295E-01-9.16507E-02 3.27188E-03-9.81046E-02 3.99659E-02-1.76712E-02
 -1      1538-2.54484E-02-1.88078E-02-2.90363E-03 1.40748E-02 1.00103E-02 6.57791E-03
 -1      1539-4.13968E-02-3.09797E-02-1.34440E-02 1.25951E-03 2.57610E-02 6.46727E-03
 -1      1540-2.55402E-02-1.17861E-02-1.81841E-03 2.70025E-02 7.24895E-03 1.17704E-03
 -1      1541-1.39595E-02 1.44102E-03 2.87474E-03 2.82263E-02 4.80728E-04 1.68755E-04
 -1      1542-8.33626E-02-1.26983E-02-7.30171E-03-4.41831E-02 3.80792E-02 5.69760E-03
 -1      1543-1.95119E-02-8.47795E-03 2.54877E-03-3.11231E-02-4.37792E-03 2.63133E-05
 -1      1544-4.43326E-02-2.32585E-02-1.51306E-02 4.66002E-02-3.65374E-02-2.54122E-03
 -1      1545-4.66709E-01-2.09127E-01-1.64100E-01 3.62675E-01-1.19432E-01 5.52908E-02
 -1      1546-9.01103E-03-5.65691E-03 1.96477E-03-4.36044E-02 2.40917E-03 4.06060E-03
 -1      1547 1.92917E-03 2.97399E-02-1.27364E-03-1.93542E-02-9.64669E-04-3.56153E-04
 -1      1548 2.14810E-03 2.67422E-03-1.85642E-03-2.27624E-02 5.63357E-03-1.08732E-03
 -1      1549 2.00138E-02 3.71262E-02 2.68410E-02-3.96325E-02 5.89200E-02 6.18598E-03
 -1      1550-3.87780E-01 1.79241E-02 2.21966E-01 8.70873E-02 2.20333E-02 1.13321E-01
 -1      1551-1.27521E-01-4.09135E-02 4.47301E-02-6.69239E-02 3.46878E-02 4.29945E-02
 -1      1552-5.38837E-01-3.91892E-01-1.79857E-01 4.99723E-01-1.92303E-01 2.45641E-02
 -1      1553-2.18018E-01-6.79551E-02 2.75772E-02 4.13369E-02-6.32595E-04 4.85222E-02
 -1      1554-1.13586E-01-5.22870E-02 3.13852E-02-4.89391E-02 1.28799E-02 3.04659E-02
 -1      1555-3.61299E-02-4.34933E-02 2.28517E-02-7.78258E-02 3.27955E-02 2.25178E-02
 -1      1556-1.74699E-01-8.14972E-02 3.45068E-03 7.85405E-03-9.89239E-03 1.74379E-02
 -1      1557-9.20793E-02-4.82793E-02 6.50551E-03-3.85116E-02-3.28137E-03 1.88867E-03
 -1      1558-9.55043E-02-5.00634E-02 2.53706E-04-1.47677E-03-5.14550E-03 8.74258E-04
 -1      1559 2.71606E-03-4.45046E-03 2.72256E-03-4.05045E-02 5.02215E-03 3.73210E-03
 -1      1560-5.29452E-01-2.60114E-01-2.08246E-01 4.05754E-01-1.75831E-01 1.89783E-02
 -1      1561-3.18481E-01-2.08609E-01-8.34741E-02 2.59073E-01-9.22444E-02-1.33660E-02
 -1      1562-1.60669E-02-3.73438E-03 1.03181E-03-3.84022E-02-1.08551E-03 3.43330E-03
 -1      1563-5.77327E-03 5.62758E-02-2.43690E-03-1.45401E-02-7.56715E-03-6.24914E-04
 -1      1564-7.15969E-03 1.07802E-02-4.86379E-04-2.57841E-02-3.23718E-04-4.65018E-04
 -1      1565-3.77095E-02-1.30778E-02-2.33620E-03 1.30684E-02-1.37737E-02 5.61819E-03
 -1      1566-3.10086E-02-1.13520E-02-1.56296E-03-2.40037E-02-8.20613E-03 4.54025E-03
 -1      1567-1.73029E-02-2.07122E-01 1.50971E-01-1.53432E-01 2.53210E-02 4.19711E-02
 -1      1568-3.96908E-02-3.85164E-02 4.75328E-03-5.61161E-02 4.27206E-03 7.66803E-03
 -1      1569 1.42459E-02-2.38636E-02 1.09207E-02-5.23321E-02 1.99411E-02 1.10312E-02
 -1      1570-1.95528E-01-2.99941E-01-1.05978E-01 2.77762E-01-1.29583E-01-4.41241E-03
 -1      1571-3.91462E-01-7.17231E-02 5.66824E-02 2.53690E-01-2.76964E-02 1.13825E-01
 -1      1572-2.48131E-01-1.36263E-01-1.08779E-02 1.25043E-01-3.95357E-02 9.63208E-03
 -1      1573-1.34374E-03 4.34978E-03 5.65073E-04-1.85056E-02-1.66658E-03-8.86712E-04
 -1      1574-1.20521E-02 2.48601E-03 1.70041E-03-2.52410E-02-1.80782E-03 5.48127E-04
 -1      1575-4.27850E-03-1.25883E-03-7.48253E-03-3.09297E-02 1.24042E-02-4.58806E-03
 -1      1576-1.53903E-02-2.58345E-02-8.76610E-04-5.89800E-02 1.01443E-02 5.26006E-03
 -1      1577-4.64667E-02-1.59715E-02 9.61368E-04-3.37853E-02 1.10532E-03 4.55732E-04
 -1      1578 1.93643E-01-2.23157E-01 3.69004E-01-1.23580E-01 1.46404E-01 4.77771E-02
 -1      1579-3.04608E-03 3.49837E-03-6.29686E-06-1.13682E-02 1.05236E-02-3.40540E-03
 -1      1580 1.39644E-03 8.84778E-03-6.16808E-04-1.10100E-02-1.84954E-03-8.00989E-04
 -1      1581-6.03739E-01-4.57595E-01-2.53081E-01 7.62459E-01-2.27538E-01 6.20061E-02
 -1      1582 1.28614E-02-1.51671E-04 2.19997E-03-3.13021E-02 1.96917E-02 6.89532E-03
 -1      1583-1.23316E-01-6.48594E-02-5.79503E-03 5.87388E-02-1.84641E-02 5.32079E-03
 -1      1584-4.33471E-02-2.57434E-02 6.82340E-04-4.37631E-02-7.81501E-05 1.91405E-03
 -1      1585-6.16936E-01-6.76523E-02 1.26917E-01 3.07458E-01-9.60664E-02 6.55413E-02
 -1      1586-1.67221E-01-1.62912E-01-8.11481E-03 1.51269E-01-6.07711E-02 1.32743E-02
 -1      1587-3.06956E-01-1.52316E-01-7.96751E-02 1.59677E-01-6.97677E-02 1.59876E-02
 -1      1588 2.09114E-01-6.44189E-01 1.35538E-01-3.11177E-01-2.81810E-01-6.51586E-02
 -1      1589 3.02110E-03 1.06035E-03-1.90217E-03-6.04554E-03-1.64986E-03-2.02799E-04
 -1      1590 1.56459E-03 4.51612E-03-1.17538E-03-5.70704E-03-2.12620E-03 6.08887E-04
 -1      1591-3.49708E-03 9.94176E-04 9.56683E-04-1.32197E-02-7.48506E-04-1.33287E-03
 -1      1592-4.83733E-04 1.71436E-03-2.24574E-03-1.04396E-02-1.82148E-03-2.37715E-04
 -1      1593 9.28735E-04 4.41854E-03-1.41684E-03-1.41944E-02-2.37407E-03-1.16473E-03
 -1      1594 1.27580E-03 1.10404E-02 3.28267E-04-6.73768E-03-1.51742E-03-5.69409E-05
 -1      1595 1.68779E-03 2.14304E-02 2.14179E-04-9.48665E-03-1.86984E-03 6.80125E-04
 -1      1596-4.35267E-05 5.82427E-02-1.35057E-03-1.03700E-02-3.50169E-04 1.08086E-03
 -1      1597 3.13681E-03 1.80384E-02-1.25960E-03-1.51589E-02-1.28746E-03-1.69892E-03
 -1      1598-2.89753E-03 1.29136E-02-2.76761E-03-9.71607E-03 9.91619E-03-1.58636E-03
 -1      1599-4.66458E-03 2.93176E-03 1.79483E-03-4.52746E-03 9.59583E-03 1.76807E-03
 -1      1600-9.66333E-03-2.54514E-02-1.36995E-02-2.39152E-02 1.79710E-02-5.85907E-03
 -1      1601-3.11527E-03-3.36657E-03-4.13415E-04-1.67461E-02 3.01229E-03 1.20819E-03
 -1      1602-3.82806E-03-4.32428E-03-2.93025E-03-2.03540E-02 8.07666E-03-4.06408E-03
 -1      1603-3.40989E-03 6.21316E-03 4.04009E-03-3.79530E-03 7.81456E-03-8.16609E-04
 -1      1604 1.44335E-03 3.83416E-03 5.39537E-04-1.05137E-02 6.36867E-03-8.16682E-04
 -1      1605 6.43125E-03 5.20126E-03-1.27713E-03-1.57958E-02 5.00177E-03-2.24987E-03
 -1      1606 6.06037E-04 2.18692E-03 7.16239E-04-1.62911E-02 8.82360E-03-2.48561E-03
 -1      1607-2.90510E-01-2.17416E-01-2.71905E-01 4.30397E-01-1.73067E-01-2.14051E-02
 -1      1608-6.04694E-01-1.10530E-01 2.92870E-01 1.15701E+00 5.06206E-01 6.32879E-02
 -1      1609-3.29885E-01 2.62713E-01 1.70242E-01 1.34488E+00 4.49766E-01 4.30921E-01
 -1      1610-1.36894E-01-2.44854E+00-1.55820E+00-2.98938E-01-1.65650E+00-2.71874E-01
 -1      1611 2.21405E-01-3.91378E-02 4.01065E-01-1.01919E-01 1.39998E-01 6.47052E-02
 -1      1612-2.65297E-01-2.18332E+00-1.06353E+00-9.18601E-01-1.62487E+00-5.08072E-01
 -1      1613-3.58707E-01-4.93609E-01 3.11830E-02-5.29795E-01-2.47425E-01-2.01291E-01
 -1      1614-2.34272E-01-1.53104E+00-8.76789E-01-6.91968E-01-1.00815E+00-3.93457E-01
 -1      1615-1.70808E+00-4.90616E-01-3.20696E-01 2.13243E-01 1.08139E-01-6.82954E-01
 -1      1616-1.41697E+00-2.73966E-01-2.02672E-01-1.21288E-01-7.76575E-02-4.87419E-01
 -1      1617-2.27301E-01 4.56459E-03 1.09868E-03 2.51442E-02 5.62193E-03 4.27876E-02
 -1      1618-9.55811E-01-3.36288E-01-1.82318E-01-3.60011E-01-1.97836E-01-3.36524E-01
 -1      1619-5.94047E-02-1.36380E-01 8.60061E-02-1.10525E-01 2.14860E-02 5.12479E-02
 -1      1620-5.44288E-01-4.91416E-01-2.38649E-01-4.93785E-01-3.50096E-01-2.97639E-01
 -1      1621-1.02443E-02-3.65622E-01 2.16119E-01-8.84375E-02 6.04432E-02 3.05189E-02
 -1      1622-1.25038E+00-4.73683E-01-7.97345E-01 3.09972E-01-2.05466E-01-4.39137E-01
 -1      1623-1.71003E+00-5.39582E-01-3.99262E-01 2.99512E-01-3.59059E-02-7.15620E-01
 -1      1624-7.99234E-01-2.16328E-02 1.65245E-01 3.51227E-01-5.69806E-02 1.80570E-01
 -1      1625-9.10226E-03-1.09730E-03 1.27760E-03-1.88852E-02-2.19908E-04 1.97703E-04
 -1      1626-7.99643E-03-7.69909E-04-5.29597E-04-1.92707E-02-5.66825E-04 9.28695E-04
 -1      1627-9.10771E-03 2.31663E-03 1.45100E-03-2.30467E-02-1.52368E-03-5.65730E-04
 -1      1628-1.06354E-02 2.04857E-04 2.32900E-03-2.13435E-02 1.12057E-03 1.06457E-03
 -1      1629-1.16870E-02-3.21623E-04 3.99551E-04-2.02612E-02-4.15054E-04 1.30178E-03
 -1      1630-1.21555E-02 1.56721E-03 2.15530E-03-2.67588E-02-3.36809E-03 1.05695E-03
 -1      1631-9.51676E-03 1.91307E-03 3.93481E-03-2.38315E-02 2.14596E-03 5.27410E-04
 -1      1632-1.03971E-02 2.38624E-03 1.58433E-03-2.21845E-02 8.36690E-04 7.24717E-04
 -1      1633-1.50235E-02-4.82666E-03 2.43177E-04-3.36390E-02-2.32994E-04 2.47656E-03
 -1      1634 1.33408E-03 3.65997E-03 6.41735E-03-2.66920E-02 4.77553E-03 9.33792E-04
 -1      1635-4.70674E-03 3.13984E-03 4.03830E-03-2.59637E-02 2.71669E-03 9.33709E-04
 -1      1636-1.44260E-02-3.10569E-03 3.36337E-03-4.09164E-02 4.84761E-04 3.56114E-03
 -1      1637 7.00017E-03 6.28900E-03 2.47746E-03-2.35500E-02 4.78639E-03 1.84804E-03
 -1      1638 6.69988E-03 6.09726E-03 3.41610E-03-2.48920E-02 4.99866E-03 3.74153E-04
 -1      1639-1.40973E-03-5.87658E-03 5.15435E-04-4.18731E-02 3.72643E-03 3.61389E-03
 -1      1640 4.39931E-03 1.44348E-03 1.73994E-03-3.25495E-02 5.18413E-03 1.16056E-03
 -1      1641 2.92038E-04 7.80631E-02-1.08164E-03-9.70095E-03-4.56505E-03 9.27994E-05
 -1      1642-8.83743E-03 1.04237E-01-6.81146E-03-5.56179E-03-4.94428E-03-3.11745E-03
 -1      1643-3.29410E-03 4.45097E-02-1.34232E-03-1.86223E-02-1.79813E-03 1.58291E-03
 -1      1644-2.11046E-02 8.18908E-02-1.01085E-02 1.34472E-02-2.12087E-02 9.56210E-05
 -1      1645-4.18306E-02 2.91300E-02-2.45930E-02 3.55077E-02-2.95052E-02-1.48889E-02
 -1      1646-2.35500E-02 2.58940E-02-1.53443E-03 1.09601E-02-1.71805E-02 2.41245E-03
 -1      1647-1.09129E-01-1.07326E-01-7.42999E-02 1.15384E-01-7.40375E-02-1.81491E-02
 -1      1648-1.72713E-01-3.36197E-01-9.25910E-02 1.99270E-01-5.99358E-02-1.94174E-02
 -1      1649-1.15306E-01-1.68906E-01-2.68010E-02 1.45136E-01-6.95703E-02 6.69250E-03
 -1      1650-3.46463E-01-4.06763E-01-7.00890E-02 5.11298E-01-1.14361E-01 1.84784E-02
 -1      1651 3.33994E-02 1.09599E-01 4.15610E-03-3.66782E-02 5.17020E-02-2.03935E-02
 -1      1652 1.72879E-02 4.42664E-02 3.66069E-02-3.48015E-02 6.08172E-02 7.07739E-03
 -1      1653-1.14826E-02-8.73942E-04 1.06611E-02-5.29866E-02 2.87239E-02-6.09738E-04
 -1      1654 6.88160E-02-1.40717E-01 1.45900E-01-8.68904E-02 1.03466E-01-1.79121E-02
 -1      1655 9.09077E-02 9.02959E-02 1.82856E-02-6.62601E-02 1.30503E-02-1.48696E-02
 -1      1656 2.50731E-01-1.77898E-01 4.67196E-01-2.05343E-01 5.17605E-02-2.17395E-02
 -1      1657-2.60671E-01 1.73939E-02 3.65802E-01 2.30810E-01-1.15587E-02 2.88666E-01
 -1      1658-5.77478E-01 9.24960E-02 1.70419E-01 1.12836E+00 3.98828E-01 2.65006E-01
 -1      1659-5.49629E-01 1.52260E-01 1.13208E-01 1.15361E+00 3.30048E-01 3.25870E-01
 -1      1660-6.25038E-01-5.38778E-01-1.31336E-01 6.48624E-01-1.62666E-01 1.63360E-02
 -1      1661-3.46730E-01 3.43459E-01 1.78372E-01 1.16064E+00 3.37403E-01 3.34888E-01
 -1      1662-4.24190E-01 2.76058E-01 2.99158E-01 9.98508E-01 3.72536E-01 3.57451E-01
 -1      1663-6.44506E-01-5.84502E-01-3.22608E-01 3.92842E-01-3.29204E-01-2.16032E-02
 -1      1664-3.44483E-01 2.68650E-01 2.87159E-01 9.86653E-01 3.76602E-01 4.01923E-01
 -1      1665-4.85047E-01 1.94855E-01 3.67401E-01 8.08525E-01 3.11541E-01 3.34433E-01
 -1      1666-4.94381E-01-2.32462E-01-1.87627E-01 3.86161E-01-1.19767E-01 4.47889E-02
 -1      1667-4.09200E-01 1.59256E-01 3.35128E-01 7.11914E-01 2.81159E-01 3.54690E-01
 -1      1668-4.28662E-01-2.47440E-02 2.45907E-02 4.51985E-01-5.65064E-03 1.68067E-01
 -1      1669-4.66435E-01-2.22458E-01-1.64548E-01 2.87893E-01-1.40174E-01 5.72483E-02
 -1      1670-4.16838E-01-5.02011E-02 6.95755E-02 3.33537E-01-4.00004E-03 8.56270E-02
 -1      1671-2.95473E-02-9.20372E-03 9.26131E-04-3.78050E-02-6.33854E-04 2.37256E-03
 -1      1672-3.11648E-02-5.94044E-03 4.46551E-03-3.00725E-02 2.86104E-04-9.81743E-04
 -1      1673-2.42587E-02-2.68952E-03-1.14162E-03-2.57407E-02-5.63138E-03 2.50798E-03
 -1      1674-2.24360E-02-9.03716E-03 8.07896E-04-2.46765E-02-6.79025E-03 7.29739E-04
 -1      1675-4.62073E-02-1.24163E-02 4.38803E-05-2.73467E-02-1.42512E-03-1.02738E-03
 -1      1676-1.87268E-02 2.70766E-02-1.57176E-03 1.60147E-03-1.01714E-02 2.36647E-03
 -1      1677-5.48918E-02-3.68718E-02-9.14269E-03 3.72067E-02-2.34331E-02 6.02596E-03
 -1      1678-7.89137E-02-8.31409E-02-1.55840E-03 7.88098E-02-3.55718E-02 2.44811E-03
 -1      1679-1.01039E-01-7.78489E-02-1.39511E-02 9.74596E-02-4.17814E-02 5.74797E-03
 -1      1680-2.22826E-01-2.91225E-01-3.88332E-02 2.24375E-01-7.47064E-02 2.28032E-02
 -1      1681-3.70823E-01-2.49488E-01-1.63903E-02 2.64161E-01-5.38188E-02 2.86590E-02
 -1      1682-3.31483E-01-1.96043E-01-1.13074E-02 2.35866E-01-3.87506E-02 3.07158E-02
 -1      1683-3.74025E-01-1.57318E-01-8.29355E-02 2.50636E-01-7.27143E-02 5.42702E-03
 -1      1684-2.63942E-01-5.40674E-02 2.59333E-02 2.31142E-01-2.48079E-02 7.11673E-02
 -1      1685-3.14765E-01-1.88675E-01-4.14212E-02 1.20321E-01-6.07177E-02 1.10685E-02
 -1      1686-2.12228E-03-1.46989E-02 8.22651E-04-4.94211E-02 7.05345E-03 4.29909E-03
 -1      1687-1.16514E-02-1.33045E-02-7.55205E-04-5.11129E-02 8.06755E-03 3.39451E-03
 -1      1688-2.52604E-02-2.08150E-02 1.28640E-03-5.30840E-02 6.27719E-04 3.99201E-03
 -1      1689-2.67200E-02-1.49185E-02 4.62311E-03-4.88460E-02-8.61016E-04 2.37103E-03
 -1      1690-2.34768E-02-2.48829E-02 3.55283E-03-5.50589E-02 8.65611E-03 5.66619E-03
 -1      1691-2.93406E-03 1.72571E-02-1.23751E-03-2.33490E-02-2.89389E-04-1.25796E-03
 -1      1692-1.08791E-02 2.83380E-02-2.07611E-03-1.77852E-02-2.42745E-03 2.83341E-03
 -1      1693-1.10108E-03 1.31625E-02-1.60857E-03-1.87004E-02-2.29916E-03-2.50690E-03
 -1      1694-4.42214E-03 9.31917E-03 2.08681E-03-2.22190E-02-2.66188E-04-2.82068E-03
 -1      1695 4.00912E-03 5.10378E-03 1.68315E-03-3.01808E-02 1.16460E-02 3.39803E-04
 -1      1696 9.96875E-03 1.61410E-03 7.39093E-03-3.83325E-02 1.21264E-02 3.53632E-03
 -1      1697-2.70049E-03 1.69867E-03 1.39771E-03-2.63625E-02 1.07082E-02-4.86993E-03
 -1      1698-3.13966E-03 9.47358E-03-2.69967E-03-3.16619E-02 1.97325E-02-1.49135E-03
 -1      1699 3.74390E-02 3.30485E-03 2.66060E-02-5.29405E-02 5.11184E-02 8.15308E-03
 -1      1700 2.97541E-02 2.42714E-02 1.64169E-02-3.44690E-02 3.97223E-02 9.70679E-03
 -1      1701 3.29056E-02 7.54843E-02 2.24954E-02-3.44058E-02 4.67367E-02 1.23920E-02
 -1      1702 1.35345E-02-1.95520E-02 1.25364E-03-4.36777E-02 1.62086E-02 9.78694E-03
 -1      1703 1.60645E-02 2.14097E-04 2.20304E-02-1.86573E-02 3.53082E-02 1.49203E-03
 -1      1704-2.73806E-01-1.87913E-02 3.11813E-02 1.00189E-01 2.69906E-02 1.97602E-02
 -1      1705-1.95962E-01-5.34724E-02 4.69237E-02-1.79042E-02 2.57157E-02 2.43806E-02
 -1      1706-3.68466E-01-1.24001E-02 1.75305E-01 1.59252E-01 3.68553E-02 1.01613E-01
 -1      1707-3.15475E-01-4.96484E-02 7.07899E-02 1.55736E-01 2.44701E-02 7.98239E-02
 -1      1708-1.66048E-01-5.97544E-02 2.32716E-02-1.40906E-02-2.40733E-03 3.84947E-02
 -1      1709-1.10066E-01-4.37290E-02 5.24097E-02-5.27543E-02 2.11811E-02 3.02518E-02
 -1      1710-5.87456E-02-2.74801E-02 2.75380E-02-5.21092E-02 3.61032E-02 2.99202E-02
 -1      1711-1.07534E-01-5.19126E-02 2.04531E-02-6.52189E-02 5.32761E-03 4.47276E-03
 -1      1712 2.36844E-02 1.94207E-02 2.04692E-02-8.90132E-02 2.94749E-02 1.89336E-02
 -1      1713-3.70518E-01-2.05905E-01-6.40891E-02 4.31540E-01-8.52718E-02 7.26041E-03
 -1      1714-4.50393E-01-2.48758E-01-1.07381E-01 3.34416E-01-1.01454E-01-1.42493E-02
 -1      1715-3.27125E-01-3.08888E-01-4.17155E-02 3.25066E-01-5.25180E-02 4.00770E-02
 -1      1716-2.85858E-01-2.58522E-01-3.41874E-02 1.84204E-01-7.73126E-02 7.13946E-03
 -1      1717-3.76447E-01-3.03826E-01-1.11843E-01 4.03730E-01-9.97016E-02 2.60348E-02
 -1      1718-1.87716E-01-7.16982E-02 7.12077E-03 2.15987E-02-2.94280E-03 3.02534E-02
 -1      1719-1.38115E-01-6.45524E-02 1.33678E-02-1.90814E-02-2.80270E-03 1.68787E-02
 -1      1720-2.34459E-01-1.36892E-01 1.03348E-04 1.10149E-01-1.72688E-02 5.40756E-02
 -1      1721-2.46549E-01-1.69713E-01-5.15743E-03 6.43150E-02-3.45252E-02 4.32947E-02
 -1      1722-8.34342E-02-4.58042E-02 7.17657E-03-5.70381E-02 7.54958E-03 1.41372E-02
 -1      1723-3.04725E-02-5.33406E-02 8.55059E-03-5.82201E-02 1.79778E-02 1.52922E-02
 -1      1724-1.34255E-01-6.00099E-02 5.39880E-03-1.79674E-02-7.13167E-03 1.07948E-02
 -1      1725-8.52025E-02-4.11241E-02 1.09297E-02-4.05223E-02 1.83009E-03 1.17245E-02
 -1      1726-6.00158E-02-3.95203E-02 8.15085E-03-4.95185E-02 2.28762E-03 2.39349E-03
 -1      1727-7.75695E-03-1.80723E-02 2.47123E-02-6.69912E-02 2.88987E-02 1.77604E-02
 -1      1728-2.53832E-02-2.63089E-02 9.45087E-03-6.81566E-02 1.58592E-02 6.82322E-03
 -1      1729-5.53509E-03-3.18689E-02 3.46871E-03-5.77317E-02 1.13302E-02 6.11961E-03
 -1      1730-1.27814E-01-6.30086E-02 4.32586E-03 1.99603E-03-1.05787E-02 5.72510E-03
 -1      1731-9.65009E-02-4.94475E-02 6.12907E-03-2.01006E-02-4.73961E-03 6.65628E-04
 -1      1732-2.13959E-01-1.10042E-01-3.81940E-03 6.38241E-02-1.57238E-02 2.09132E-02
 -1      1733-1.67444E-01-8.86032E-02-1.80622E-03 5.06175E-02-1.36549E-02 1.34682E-02
 -1      1734-6.60517E-02-2.85165E-02 2.87085E-03-2.06133E-02-3.61129E-03 7.41327E-04
 -1      1735-6.63076E-02-2.85382E-02 3.76770E-03-3.78001E-02-1.11051E-03 2.67856E-04
 -1      1736-6.32658E-02-3.52917E-02 2.29884E-03-4.34333E-02 2.78113E-04 7.24674E-04
 -1      1737-4.45764E-02-3.43494E-02 3.02321E-03-5.10246E-02 2.68754E-04 2.73755E-03
 -1      1738-4.62734E-02-2.19646E-02-4.86397E-04-3.88832E-02 1.33479E-03 1.78530E-03
 -1      1739-5.94815E-02-2.32817E-02 3.00738E-03-1.20403E-02-3.55336E-03 2.84927E-03
 -1      1740-1.11344E-01-5.75503E-02-7.88031E-03 2.81296E-02-1.03576E-02 5.02921E-03
 -1      1741-7.48782E-02-2.97285E-02-8.62147E-04 1.04369E-02-6.99671E-03 7.26128E-03
 -1      1742-1.82823E-01-1.00584E-01-3.27843E-03 8.98785E-02-2.70444E-02 1.36521E-02
 -1      1743 7.34864E-03-1.69814E-02 6.03948E-03-4.80375E-02 9.63253E-03 5.45516E-03
 -1      1744-2.47644E-01-2.04101E-01-2.87211E-02 1.82538E-01-6.78361E-02 6.75249E-03
 -1      1745-2.07923E-01-1.79546E-01-2.30129E-02 1.22896E-01-6.36094E-02 4.05123E-03
 -1      1746-1.50696E-01-1.17451E-01 2.13041E-03 1.06314E-01-3.65109E-02 6.57768E-03
 -1      1747-2.54248E-02-1.00789E-02 3.08538E-03-4.15978E-02-7.26253E-04 2.25757E-03
 -1      1748-1.74005E-02 1.18542E-02-2.59678E-03-9.49305E-03-4.67834E-03 5.42329E-03
 -1      1749-1.27877E-02 3.69558E-04 8.35648E-04-2.49871E-02-4.93542E-03 9.95582E-04
 -1      1750-3.60017E-02-1.27298E-02-6.22847E-03-9.38294E-03-8.80239E-03 9.10197E-03
 -1      1751-1.28229E-02 6.05915E-03-1.40933E-04-2.51043E-02-1.36749E-03-2.25877E-03
 -1      1752-8.07233E-02-4.54469E-02 1.18146E-03 3.58787E-02-1.34449E-02 4.38509E-03
 -1      1753 6.99913E+00 4.68265E-01 6.84016E+00 9.30125E-01 7.26311E-01 7.17024E+00
 -1      1754 1.16832E+01 6.31391E-01 3.12771E+00 8.51827E-01 3.72191E-01 6.04949E+00
 -1      1755 2.23772E+00 4.95696E-01 8.90883E+00 7.58169E-01 8.22869E-01 4.46377E+00
 -1      1756 1.43638E+01 1.14904E+00 5.59321E-01 1.19787E+00-7.63861E-02 3.60195E+00
 -1      1757 6.11719E-01 4.95936E-01 8.57322E+00 4.11522E-01 6.67663E-01 2.02588E+00
 -1      1758 5.41712E-02 1.14218E-01 5.60618E+00-3.57754E-01 1.16194E+00 9.79729E-01
 -1      1759 3.90271E-01 4.79679E-01 7.18153E+00 2.56001E-01 6.60643E-01 1.01392E+00
 -1      1760 2.71479E-01 2.58866E-01 6.67440E+00 3.06566E-03 2.08956E+00 2.19577E+00
 -1      1761 1.03553E-01 1.25234E-01 7.96416E+00 2.96281E-02 2.68500E-01 1.01230E+00
 -1      1762 5.30700E-01 1.22071E-01 9.33984E+00 1.05771E-01 2.37664E-01 2.78493E+00
 -1      1763 1.64184E+01 1.91751E+00 6.68212E-02 1.78045E+00-1.31904E-01 2.05460E+00
 -1      1764 1.69148E+01 2.38842E+00 7.83947E-01 3.09928E+00 9.16025E-02 3.76728E+00
 -1      1765 1.43855E+01 1.04059E+00 2.34156E-01 1.12035E+00-1.26621E-01 1.97516E+00
 -1      1766 1.38034E+01 2.80936E-01 2.79468E-01 6.03988E-01 5.72614E-02 1.71675E+00
 -1      1767 1.39561E+01 3.64731E-01 9.61169E-01 5.85974E-01 5.52239E-02 4.03070E+00
 -1      1768 3.52747E+00 9.44994E-01 6.88245E+00 1.72557E+00 2.81212E+00 4.66387E+00
 -1      1769 1.18143E+00 3.01264E-01 6.95677E+00 2.15819E-01 2.14705E+00 3.82036E+00
 -1      1770 1.31188E+00 3.48709E-01 8.63191E+00 6.83849E-01 7.26153E-01 3.10314E+00
 -1      1771 9.25152E+00 1.72603E+00 5.19295E+00 3.35381E+00 2.08790E+00 6.79832E+00
 -1      1772 5.51083E+00 1.01777E+00 5.83469E+00 2.19000E+00 2.57867E+00 5.93235E+00
 -1      1773 4.14866E+00 4.32735E-01 7.77021E+00 8.36798E-01 7.56445E-01 5.58263E+00
 -1      1774 1.46911E+01 2.04015E+00 2.14444E+00 3.24629E+00 6.95946E-01 5.21085E+00
 -1      1775 1.14357E+01 1.93485E+00 3.30765E+00 3.29383E+00 1.63968E+00 6.30981E+00
 -1      1776 9.35520E+00 3.81972E-01 4.73271E+00 8.60261E-01 5.93014E-01 6.69733E+00
 -1      1777 1.28970E+01 9.73075E-01 2.02624E+00 1.00922E+00 1.92798E-01 4.89617E+00
 -1      1778 1.65578E+00 3.20693E-01 9.53660E+00 2.21989E-01 4.14217E-01 3.81314E+00
 -1      1779 3.23566E+00 2.15337E-01 8.91775E+00 3.99227E-01 4.20809E-01 5.56349E+00
 -1      1780 5.65290E+00 1.72318E-01 7.96692E+00 4.04168E-01 5.18783E-01 7.02750E+00
 -1      1781 8.47271E+00 1.52813E-01 5.87753E+00 3.09078E-01 3.50762E-01 7.39448E+00
 -1      1782 1.09018E+01 1.64137E-01 4.11019E+00 4.29768E-01 3.23776E-01 6.81795E+00
 -1      1783 1.25800E+01 1.54418E-01 2.23611E+00 3.31679E-01 1.65169E-01 5.19729E+00
 -1      1784 7.00027E+00 4.62131E-01 6.81858E+00-9.57259E-01-7.36857E-01 7.19050E+00
 -1      1785 2.42734E+00 6.32766E-01 8.72829E+00-6.42420E-01-8.85735E-01 4.42173E+00
 -1      1786 1.20854E+01 9.22507E-01 2.74172E+00-1.01303E+00-2.41634E-01 6.13724E+00
 -1      1787 1.39230E+01 8.95661E-01 6.68263E-01-8.73658E-01-7.76665E-03 3.57484E+00
 -1      1788 5.40701E-01 4.52152E-01 8.14394E+00-4.56964E-01-9.16861E-01 2.08362E+00
 -1      1789-1.90191E-01-7.66048E-02 5.06354E+00 3.96821E-01-1.33119E+00 9.36354E-01
 -1      1790 9.41629E-03 2.26115E-01 6.75879E+00 3.33955E-02-2.30740E+00 2.44492E+00
 -1      1791 1.80717E-01 4.50663E-01 6.92331E+00-2.80067E-01-7.38788E-01 1.03193E+00
 -1      1792 1.61225E+01 1.97620E+00 7.83111E-01-2.73500E+00-1.41549E-01 3.42223E+00
 -1      1793 1.57061E+01 1.71408E+00 2.45051E-01-1.43424E+00 1.28551E-01 2.17088E+00
 -1      1794 1.41552E+01 9.52324E-01 3.83458E-01-1.04517E+00 2.97985E-02 2.02354E+00
 -1      1795 1.27501E-01 2.09043E-01 7.84454E+00-6.42270E-02-3.42671E-01 9.74183E-01
 -1      1796 5.63014E-01 2.93279E-01 9.21940E+00-1.66250E-01-3.46111E-01 2.74841E+00
 -1      1797 1.35734E+01 1.10274E-01 1.92244E-01-4.57872E-01-9.78782E-02 1.68556E+00
 -1      1798 1.39901E+01 1.81836E-01 8.66645E-01-4.89593E-01-6.60623E-02 3.99022E+00
 -1      1799 1.37184E+00 4.07867E-01 6.65248E+00-1.97445E-01-2.18410E+00 3.71612E+00
 -1      1800 3.64348E+00 1.01585E+00 6.82208E+00-1.69185E+00-2.88620E+00 4.61743E+00
 -1      1801 1.70867E+00 5.15074E-01 8.36181E+00-6.14261E-01-9.09968E-01 3.18284E+00
 -1      1802 5.57109E+00 9.03975E-01 5.80866E+00-2.25455E+00-2.61828E+00 5.99078E+00
 -1      1803 9.06412E+00 1.74873E+00 5.05787E+00-3.30458E+00-2.11491E+00 6.74826E+00
 -1      1804 4.26909E+00 5.27004E-01 7.85699E+00-7.43628E-01-7.63231E-01 5.58580E+00
 -1      1805 1.12379E+01 1.83730E+00 2.80456E+00-3.31376E+00-1.47699E+00 6.28816E+00
 -1      1806 1.63624E+01 2.59688E+00 2.38867E+00-3.55705E+00-6.23885E-01 5.23570E+00
 -1      1807 9.40406E+00 2.91204E-01 4.29051E+00-9.17302E-01-4.71220E-01 6.57781E+00
 -1      1808 1.31469E+01 1.07121E+00 1.81360E+00-9.01445E-01 7.72778E-03 4.97984E+00
 -1      1809 3.35415E+00 2.13473E-01 8.94403E+00-3.51278E-01-4.15897E-01 5.53243E+00
 -1      1810 1.67395E+00 2.50327E-01 9.40924E+00-2.43639E-01-4.72913E-01 3.81784E+00
 -1      1811 8.48124E+00 1.33912E-01 5.81988E+00-3.41260E-01-3.63108E-01 7.40127E+00
 -1      1812 5.69212E+00 1.71541E-01 7.94131E+00-4.11613E-01-5.22930E-01 7.02181E+00
 -1      1813 1.28220E+01 3.01126E-01 2.23134E+00-3.84390E-01-1.34161E-01 5.27364E+00
 -1      1814 1.09122E+01 1.15816E-01 3.79523E+00-4.35858E-01-2.65385E-01 6.71783E+00
 -1      1815 1.71085E-01 4.08246E-02-1.42801E-01-3.86537E-02-1.27651E-01-2.69665E-01
 -1      1816 3.13470E-01 1.70147E-01 3.11272E+00-1.85097E-01 3.90591E-01-3.69494E-01
 -1      1817 2.51228E-01 2.58946E-01 9.75800E-01-1.26359E-02-2.49950E-01-1.87095E-01
 -1      1818 1.35889E-01 2.16051E-01 4.69416E+00 5.27516E-02-1.35098E-01-1.67412E-01
 -1      1819-3.08716E-01-6.39560E-01-1.49669E+00-1.78642E-01-2.27104E-01-3.58666E-01
 -1      1820-1.40008E-01-4.28004E-01-1.86190E+00 2.19542E-02-2.04568E-01-7.48105E-01
 -1      1821-6.93708E-02-4.80386E-01-6.13293E-02-6.06429E-01-6.00796E-02-2.03008E-01
 -1      1822-6.67523E-02-5.01752E-01-1.45053E+00-3.10893E-02-1.47719E-01-6.33937E-01
 -1      1823-5.08911E-01-4.55943E-01-2.50902E+00 2.61610E-01-9.46212E-02-1.02389E+00
 -1      1824 1.88958E-01 3.07351E-01 2.32450E+00-1.00224E-02-5.60143E-01 2.05002E-03
 -1      1825 2.70375E-01 4.12971E-01 4.56015E+00-3.02116E-02 3.40827E-01-1.18830E-01
 -1      1826-9.58262E-01-2.89075E-01 2.74217E+00-8.72219E-01 8.94454E-01 1.56319E-01
 -1      1827-6.05957E-01-5.16662E-01 1.20784E+00-6.84739E-01 2.67567E-01-4.32686E-01
 -1      1828 8.34719E-02 1.73265E-01 6.45090E+00 7.07506E-02-1.40308E-01-7.29298E-02
 -1      1829 4.97111E-02 3.11924E-01 5.53100E+00 5.82061E-02 1.57943E-01 1.14669E-01
 -1      1830 1.15210E-01 7.24837E-02 3.86866E+00 1.79242E-02-4.17258E-01-2.52874E-01
 -1      1831 1.82179E-01 1.47195E-01 3.49835E-01 6.71688E-03-7.40464E-02-3.81998E-01
 -1      1832 1.14833E-01 4.19922E-01 3.98437E+00 7.26224E-02 5.91419E-02-3.45701E-01
 -1      1833 1.02697E-01 1.76632E-01 1.52790E+00-8.12384E-02 7.52050E-02-3.96719E-01
 -1      1834 8.75836E-02 2.70113E-01 2.82979E+00 5.24899E-02-1.79039E-01-2.82126E-01
 -1      1835 1.71201E-01 4.28708E-01 2.16892E+00-3.87599E-02-2.40244E-02-4.84003E-01
 -1      1836 1.73636E-01 4.62034E-02-1.26530E-01 7.72048E-03 1.59213E-01-2.94400E-01
 -1      1837 2.86401E-01 1.24303E-01 3.01719E+00 2.04710E-01-2.91820E-01-3.24613E-01
 -1      1838 1.97011E-01 1.99948E-01 1.03230E+00-4.59462E-03 2.68177E-01-1.59413E-01
 -1      1839 2.28078E-01 2.73481E-01 4.77256E+00-6.78801E-02 2.86684E-02-2.96959E-01
 -1      1840-5.51696E-01-5.13210E-01-2.52222E+00-2.78231E-01 8.42583E-02-9.67552E-01
 -1      1841-8.23575E-02-5.46286E-01-1.55973E+00 2.21984E-02 1.31367E-01-5.72064E-01
 -1      1842 8.43627E-02 2.05954E-01 2.17706E+00-5.37326E-02 5.80790E-01-6.28368E-02
 -1      1843-9.76198E-02-4.38547E-01-1.88455E+00-4.82475E-02 2.18573E-01-7.67046E-01
 -1      1844-2.95236E-01-6.33184E-01-1.47229E+00 1.89093E-01 2.47560E-01-3.52736E-01
 -1      1845-6.15325E-02-4.57239E-01-4.08359E-02 5.89459E-01 7.61454E-02-2.01917E-01
 -1      1846-7.72318E-01-2.77823E-01 2.60633E+00 8.66664E-01-7.89643E-01 1.45668E-01
 -1      1847 2.45310E-01 4.58021E-01 4.50627E+00 2.79514E-02-3.60867E-01-1.05964E-01
 -1      1848-5.94800E-01-4.80039E-01 1.18651E+00 6.70770E-01-2.20485E-01-3.71205E-01
 -1      1849 1.81441E-01 3.45795E-01 5.57966E+00-5.88965E-02-2.33401E-01-7.01575E-03
 -1      1850 6.13719E-02 1.85276E-01 6.44191E+00-8.24126E-02 1.68308E-01-7.50929E-02
 -1      1851 1.88096E-01 2.32977E-01 4.09213E+00-1.30252E-02 3.57643E-01-3.45346E-01
 -1      1852 1.65270E-01 1.39680E-01 3.32943E-01-2.48474E-02 1.04178E-01-3.87687E-01
 -1      1853 2.77631E-01 4.07379E-01 3.92853E+00-3.31141E-02-9.63440E-02-3.51278E-01
 -1      1854 1.30627E-01 1.62195E-01 1.48655E+00 5.54417E-02-4.11543E-02-3.57299E-01
 -1      1855 1.34025E-01 1.93930E-01 2.87039E+00-6.29279E-03 1.87565E-01-3.34944E-01
 -1      1856 2.11505E-01 3.91141E-01 2.20731E+00 4.28596E-02 3.49580E-02-4.52288E-01
 -1      1857-3.73494E+00 1.08902E+00 4.53894E-01 6.34783E-01 4.62932E-01-1.02638E-02
 -1      1858-2.25551E-01 4.60505E-01 2.53435E-03-1.25330E-01 5.21439E-03-1.14469E-02
 -1      1859-3.22148E-01 5.11250E-01 1.13543E-02 1.45228E-01 8.56326E-03 1.38927E-02
 -1      1860-3.68070E+00 1.05733E+00 4.11819E-01-6.24423E-01-3.78800E-01 1.91287E-03
 -1      1861-1.55460E+00 4.07697E-01 5.45216E-02 4.59117E-01 1.20146E-02-1.42318E-02
 -1      1862-1.56874E+00 4.55335E-01 4.64485E-02-4.68637E-01-1.07375E-02-5.83098E-03
 -1      1863-1.71509E-01 6.85742E-01 2.64865E-02 9.84893E-03-1.29934E-02-4.98748E-04
 -1      1864-4.74116E+00 1.27440E+00 1.50183E+00-2.84117E-01-1.06460E-01 1.24683E+00
 -1      1865-3.71070E+00 9.80248E-01 1.01634E-01-9.65116E-02-9.19505E-03 1.21213E-01
 -1      1866-2.38265E+00 7.95754E-01 1.10882E-01-3.20759E-01 3.06792E-02-4.90001E-02
 -1      1867-1.75070E+00 8.80417E-01 1.28754E-02 1.27503E-01 5.64129E-03-7.88622E-02
 -1      1868-8.69376E-01 7.49966E-01 7.21988E-02-1.55055E-01 1.83867E-02-4.19906E-02
 -1      1869-2.71174E+00 7.60988E-01 1.49636E-01 3.76030E-01-1.56807E-02 2.65335E-03
 -1      1870-1.13272E-01 5.11311E-01 6.78359E-03-6.69065E-02 1.29046E-02 1.03180E-02
 -1      1871-5.89440E-01 3.81008E-01 3.67396E-02-1.64676E-01 1.19950E-02-4.60522E-02
 -1      1872-5.46994E-01 3.14988E-01 3.49682E-02 1.57063E-01 4.17222E-03-4.21649E-02
 -1      1873-2.58089E+00 3.95750E-01-6.03654E-02-8.13740E-01-1.44324E-01-2.78676E-02
 -1      1874-1.13540E-01 5.19243E-01 5.08131E-02 6.72641E-02-3.07434E-02 4.61162E-02
 -1      1875-7.11254E-01 7.91431E-01 7.78639E-02 6.37948E-02-5.77492E-03-4.23286E-02
 -1      1876-3.95052E+00 1.41458E+00 7.86654E-01 2.92209E-01 2.80260E-01 8.96380E-01
 -1      1877-2.61760E+00 3.69078E-01-6.86899E-02 8.34069E-01 1.38056E-01 2.49622E-02
 -1      1878-1.14594E+00 7.02203E-01 1.79543E-02 2.64601E-01-7.55151E-03-4.54306E-02
 -1      1879-2.18998E+00 1.42081E+00 3.99209E-01-6.41025E-01 2.70007E-02 1.21106E-01
 -1      1880-1.66200E+00 1.88259E+00-6.29525E-03-1.60885E-01 7.43065E-02 2.84950E-01
 -1      1881-1.26293E+00 2.01007E+00-1.01518E-01 1.81208E-01 3.85421E-02 2.78582E-01
 -1      1882-1.65067E+00 1.63276E+00 2.96677E-01 4.74079E-01-4.94799E-02 9.56441E-02
 -1      1883-4.31257E+00 1.21849E+00 1.22283E+00-1.06175E-01-1.39656E-01 1.02516E+00
 -1      1884-2.95203E+00 2.93094E-01-5.45560E-02-1.00390E+00-3.24589E-01-1.85912E-01
 -1      1885-2.11603E+00 1.25023E+00 5.91721E-01-6.46836E-01-3.72144E-01-6.81965E-01
 -1      1886-3.63931E+00 1.60781E+00 1.01111E+00-3.90417E-01-3.46415E-01 5.09500E-01
 -1      1887-2.21522E+00-6.62422E-03-8.33653E-02-7.38711E-01-7.40079E-02-1.84426E-02
 -1      1888-2.20345E+00 1.18865E-01-1.51838E-01-8.69675E-01-7.30621E-02-5.34570E-02
 -1      1889-3.09471E+00 6.06606E-01 1.95878E-02-8.32021E-01-3.07130E-01-9.68104E-03
 -1      1890-1.00994E+00 2.40396E-01-3.16855E-02-2.76400E-01-5.56428E-05 3.56831E-02
 -1      1891-1.48755E+00 1.47831E-01-9.73679E-02-4.56244E-01-3.80522E-02-6.63274E-02
 -1      1892-2.10888E+00 3.90349E-01-5.83349E-02-6.84337E-01-9.72272E-03-1.75474E-02
 -1      1893-3.37430E-01 2.15133E-01 1.56515E-02-6.13484E-02 3.35045E-02-2.28632E-02
 -1      1894-5.69937E-01 2.31609E-01 2.33611E-03-1.09645E-01-1.40389E-02 7.24660E-03
 -1      1895-9.40034E-01 4.60135E-01 1.08004E-01-3.04760E-01-9.27535E-03 2.38793E-03
 -1      1896-5.02367E-02 3.38772E-01 2.06491E-02-1.02298E-01 2.25634E-02 1.12208E-02
 -1      1897-1.45647E-01 2.58306E-01 2.35609E-02-6.86535E-02 1.98326E-02-2.38209E-02
 -1      1898-3.90024E-01 4.19314E-01 4.14472E-04-1.47317E-01 5.91177E-03-4.29507E-02
 -1      1899-7.37400E-03 4.19950E-01 1.25600E-02-6.23173E-02 2.26697E-02 2.46462E-02
 -1      1900-3.51707E-02 3.56620E-01 1.63479E-02-6.52808E-02 1.87541E-02 2.25640E-02
 -1      1901-1.55097E-01 5.05805E-01 2.55922E-02-9.71547E-02 8.87331E-04-2.87962E-03
 -1      1902-2.47152E-02 5.30730E-01 1.45604E-02 2.55507E-02-1.29629E-02-3.52911E-05
 -1      1903-2.40485E-02 5.48684E-01 1.95861E-02-2.02724E-02 6.60498E-03 5.99967E-03
 -1      1904-1.33094E-01 6.43649E-01 2.19716E-02-2.80038E-02 8.93558E-03-8.41931E-03
 -1      1905-2.52689E-02 3.87224E-01 1.85491E-02 6.18886E-02-2.35512E-02 2.17728E-02
 -1      1906 2.33954E-03 4.06048E-01 7.11545E-03 5.90156E-02-2.45134E-02 2.35627E-02
 -1      1907-1.26982E-01 6.07116E-01 4.93827E-02 3.73861E-02-2.36537E-02 7.06839E-03
 -1      1908-2.22461E-01 2.89113E-01 3.05182E-02 7.88110E-02-3.23046E-02-1.30450E-02
 -1      1909-9.55934E-02 3.57569E-01 4.85420E-03 9.53440E-02-7.28305E-03 6.61071E-03
 -1      1910-1.96948E-01 5.88472E-01 4.85347E-02 1.35420E-01 6.93573E-04 4.97857E-02
 -1      1911-5.35457E-01 1.84159E-01 4.68186E-03 1.10492E-01 1.47329E-02 3.13613E-03
 -1      1912-3.30543E-01 2.00556E-01 4.42577E-02 6.01375E-02-4.40287E-02-3.07097E-02
 -1      1913-4.44267E-01 4.34209E-01 3.28910E-02 1.52860E-01-7.12630E-03-3.33177E-02
 -1      1914-1.46581E+00 1.24964E-01-9.11800E-02 4.41203E-01 3.83916E-02-6.68177E-02
 -1      1915-9.79332E-01 2.19525E-01-2.36388E-02 2.62442E-01-1.11007E-02 3.17530E-02
 -1      1916-9.68136E-01 3.99944E-01 3.49561E-02 2.88611E-01 4.12489E-03-6.96126E-03
 -1      1917-2.27052E+00 7.89991E-02-1.45571E-01 8.92561E-01 6.89267E-02-4.12054E-02
 -1      1918-2.22595E+00-2.44437E-02-7.57280E-02 7.43670E-01 6.76342E-02-2.88083E-02
 -1      1919-2.09287E+00 3.12598E-01-8.66577E-02 6.97580E-01 1.04867E-02 2.09729E-02
 -1      1920-2.24665E+00 1.32656E+00 6.61529E-01 6.32971E-01 3.47457E-01-5.72806E-01
 -1      1921-3.16411E+00 2.61901E-01-2.42831E-02 1.00734E+00 3.09470E-01-2.15873E-01
 -1      1922-3.12217E+00 6.34449E-01 6.13914E-02 8.23918E-01 2.88753E-01 2.52886E-02
 -1      1923-3.82299E+00 1.40351E+00 5.27537E-01 4.47536E-01 6.69357E-01 2.53992E-01
 -1      1924-3.58603E+00 1.02074E+00 2.05312E-01 2.64746E-01-8.83275E-02 1.91036E-01
 -1      1925-3.22807E+00 8.81219E-01 1.41308E-01 1.42951E-01-1.69011E-02 8.12775E-02
 -1      1926-3.12592E+00 7.94062E-01 1.31593E-01 5.39744E-01-6.58711E-02 9.02280E-02
 -1      1927-3.91208E+00 1.13102E+00 3.70696E-01 7.82538E-02 7.89861E-03 4.88996E-01
 -1      1928-2.54943E+00 5.52572E-01 2.23723E-02 6.03816E-01-7.29878E-02 1.08277E-01
 -1      1929-4.77974E-01 6.34942E-01 5.59552E-02-1.54777E-01 3.46789E-02-5.17239E-02
 -1      1930-3.97333E-01 6.94336E-01 7.88045E-02-1.15018E-01 2.20970E-02-3.63850E-02
 -1      1931-7.57866E-01 5.75949E-01 6.86870E-02-1.90725E-01 4.55584E-02-6.60120E-02
 -1      1932-8.20599E-01 5.49470E-01 3.97806E-02 2.24603E-01-2.25265E-02-5.52259E-02
 -1      1933-6.65424E-01 6.59016E-01 4.44711E-02 1.91595E-01-5.28177E-03-1.95245E-02
 -1      1934-4.47188E-01 7.23259E-01 2.99321E-02 1.36967E-01-8.45930E-03-1.09474E-02
 -1      1935-3.35009E-01 7.03889E-01 1.07545E-01 7.02795E-02-1.41160E-02 5.50666E-03
 -1      1936-8.60607E-01 7.62657E-01 2.32529E-02 1.63412E-01-1.33007E-03-4.08213E-02
 -1      1937-3.96966E+00 8.53060E-01 7.07263E-02-3.18694E-01 2.32123E-02 2.00341E-01
 -1      1938-3.83389E+00 1.30684E+00 6.07710E-01-1.25939E-01-1.15244E-01 5.44097E-01
 -1      1939-2.96824E+00 8.56074E-01 2.03198E-01-3.79792E-01 8.09097E-02 4.96020E-02
 -1      1940-2.84762E+00 9.19328E-01 9.59491E-02-2.19867E-01 2.89669E-02-5.59100E-03
 -1      1941-2.41480E+00 6.57666E-01 1.37290E-01-5.95442E-01 8.01655E-02 8.11490E-02
 -1      1942-2.22133E+00 5.62023E-01 1.55962E-01 4.25941E-01-4.02587E-02-1.48485E-03
 -1      1943-1.69142E+00 7.91466E-01 1.88269E-01 3.39815E-01-7.37933E-03-4.02706E-02
 -1      1944-1.32892E+00 6.12665E-01 9.98376E-02 3.69325E-01 3.23499E-02-5.05709E-02
 -1      1945-2.13964E+00 6.68771E-01 1.38729E-01-4.06155E-01 3.73861E-02-3.13277E-02
 -1      1946-1.11704E+00 6.72023E-01 1.34703E-01-3.22052E-01 6.52026E-04-3.85767E-02
 -1      1947-1.43524E+00 8.20206E-01 1.28876E-01-2.54422E-01-4.86996E-04-6.03590E-02
 -1      1948-4.55772E-01 7.55417E-01 5.62002E-02-5.60119E-02-3.42071E-03-2.51085E-02
 -1      1949-3.76874E-01 7.59197E-01 1.07032E-01 3.49323E-02-1.42356E-02-1.51397E-02
 -1      1950-8.18009E-01 8.00500E-01 9.96703E-02-5.83863E-02 1.47652E-03-4.99773E-02
 -1      1951-2.01149E+00 8.74971E-01 2.52067E-02-1.30435E-01-1.42929E-02-6.31734E-02
 -1      1952-2.50340E+00 1.01283E+00 1.20675E-01 1.55201E-02 2.09256E-02-3.39827E-02
 -1      1953-2.08941E+00 8.79287E-01 1.30188E-01 2.49932E-01 1.47368E-02-2.08421E-02
 -1      1954-1.28059E+00 8.40312E-01 3.48538E-02-6.17449E-02 4.64682E-03-9.27858E-03
 -1      1955-1.15697E+00 8.39395E-01 4.74297E-02 1.14285E-01 1.58343E-02-3.77898E-02
 -1      1956-1.46913E+00 8.06931E-01 1.73592E-02 2.29778E-01-9.96830E-03-7.37210E-02
 -1      1957 3.88537E+00-1.22513E+00-1.40714E+00-8.16036E-01 4.92061E-01 9.85673E-03
 -1      1958 4.23657E-01-5.37517E-01-1.05339E+00 1.43480E-01 2.17424E-02-2.70962E-02
 -1      1959 2.47351E-01-4.49299E-01-1.01098E+00-1.22793E-01-1.03163E-02 1.00714E-02
 -1      1960 3.67892E+00-1.30104E+00-1.42084E+00 7.74404E-01-5.05335E-01-1.16122E-01
 -1      1961 1.55139E+00-4.85283E-01-1.03289E+00-5.33435E-01 2.95891E-02-1.17021E-03
 -1      1962 1.66425E-01-6.43748E-01-1.02296E+00 3.68981E-03 8.86688E-03 8.21030E-03
 -1      1963 1.47448E+00-4.58921E-01-1.07123E+00 5.13596E-01-2.69109E-02-2.70549E-02
 -1      1964 5.00490E+00-1.46906E+00-2.49537E+00 4.03854E-01-4.44102E-02 1.30806E+00
 -1      1965 3.87702E+00-1.10305E+00-1.21823E+00 8.78960E-02-1.61626E-02-2.94960E-02
 -1      1966 2.79562E+00-8.65606E-01-1.15044E+00-3.51124E-01-2.38831E-03-5.40150E-02
 -1      1967 1.85105E+00-8.96039E-01-1.09350E+00 4.59995E-02 1.38195E-03-1.85727E-01
 -1      1968 8.14449E-01-7.62143E-01-1.03661E+00-1.58048E-01-1.17245E-02-5.13980E-02
 -1      1969 2.58419E+00-8.69644E-01-1.15093E+00 4.32320E-01 2.82255E-02-1.14428E-01
 -1      1970 1.17843E-01-5.36329E-01-1.04457E+00 7.71869E-02 3.58267E-02 2.19600E-02
 -1      1971 7.41460E-01-7.69641E-01-1.07247E+00 7.70750E-02 2.17159E-03-9.01406E-02
 -1      1972 1.34366E-01-5.85614E-01-1.03721E+00-8.23427E-02-1.94546E-02 1.33400E-02
 -1      1973 5.61037E-01-3.66599E-01-1.04678E+00 2.23924E-01 2.29510E-02-1.39764E-02
 -1      1974 2.64047E+00-5.27590E-01-8.70176E-01-9.42721E-01 1.42112E-01-1.46331E-02
 -1      1975 2.57566E+00-5.04254E-01-8.88285E-01 9.45955E-01-1.08321E-01-3.92229E-02
 -1      1976 5.12438E-01-4.01883E-01-1.01974E+00-1.93687E-01 1.66471E-03-2.35695E-02
 -1      1977 4.25785E+00-1.68137E+00-1.98407E+00-3.43083E-01 2.95169E-01 8.44439E-01
 -1      1978 1.13005E+00-7.42228E-01-9.93522E-01 2.97711E-01 4.74504E-03-9.48040E-02
 -1      1979 1.74019E+00-2.17316E+00-9.90112E-01 2.50166E-01 1.11254E-01 2.78232E-01
 -1      1980 2.35111E+00-1.53957E+00-1.34296E+00 7.79917E-01 9.34794E-02 1.96609E-01
 -1      1981 1.83481E+00-1.83009E+00-1.38883E+00-5.28753E-01-2.83025E-02 7.30615E-02
 -1      1982 1.48085E+00-2.27200E+00-9.33310E-01-1.97459E-01 2.33345E-02 2.80054E-01
 -1      1983 4.53134E+00-1.46049E+00-2.37142E+00 1.51067E-01-9.99936E-02 1.00847E+00
 -1      1984 2.37785E+00-1.37797E+00-1.55013E+00 7.62125E-01-4.47609E-01-7.41681E-01
 -1      1985 3.14884E+00-3.65241E-01-9.34571E-01 1.12076E+00-3.65985E-01-2.29655E-01
 -1      1986 3.89226E+00-1.78741E+00-1.97294E+00 4.77213E-01-3.43354E-01 4.90375E-01
 -1      1987 2.27781E+00-1.53479E-01-7.72393E-01 9.67253E-01-5.92347E-02-4.59333E-02
 -1      1988 2.20385E+00-3.41373E-02-8.82794E-01 8.32642E-01-6.66810E-02-3.01806E-02
 -1      1989 3.10163E+00-7.58155E-01-9.77533E-01 9.60423E-01-3.00910E-01-3.79736E-02
 -1      1990 1.43882E+00-1.30017E-01-8.71753E-01 5.12392E-01-5.56142E-02-5.35829E-02
 -1      1991 9.10529E-01-2.42651E-01-9.56924E-01 3.08439E-01-4.23755E-04 4.87353E-02
 -1      1992 2.04695E+00-4.67579E-01-9.34472E-01 7.83120E-01-5.93590E-03-1.52351E-02
 -1      1993 5.59056E-01-2.11109E-01-1.00732E+00 1.54285E-01-7.37192E-04 1.01299E-02
 -1      1994 2.85992E-01-2.27900E-01-1.01499E+00 8.18667E-02 2.37403E-02-2.33002E-02
 -1      1995 8.83022E-01-4.27750E-01-1.10097E+00 3.37169E-01-6.89062E-03-7.72056E-03
 -1      1996 2.50444E-01-3.12347E-01-1.00768E+00 7.75842E-02 1.23868E-02 1.96425E-03
 -1      1997 1.17255E-01-3.99902E-01-1.01695E+00 1.00905E-01 1.62115E-02 6.59421E-03
 -1      1998 4.26588E-01-4.77843E-01-1.06103E+00 2.02933E-01 2.12730E-02-2.60511E-02
 -1      1999 4.79932E-02-3.56167E-01-1.02506E+00 4.97639E-02 3.22237E-02 1.39166E-02
 -1      2000-1.62318E-02-4.56082E-01-1.03014E+00 7.03087E-02 2.24317E-02 2.38444E-02
 -1      2001 2.23977E-01-5.48803E-01-1.08014E+00 9.23410E-02 1.42662E-02-9.30966E-03
 -1      2002 2.79256E-02-4.78192E-01-1.00689E+00 1.61471E-02-7.42646E-03 1.38683E-02
 -1      2003 2.03296E-02-4.95433E-01-1.00017E+00-1.15953E-02 5.30097E-03 5.87058E-03
 -1      2004 1.39503E-01-6.09923E-01-1.03621E+00 5.12510E-02 4.92416E-03 1.43256E-02
 -1      2005 2.07286E-02-4.74106E-01-1.00035E+00-6.48988E-02-1.10980E-02 9.59679E-03
 -1      2006 1.67737E-02-3.94570E-01-1.00886E+00-8.96717E-02-1.08362E-02 1.23336E-03
 -1      2007 1.67439E-01-6.33413E-01-1.04565E+00-3.51865E-02 3.36034E-03 1.53460E-02
 -1      2008 6.01554E-02-3.20131E-01-1.00707E+00-8.53741E-02-2.18240E-02 1.04336E-02
 -1      2009 1.79180E-01-2.50183E-01-1.02732E+00-6.47877E-02-2.55624E-02-9.55787E-04
 -1      2010 1.54264E-01-5.71513E-01-1.03690E+00-1.21569E-01-1.36315E-02-5.61327E-04
 -1      2011 2.97495E-01-2.24151E-01-1.01610E+00-7.63630E-02-1.90209E-02-7.83403E-03
 -1      2012 5.06882E-01-2.39956E-01-1.01350E+00-1.34470E-01 1.60057E-02 1.22661E-02
 -1      2013 3.74794E-01-4.27215E-01-1.03762E+00-1.56391E-01-4.95889E-03-1.07986E-02
 -1      2014 9.44529E-01-2.75764E-01-9.71880E-01-2.96075E-01 1.04354E-02 3.10006E-02
 -1      2015 1.49948E+00-1.65511E-01-8.82114E-01-5.41072E-01 5.96193E-02-3.75851E-02
 -1      2016 9.02915E-01-4.60122E-01-1.00991E+00-3.24780E-01-2.75414E-03-1.22999E-02
 -1      2017 2.23305E+00-1.25427E-02-8.88423E-01-8.33506E-01 5.77814E-02-5.26354E-02
 -1      2018 2.32686E+00-1.56670E-01-7.80792E-01-9.66347E-01 7.64998E-02-5.63087E-02
 -1      2019 2.18227E+00-4.43868E-01-8.52101E-01-7.96632E-01 3.02436E-02 3.36110E-02
 -1      2020 3.23007E+00-3.63933E-01-9.41565E-01-1.13603E+00 3.36876E-01-1.98319E-01
 -1      2021 2.36193E+00-1.42952E+00-1.53153E+00-7.77141E-01 3.76415E-01-5.42866E-01
 -1      2022 3.17328E+00-8.11729E-01-1.03671E+00-9.73896E-01 3.15018E-01 1.39503E-02
 -1      2023 4.06137E+00-1.57024E+00-1.50245E+00-5.74775E-01 6.65092E-01 2.64223E-01
 -1      2024 3.20459E+00-9.40857E-01-1.15469E+00-6.31568E-01-6.62466E-02 7.78708E-02
 -1      2025 3.45113E+00-9.81736E-01-1.19670E+00-1.07560E-01-3.01135E-02-1.82225E-02
 -1      2026 3.66627E+00-1.23270E+00-1.27274E+00-3.66522E-01-1.09903E-01 1.14588E-01
 -1      2027 4.06687E+00-1.33927E+00-1.39751E+00-1.32149E-01-3.17909E-02 3.96381E-01
 -1      2028 2.54716E+00-7.41991E-01-1.03105E+00-6.99921E-01-4.30317E-02 8.59212E-02
 -1      2029 5.98810E-01-6.87895E-01-1.10193E+00 1.33396E-01 3.27298E-02-8.60903E-02
 -1      2030 3.54782E-01-6.72930E-01-1.10329E+00 7.46587E-02 2.00007E-02-4.46164E-02
 -1      2031 6.31048E-01-6.88901E-01-1.08389E+00 2.37556E-01 3.73434E-02-7.58182E-02
 -1      2032 8.76705E-01-7.87180E-01-1.05535E+00 1.89129E-01 1.67438E-02-6.82142E-02
 -1      2033 8.13756E-01-5.54278E-01-1.02948E+00 2.82763E-01 2.48390E-02-7.85550E-02
 -1      2034 3.63540E-01-7.10844E-01-1.05808E+00-1.18463E-01-1.27690E-02 7.52637E-04
 -1      2035 4.53421E-01-6.70685E-01-1.05860E+00-1.64924E-01-2.20127E-02-1.30023E-02
 -1      2036 6.31139E-01-6.45229E-01-1.05285E+00-2.06797E-01-2.62852E-02-4.84507E-02
 -1      2037 3.97209E+00-1.50391E+00-1.68816E+00 1.80003E-01-1.07443E-01 4.78904E-01
 -1      2038 3.70101E+00-1.10314E+00-1.22083E+00 3.92137E-01 3.73994E-02 1.25318E-01
 -1      2039 3.16536E+00-9.84625E-01-1.25610E+00 2.45020E-01 4.68320E-02-7.33333E-02
 -1      2040 3.03028E+00-9.98928E-01-1.16354E+00 6.34236E-01 1.00026E-01 5.50089E-02
 -1      2041 2.39882E+00-7.70130E-01-1.16421E+00 7.29132E-01 8.52070E-02 2.03560E-02
 -1      2042 1.13596E+00-6.92235E-01-1.09573E+00-3.68025E-01 1.92315E-02-5.10717E-02
 -1      2043 1.50055E+00-9.16652E-01-1.18688E+00-2.70407E-01-1.83213E-02-8.19604E-02
 -1      2044 2.27453E+00-6.56531E-01-1.11696E+00-4.99165E-01-5.47372E-02-9.04390E-04
 -1      2045 4.08656E-01-7.65374E-01-1.08484E+00 1.17458E-02-6.93281E-03-3.82114E-02
 -1      2046 7.26866E-01-8.43230E-01-1.08263E+00-4.45816E-02-3.47832E-03-9.10463E-02
 -1      2047 3.92875E-01-7.72563E-01-1.09909E+00-4.82759E-02 2.06274E-02-2.66697E-02
 -1      2048 2.17619E+00-6.84971E-01-1.14012E+00 5.25233E-01 3.43831E-02-6.82587E-02
 -1      2049 1.81890E+00-8.06731E-01-1.02398E+00 3.66241E-01-1.64942E-02-1.17054E-01
 -1      2050 1.25004E+00-6.75282E-01-1.09698E+00 4.33920E-01-2.37123E-02-8.51945E-02
 -1      2051 2.16874E+00-9.75939E-01-1.23552E+00-1.51933E-01 3.74463E-02-1.25769E-01
 -1      2052 2.67389E+00-1.06743E+00-1.27813E+00 6.02922E-02-4.50857E-03-1.45838E-01
 -1      2053 2.20189E+00-8.92003E-01-1.13038E+00 2.61814E-01-2.68728E-02-1.46540E-01
 -1      2054 1.34094E+00-8.49564E-01-1.03942E+00-7.55239E-02-3.34552E-02-1.23510E-01
 -1      2055 1.18559E+00-8.82081E-01-1.08180E+00 4.83463E-02 2.03195E-02-1.47545E-01
 -1      2056 1.45190E+00-8.67920E-01-1.02725E+00 1.97921E-01 8.32149E-03-1.27962E-01
 -1      2057 2.48946E-02 2.88343E-02-8.44835E-01 1.44612E-02-3.70684E-01-4.25089E-01
 -1      2058 3.39694E-02 2.28471E-02-8.34271E-01-9.44728E-03 3.39363E-01-3.91918E-01
 -1      2059-1.40759E-02 4.96011E-02-1.69088E-01-2.08842E-04 4.43621E-03-1.23627E-02
 -1      2060-1.90795E-01-8.34358E-03-1.93201E-01 2.54327E-02 2.66319E-01-7.82662E-01
 -1      2061-2.12108E-01-2.88802E-02-1.87477E-01-4.90122E-02-2.42564E-01-8.77577E-01
 -1      2062 1.90194E-01 1.83590E-02-7.89822E-01 3.90775E-02-3.01520E-01-7.21650E-01
 -1      2063 1.82822E-01 4.18937E-02-7.43188E-01-4.91016E-02 1.92569E-01-8.88160E-01
 -1      2064-2.67968E-02 9.70505E-03-1.85532E-01 4.71297E-03-3.31341E-01-2.95100E-01
 -1      2065-1.23266E-02-4.88392E-02-1.55303E-01 2.01117E-02 3.64415E-01-4.21320E-01
 -1      2066 3.47982E-02-8.74390E-02-8.43264E-01 8.75065E-05 6.23826E-03-7.08288E-03
 -1      2067 1.75244E-02-3.07938E-02-8.35394E-01 1.27287E-02 2.40252E-01-1.01639E-01
 -1      2068-1.56506E-02-7.69161E-03-5.37882E-01-8.68357E-03-2.78428E-01-1.35160E-01
 -1      2069 1.56746E-02 2.67296E-02-1.31636E-01-3.07185E-02 2.55188E-01-1.38710E-01
 -1      2070 3.75560E-01 9.64486E-03-9.50699E-01 2.74699E-02-1.46189E-01-5.64323E-01
 -1      2071 3.67492E-01 4.92068E-02-9.77105E-01-1.09598E-01 1.33768E-01-5.64710E-01
 -1      2072 1.52339E-02-1.93399E-02-5.61573E-01 1.84423E-02 3.71883E-01-7.16806E-01
 -1      2073-1.76569E-02 9.02300E-02-4.88088E-02 3.66606E-02-2.02496E-01-7.06992E-02
 -1      2074 4.38222E-03-6.51395E-02-9.39991E-01-2.04726E-02-1.96548E-01-5.49355E-02
 -1      2075-4.71929E-01-2.67990E-02-4.52150E-02-2.61538E-02-1.02151E-01-5.70165E-01
 -1      2076-4.14128E-01 1.12359E-02-2.52969E-02 4.13723E-02 1.15387E-01-5.44814E-01
 -1      2077-1.26880E-02-3.09074E-02-2.89925E-01-1.60035E-02-3.73581E-01-6.58999E-01
 -1      2078 2.09000E-01 3.01043E-02-9.31093E-01-3.89038E-02 2.20974E-01-4.70689E-01
 -1      2079 3.06356E-01 7.47197E-01-4.04470E-01-7.03369E-02 3.93472E-01 1.09746E-01
 -1      2080 3.64073E-01 1.21766E+00-1.46956E-01 1.22417E-01-4.62146E-01-1.75091E-01
 -1      2081-2.73420E-01-8.62195E-01-4.98540E-01 5.38208E-02 4.36447E-01 1.71153E-01
 -1      2082-3.67597E-01-1.34300E+00-7.40497E-01-1.48163E-01-5.02823E-01-4.78993E-02
 -1      2083-7.02470E-01-5.82336E-02-3.39084E+00-3.39881E-01 1.40758E+00 2.70419E+00
 -1      2084-8.62796E-01 1.73256E-01-3.03761E+00 2.20314E-01-1.40470E+00 2.63919E+00
 -1      2085-9.19867E-01-3.04046E-02 8.95516E-02-2.33321E-01 1.16738E-02-3.78148E-01
 -1      2086-5.93752E-01 9.38048E-03-5.91226E-03-5.84409E-02 5.04150E-02-3.64915E-01
 -1      2087-1.44913E+00-1.16126E-01 2.49419E-01-4.55813E-01 7.84305E-02-1.73575E-01
 -1      2088-5.84697E-01 1.84579E-02-3.83287E-02-1.59877E-02 6.71896E-02-6.03486E-01
 -1      2089-4.77420E-01 1.38704E-02 1.82716E-02 2.09226E-02 5.95040E-02-3.33809E-01
 -1      2090-1.52849E-01 9.32819E-03-3.33901E-01-8.16821E-03 1.84849E-01-1.11089E+00
 -1      2091-3.70007E-01 9.74315E-02-6.00769E-02-5.05148E-02 1.49313E-01-7.55411E-01
 -1      2092-3.15246E-01 1.48129E-03-1.03913E-01 2.62242E-02 1.89908E-01-6.36925E-01
 -1      2093 6.03405E-01-1.49190E-02-9.99357E-01 4.94479E-02 5.31787E-02-3.93584E-01
 -1      2094 8.95625E-01 2.78463E-02-1.10644E+00 2.42058E-01 2.97125E-02-4.42701E-01
 -1      2095 1.37178E+00 1.17218E-01-1.33331E+00 4.76086E-01 1.20911E-01-2.59033E-01
 -1      2096 4.79583E-01 1.40013E-02-1.00362E+00-3.03409E-02 5.63037E-02-3.17597E-01
 -1      2097 4.97690E-01 5.39049E-04-1.01687E+00-6.65817E-02 9.27201E-02-6.61021E-01
 -1      2098 4.29919E-01 1.09037E-03-8.61763E-01-1.29648E-02 1.12483E-01-7.92655E-01
 -1      2099 1.19455E-01-2.79305E-03-6.16688E-01-9.59387E-03 1.67589E-01-1.19615E+00
 -1      2100 2.40332E-01 5.29127E-02-8.39403E-01-9.67222E-02 1.59711E-01-7.07222E-01
 -1      2101 6.79641E-01-3.53653E-02 2.54170E+00 3.84424E-01 1.74028E+00 2.77685E+00
 -1      2102 1.05469E+00-1.31318E-01 2.31130E+00-3.26082E-01-1.68776E+00 2.93452E+00
 -1      2103 9.11375E-01 1.76687E-02-1.09751E+00-2.54226E-01-3.30584E-02-4.57215E-01
 -1      2104 5.77413E-01-2.07742E-02-9.73339E-01-4.47144E-02-6.07152E-02-4.05484E-01
 -1      2105 4.93225E-01-2.55745E-02-9.79632E-01-2.79367E-02-1.00519E-01-6.31916E-01
 -1      2106 4.33696E-01-5.17671E-03-1.02005E+00 1.45774E-02-7.17195E-02-3.53681E-01
 -1      2107 1.36053E+00 1.27507E-01-1.30720E+00-5.01911E-01-1.17385E-01-2.55044E-01
 -1      2108 2.43604E-01-1.47253E-02-7.71264E-01-9.56286E-03-1.41313E-01-1.01159E+00
 -1      2109-9.12744E-01-4.07786E-02 9.07658E-02 2.17777E-01-5.08259E-05-3.77866E-01
 -1      2110-5.65647E-01-1.84837E-04 4.39644E-03 4.30674E-02-4.17472E-02-3.69883E-01
 -1      2111-4.86457E-01-2.80299E-03 1.04981E-02-9.46994E-03-4.61345E-02-3.45825E-01
 -1      2112-5.88075E-01-2.30889E-02-4.74828E-02 1.39390E-02-6.45570E-02-6.24099E-01
 -1      2113-1.43000E+00-1.15553E-01 2.22052E-01 4.59285E-01-5.95852E-02-1.65033E-01
 -1      2114-3.60842E-01 5.08428E-02-4.60880E-02 7.75451E-03-1.36471E-01-8.13778E-01
 -1      2115-1.22874E-01-3.70712E-03-2.93928E-01-5.06557E-02-1.87010E-01-1.18026E+00
 -1      2116-3.97391E-01-2.96524E-02-1.22021E-01-3.07025E-02-1.80860E-01-6.96509E-01
 -1      2117-1.09009E+00 3.54299E-01 2.10917E-02-7.41963E-01 1.45272E+00 1.47114E+00
 -1      2118-1.64249E+00-1.45218E-01 2.05326E-01-8.51832E-01 1.27908E+00 1.28276E+00
 -1      2119-1.53311E+00 7.25268E-02-1.48133E+00-8.21471E-01 1.70852E+00 2.27312E+00
 -1      2120-1.27245E+00-2.64443E-01 5.59374E-01-7.49818E-01 2.92192E-01 1.73406E-01
 -1      2121-2.61307E-01-3.11846E-02-4.41181E-03 4.61013E-02 1.14611E-01-2.85170E-01
 -1      2122-1.75887E-02-4.10985E-02-2.07742E-02 3.85846E-02 2.08245E-01-2.70026E-01
 -1      2123 1.04358E-02 4.88380E-03-4.73244E-02-3.34122E-02 2.09409E-01-2.03274E-01
 -1      2124-6.60525E-02-4.23481E-02-1.89006E-01 2.39996E-02 3.21943E-01-6.02028E-01
 -1      2125-1.21430E-01-5.78249E-02-6.08818E-02 5.98925E-02 1.81841E-01-4.16559E-01
 -1      2126 2.58729E-02 6.27703E-02-1.87701E-02-5.35788E-02 1.59632E-01-8.69360E-02
 -1      2127-3.08767E-03 1.32142E-01-2.96909E-02-4.51185E-02 1.32915E-01-4.83810E-02
 -1      2128 1.48451E-02 4.02032E-03-1.40098E-01-1.26674E-02 3.10663E-01-2.63663E-01
 -1      2129-7.11416E-04 1.55636E-01-3.12325E-02-1.70496E-02 2.38072E-02 1.86103E-03
 -1      2130-2.56586E-03 1.56436E-01-3.10434E-02 1.85229E-02-1.81785E-02-3.00005E-03
 -1      2131-3.55435E-04 7.52173E-02-1.39416E-01-2.02819E-02 1.49116E-01-7.03307E-02
 -1      2132-1.12370E-03 1.54866E-01-4.78306E-03 5.27275E-02-1.07094E-01-2.48599E-02
 -1      2133 1.26335E-02 7.88951E-02-9.05531E-03 5.81656E-02-1.31256E-01-6.45342E-02
 -1      2134-1.37255E-02 1.16118E-01-9.49521E-02 1.49639E-02-1.11893E-01-3.13917E-02
 -1      2135 8.31684E-03 1.39147E-02-5.35570E-02 2.76523E-02-1.92529E-01-1.77252E-01
 -1      2136-4.38256E-02 1.93911E-02-3.06699E-02 7.55746E-03-2.17010E-01-2.24748E-01
 -1      2137-1.34560E-02 4.37515E-02-1.11445E-01 2.73639E-02-2.60270E-01-1.73423E-01
 -1      2138-3.30839E-01-6.73997E-03-9.07636E-03-4.78802E-02-1.07677E-01-2.78118E-01
 -1      2139-2.43020E-01-3.10198E-02-8.09743E-02-7.31046E-02-1.77924E-01-4.37354E-01
 -1      2140-8.45332E-02 1.13072E-02-7.69361E-02-3.51008E-02-2.44695E-01-3.88244E-01
 -1      2141-9.38893E-02-5.88975E-02-2.32128E-01-3.47753E-02-3.07526E-01-7.79882E-01
 -1      2142-2.49203E-02-1.81970E-03-2.47146E-01-1.15052E-02-3.49314E-01-4.66621E-01
 -1      2143-1.26625E+00-2.87657E-01 5.37518E-01 7.50675E-01-2.74222E-01 1.81192E-01
 -1      2144-1.71576E+00-1.78271E-01 1.82279E-01 8.79306E-01-1.22741E+00 1.23691E+00
 -1      2145-1.24149E+00 2.42499E-01 9.06937E-04 8.10264E-01-1.41751E+00 1.41043E+00
 -1      2146-1.42017E+00-7.13300E-03-1.51173E+00 6.38932E-01-1.81078E+00 2.38065E+00
 -1      2147 1.66906E+00 9.51046E-02-1.32381E+00 8.60836E-01 1.36257E+00 1.24494E+00
 -1      2148 1.15248E+00-4.29342E-01-1.10776E+00 7.87123E-01 1.54904E+00 1.49168E+00
 -1      2149 1.72636E+00 5.42588E-03 3.90803E-01 1.03443E+00 1.93160E+00 2.37641E+00
 -1      2150 1.27221E+00 2.63432E-01-1.68363E+00 7.43992E-01 3.30646E-01 1.00207E-01
 -1      2151 2.53888E-01 3.35454E-02-9.82371E-01-7.35923E-02 9.40039E-02-2.90962E-01
 -1      2152-1.77311E-02 6.77425E-03-9.54670E-01 2.66343E-02 2.09125E-01-2.09984E-01
 -1      2153 2.09041E-02 4.93103E-02-9.75069E-01-2.02124E-02 2.07521E-01-2.58880E-01
 -1      2154 8.25080E-02 9.28811E-03-9.19803E-01-2.34981E-02 2.83014E-01-4.37256E-01
 -1      2155 1.18552E-01 2.10886E-02-9.88524E-01-4.19921E-02 1.47537E-01-2.77894E-01
 -1      2156 2.70613E-01 7.10654E-02-9.37260E-01-9.82697E-02 1.76507E-01-5.15251E-01
 -1      2157 1.75736E-03-1.29442E-01-9.45340E-01 5.41874E-02 1.33012E-01-4.41010E-02
 -1      2158-1.86060E-02-3.97474E-02-9.58175E-01 4.52789E-02 1.58879E-01-8.18858E-02
 -1      2159-5.27286E-03-2.83725E-02-8.56030E-01 1.32129E-02 3.01717E-01-2.46745E-01
 -1      2160 7.74926E-03-1.62293E-01-9.69259E-01-2.13791E-02-2.56439E-02-2.28326E-04
 -1      2161 1.70739E-03-1.79107E-01-9.74696E-01 1.98056E-02 1.52496E-02 5.68454E-03
 -1      2162 2.15466E-02-8.01200E-02-8.34031E-01 7.99628E-03 1.28400E-01-4.04800E-02
 -1      2163-4.27661E-02-6.73871E-02-1.01526E+00-4.58730E-02-1.21296E-01-4.63484E-02
 -1      2164-1.49012E-02-1.78947E-01-1.00458E+00-4.52405E-02-1.18647E-01-1.82213E-02
 -1      2165 2.51792E-02-8.26266E-02-9.01564E-01-1.12486E-02-1.02189E-01-2.20247E-02
 -1      2166 4.05703E-02 4.26344E-02-9.66149E-01 2.89401E-02-2.07311E-01-2.67741E-01
 -1      2167-4.09386E-03 2.94171E-03-9.59685E-01-2.39272E-02-2.06418E-01-2.09029E-01
 -1      2168 1.58323E-02-1.85705E-02-8.97401E-01-3.43703E-03-2.86046E-01-2.35954E-01
 -1      2169 2.39861E-01 2.99351E-02-9.81115E-01 5.22703E-02-1.09350E-01-3.02710E-01
 -1      2170 8.92851E-02 4.68420E-02-9.42042E-01 4.97845E-02-1.93682E-01-3.99252E-01
 -1      2171 5.47169E-02 1.63976E-02-8.40607E-01 3.38263E-02-3.38321E-01-5.66235E-01
 -1      2172 3.30334E-01 3.70716E-02-8.43777E-01 3.66827E-02-2.28608E-01-6.06771E-01
 -1      2173 1.21201E+00 2.83000E-01-1.68675E+00-7.32482E-01-3.22182E-01 1.13248E-01
 -1      2174 1.11376E+00-3.35943E-01-1.12435E+00-7.62670E-01-1.60233E+00 1.39985E+00
 -1      2175 1.72742E+00 1.45754E-01-1.31703E+00-9.04064E-01-1.36565E+00 1.24988E+00
 -1      2176 1.40792E+00-4.54534E-02 4.87800E-01-7.20080E-01-1.98596E+00 2.37452E+00
 -1      2177 2.87063E-03 1.98944E-02-4.94695E-01-8.44294E-03 2.58931E-01-9.33993E-01
 -1      2178 1.60047E-02-4.74145E-02-5.02458E-01-3.61734E-02-2.83527E-01-8.70922E-01
 -1      2179 1.10330E-01-4.38367E-03-6.21514E-01 2.54628E-03-2.03571E-01-1.05328E+00
 -1      2180 1.44390E-01 9.07040E-03-5.50813E-01 3.99701E-02-3.43315E-01-6.87585E-01
 -1      2181-4.77020E-02-3.25501E-03-6.02229E-01 1.58086E-02-4.01298E-01-5.27199E-01
 -1      2182-4.99773E-02 3.88823E-02-3.53587E-01 5.43665E-03-3.25192E-01-2.01455E-01
 -1      2183-3.85888E-03-2.91614E-03-6.80950E-01-2.15844E-03-3.43164E-01-2.78151E-01
 -1      2184-5.08540E-02 1.91361E-02-5.09433E-01 1.14095E-02-3.90043E-01-3.72219E-01
 -1      2185-1.04871E-02-8.02332E-02-7.66848E-01-1.44912E-02-2.47566E-01-1.10577E-01
 -1      2186 4.97391E-02-3.74863E-02-5.00060E-01-1.42356E-02 3.51634E-01-2.85801E-01
 -1      2187 1.11486E-01-2.30274E-02-4.72354E-01 1.35166E-02 3.94565E-01-4.55372E-01
 -1      2188 6.04512E-03-1.98316E-02-3.62247E-01 1.81688E-02 4.00614E-01-5.80883E-01
 -1      2189 6.95171E-02-5.04341E-02-6.89025E-01 1.26711E-02 3.61398E-01-5.58085E-01
 -1      2190 1.69732E-01-6.54254E-03-7.92223E-01-5.85179E-04 3.02002E-01-6.27479E-01
 -1      2191 4.89022E-02 1.16310E-02-5.15381E-01 3.80097E-03 1.45287E-01-5.64504E-02
 -1      2192 3.67799E-02-2.69713E-04-5.08444E-01 5.19635E-03-1.40349E-03-2.09871E-02
 -1      2193 2.32207E-02-3.52030E-02-6.85332E-01 1.90375E-02-1.33617E-01-6.35243E-02
 -1      2194-1.29855E-02 3.00768E-02-3.62198E-01-9.13452E-03-1.38532E-01-6.63896E-02
 -1      2195 6.51542E-02-2.15597E-02-5.04658E-01-1.55445E-02 2.74130E-01-1.29381E-01
 -1      2196-4.02785E-02 5.37716E-02-2.82321E-01 4.41550E-03-2.42741E-01-1.12525E-01
 -1      2197 1.52670E-01 2.08340E-02-6.80389E-01-1.75433E-02 2.97339E-01-8.31107E-01
 -1      2198-1.06044E-01 4.13108E-04-3.56613E-01 1.72611E-02 3.33006E-01-7.77478E-01
 -1      2199 2.72809E-01 5.50014E-02-8.02195E-01-4.78351E-02 1.97228E-01-6.40429E-01
 -1      2200 3.32279E+00 5.39592E-03 1.87882E+00 1.03857E-02-5.98142E-03 3.27151E+00
 -1      2201 1.25477E+00-2.90516E-03 1.96536E+00 9.31446E-03-1.04769E-03 2.16758E+00
 -1      2202-1.43475E+00 4.55926E-02 1.99696E+00-2.69986E-02-1.33479E-03 1.49186E+00
 -1      2203-1.39838E+00 1.91739E-02 2.56614E+00-5.87805E-02 4.26609E-02 3.23270E+00
 -1      2204 9.94221E-02-8.55770E-02 2.64469E+00 4.89543E-02-1.14755E-02 1.94697E+00
 -1      2205 6.33524E+00 1.34212E-02 1.90189E+00 1.09867E-02-4.96590E-03 5.11641E+00
 -1      2206-4.91116E-01-4.99873E-02 2.56972E+00 2.69669E-02 1.68379E-02 2.11473E+00
 -1      2207-3.05483E-01 1.89889E-02 2.60168E+00 2.73676E-04-1.86918E-03 2.64419E+00
 -1      2208 3.98402E-01 2.20827E-02 2.51318E+00 7.30337E-03 1.24069E-02 2.56791E+00
 -1      2209-2.07446E-02 4.43138E-02 2.71634E+00 1.42146E-01 1.75238E-01 2.14997E+00
 -1      2210-2.68553E+00 7.28384E-02 1.56027E+00 7.29821E-02 4.09776E-02 1.21387E+00
 -1      2211 4.79574E+00 2.78127E-02 1.92722E+00 2.03646E-02-3.36147E-02 4.06861E+00
 -1      2212 1.03043E+00 3.49807E-02 2.62523E+00-1.29445E-02-1.14315E-02 3.58196E+00
 -1      2213 2.13290E+00 5.81734E-03 1.95755E+00 1.63686E-03-9.69338E-03 2.71610E+00
 -1      2214 6.20209E-01-9.94361E-03 2.04804E+00 2.39483E-02 1.29862E-02 1.69998E+00
 -1      2215-1.11930E+00 1.52862E-02 2.41547E+00-1.69546E-02-1.49441E-02 2.48313E+00
 -1      2216 1.76477E+00 5.08134E-02 2.43578E+00 2.94670E-02-3.39852E-02 4.36106E+00
 -1      2217 9.17220E+00-5.65979E-02 1.10435E+00 2.79724E-02-1.27462E-01 5.64900E+00
 -1      2218 1.21334E+00 2.34348E-03 2.46916E+00 1.34436E-03 3.23999E-03 3.13326E+00
 -1      2219-1.93577E+00 3.51155E-02 2.77016E-01 1.08768E-01-3.38373E-03 2.75509E-01
 -1      2220 2.17440E-01-3.56742E-02 2.47160E+00 3.36490E-02 2.91830E-02 1.44995E+00
 -1      2221 4.64923E-01 1.03938E-02 2.39397E+00 1.51689E-02 1.54955E-03 2.14384E+00
 -1      2222 1.55733E+01-7.70251E-02 7.58225E-02-2.21845E-01-5.44209E-02 4.80044E+00
 -1      2223 2.85221E-01 1.43098E-01 3.13960E+00 1.40404E-01 2.50156E-01 1.32027E+00
 -1      2224-1.98389E+00-3.73725E-01-1.03668E+00 2.94072E-01-1.21265E-01-3.21387E-01
 -1      2225-1.36700E+00 1.16065E-01 3.52889E-01 1.74848E-01-4.69465E-03 3.83457E-01
 -1      2226-3.16754E+00-1.75825E-01-4.49741E-01 5.60323E-01-7.19855E-02-1.21315E-01
 -1      2227-1.81357E+00-6.00966E-02 1.98681E+00 2.58412E-01-4.52233E-02 3.90532E+00
 -1      2228-3.63333E+00-3.19065E-02 1.73488E+00 1.05324E-01 2.03516E-02 2.20221E+00
 -1      2229-4.04441E+00-1.27691E-01 1.14720E+00 3.83115E-01-2.47719E-03 1.11269E+00
 -1      2230-3.86557E+00-2.09720E-01 1.29430E-01 4.91108E-01-9.49358E-03 2.68456E-01
 -1      2231-2.22473E+00-7.71315E-02 2.05549E+00 2.54855E-02 3.00730E-02 2.17745E+00
 -1      2232 2.51883E+01 2.13511E+00-3.63210E-01-3.60905E+00 5.04441E-01-1.37633E-01
 -1      2233 2.41135E-01 2.03754E-01 3.10782E+00 1.41043E-01 3.21924E-01 2.05314E+00
 -1      2234 3.27458E-01 2.80871E-01 3.30588E+00 1.62527E-01 3.20343E-01 2.00839E+00
 -1      2235 2.97752E-01 2.31701E-01 3.20338E+00 1.46601E-01 3.18984E-01 1.69228E+00
 -1      2236 1.25323E-01-1.87927E-04 2.24396E+00 3.06280E-02-2.21469E-02 1.02053E+00
 -1      2237 1.74338E-01-7.78071E-02 2.53180E+00 3.67466E-02 1.25308E-02 1.71151E+00
 -1      2238-1.73491E-01 3.23855E-01 2.77659E+00 2.53020E-01 3.86190E-01 1.93437E+00
 -1      2239 4.73725E-01 4.32975E-01 3.05638E+00 3.31251E-01 5.19285E-01 2.16224E+00
 -1      2240 3.31400E-03-3.71508E-02 2.72424E+00 6.78318E-02 4.35039E-02 2.08698E+00
 -1      2241-4.58028E-01 1.89021E-01 2.43440E+00 8.74056E-02 2.08242E-01 1.78619E+00
 -1      2242-1.79414E-01 2.03341E-01 2.76475E+00 1.40197E-01 2.55371E-01 2.02986E+00
 -1      2243-1.23402E-01 2.82193E-02 2.73133E+00 7.77375E-02 5.64729E-02 2.17256E+00
 -1      2244-1.25946E+00 6.42952E-02 1.27021E+00 5.24529E-02 3.22254E-02 9.92453E-01
 -1      2245-9.51278E-01 1.32023E-01 2.01999E+00 6.48072E-02 1.43594E-01 1.45422E+00
 -1      2246-8.92947E-01 2.31139E-04 2.29060E+00 1.34165E-02-7.24988E-03 1.83293E+00
 -1      2247-1.79282E+00 2.17137E-02 1.15721E+00 3.68470E-02 1.34812E-02 9.09497E-01
 -1      2248 7.57989E+00-2.13096E-01-4.33185E-01-3.09513E-01-4.82849E-01 5.57337E+00
 -1      2249 3.48952E+00-1.23164E-01 1.05042E+00 4.78949E-03-3.95670E-01 5.36259E+00
 -1      2250 7.99301E-02-4.87019E-02 1.88031E+00 5.14999E-02-1.48541E-01 4.48008E+00
 -1      2251 2.04960E-01 4.15583E-02 2.46587E+00-2.29891E-02-1.64805E-02 3.90004E+00
 -1      2252 4.00996E+00 6.75117E-02 2.29612E+00-3.69431E-05-3.87196E-02 4.70602E+00
 -1      2253 2.57231E+00 1.03949E-02 1.88416E+00-2.28805E-02-1.30185E-01 5.09298E+00
 -1      2254 7.48401E+00-5.87575E-02 1.48446E+00-1.12006E-02 3.62852E-02 5.46085E+00
 -1      2255 1.87733E+01 6.90606E-01-5.10509E-01-1.15450E+00-4.98934E-02 3.89330E+00
 -1      2256 1.17470E+01 1.12819E-01-6.78872E-01-8.16122E-01-6.72808E-01 5.82822E+00
 -1      2257 1.20597E+01-3.08279E-01 4.31057E-01-1.52538E-01-5.10144E-02 5.36501E+00
 -1      2258 2.69542E+01 3.74473E-01 7.47105E-01-1.02692E+00 4.32874E-01 3.19403E-01
 -1      2259 2.35755E+01-6.74170E-03-7.34820E-01-6.57630E-01 3.39199E-02 2.55052E+00
 -1      2260 2.08510E+01 1.22402E-01-8.26296E-02-1.33656E-01-6.30172E-02 3.82774E+00
 -1      2261-2.33163E+00 6.68877E-02 9.35435E-01-8.31499E-03 2.41288E-02 6.99436E-01
 -1      2262 1.80504E+01-4.00882E-02 4.76250E-01-6.91543E-02-7.01608E-02 4.24874E+00
 -1      2263 1.19291E+01-1.60598E-02 1.14081E+00 9.49060E-03-4.16181E-02 4.69430E+00
 -1      2264 1.47108E+01 4.64543E-03 7.93202E-01-3.75249E-03-6.58312E-02 4.75089E+00
 -1      2265 8.31619E+00 1.78046E-02 1.44352E+00-1.44904E-03-6.07744E-03 4.12990E+00
 -1      2266 1.03696E+01 5.18480E-02 1.34131E+00 5.77575E-03-4.35806E-03 4.46649E+00
 -1      2267 5.83983E+00 1.14173E-02 1.47774E+00 6.42070E-03-2.40195E-02 3.37426E+00
 -1      2268 7.37133E+00 5.12580E-02 1.43014E+00-9.86405E-03-3.75905E-03 3.67287E+00
 -1      2269 5.43597E+00-2.09504E-02 1.93736E+00 4.88740E-03-5.64136E-02 4.55228E+00
 -1      2270 3.87772E+00 1.64920E-02 1.49708E+00 5.11520E-03 2.65137E-03 2.75656E+00
 -1      2271 4.95277E+00 2.31647E-02 1.45468E+00-1.46757E-02-7.28984E-03 3.03504E+00
 -1      2272 3.97223E+00-5.01390E-03 1.89971E+00 1.30056E-02-3.86619E-02 3.69712E+00
 -1      2273 2.44307E+00 4.44905E-03 1.57041E+00 4.23272E-03-7.06171E-03 2.25809E+00
 -1      2274 3.21084E+00 2.09568E-02 1.53836E+00-5.87290E-03 3.32791E-03 2.49534E+00
 -1      2275 2.63569E+00-2.45860E-02 1.92525E+00 3.61519E-03 5.01746E-03 2.96051E+00
 -1      2276 1.40141E+00 2.30741E-03 1.65246E+00 4.45016E-04-1.83265E-03 1.79463E+00
 -1      2277 1.95059E+00 9.15214E-03 1.58884E+00-1.47938E-02 2.24948E-03 2.01384E+00
 -1      2278 1.63091E+00-2.47610E-02 1.92947E+00 1.08142E-02-1.52064E-02 2.44366E+00
 -1      2279 6.58035E-01-5.95383E-03 1.79693E+00 3.91793E-03 2.18856E-03 1.37614E+00
 -1      2280 1.04893E+00 4.82431E-03 1.68324E+00-5.36172E-03 2.72286E-03 1.57230E+00
 -1      2281 9.15338E-01 5.77995E-03 2.00645E+00 1.71451E-02 8.62365E-03 1.94628E+00
 -1      2282 4.03145E-01-2.87564E-03 1.98653E+00 2.68434E-03-6.82690E-03 1.22132E+00
 -1      2283 4.07759E-01-4.54248E-02 2.23951E+00 2.68241E-02 2.87872E-02 1.57234E+00
 -1      2284 2.17612E+00 9.98471E-03 2.20747E+00 1.16655E-02-3.18226E-03 3.45029E+00
 -1      2285 2.93676E+00 9.32685E-02 2.40345E+00-8.79510E-03-5.47852E-02 3.90663E+00
 -1      2286 2.27589E+00 2.25634E-02 2.21071E+00 3.56661E-03 1.29029E-02 3.23161E+00
 -1      2287 1.13198E+00 6.88291E-03 2.55051E+00-1.45281E-02-2.03615E-03 3.36627E+00
 -1      2288 1.72829E+00 3.40895E-03 2.22277E+00 1.89521E-02-6.26219E-03 2.93144E+00
 -1      2289 1.23775E+00 2.99943E-02 2.26949E+00 1.16121E-02-1.67483E-03 2.65652E+00
 -1      2290 8.90747E-01 2.83020E-02 2.28004E+00 1.55818E-02-6.31784E-03 2.39563E+00
 -1      2291 9.00874E-01 2.33436E-02 2.20716E+00 5.07802E-03-4.54869E-03 2.16987E+00
 -1      2292 4.48508E-01 2.41490E-02 2.43835E+00 2.05544E-02 2.86537E-03 2.37548E+00
 -1      2293 5.47010E-01-6.12113E-03 2.21508E+00 2.11366E-02 1.25749E-02 1.93066E+00
 -1      2294-9.74958E-01-1.23279E-02 2.37751E+00 2.91648E-03 9.08221E-03 2.10197E+00
 -1      2295-4.78450E-01-6.07149E-02 2.58692E+00 2.15002E-02 2.22619E-02 2.35230E+00
 -1      2296-1.35323E+00 5.00024E-03 2.20369E+00-2.33402E-02 1.02207E-02 1.93416E+00
 -1      2297-6.66391E-01 4.25313E-02 2.55035E+00-1.78673E-02 3.25324E-03 2.59995E+00
 -1      2298-1.95601E+00 1.20445E-02 2.00067E+00 6.56975E-02-2.37517E-03 1.84400E+00
 -1      2299-1.87779E+00 1.35573E-01 1.82533E+00 2.26238E-02 2.76558E-02 1.36458E+00
 -1      2300-1.35460E+00 2.53221E-02 2.53846E+00-3.25744E-02 6.89069E-03 2.81136E+00
 -1      2301 1.48879E-03 6.07157E-02 2.67900E+00-4.28418E-02-2.15218E-02 3.09149E+00
 -1      2302-3.41841E-02 5.25080E-02 2.63403E+00-4.20637E-02 1.55722E-02 3.37369E+00
 -1      2303 1.32012E+00 4.75545E-02 2.59132E+00 1.71464E-02-5.25012E-02 3.95614E+00
 -1      2304 1.94347E-01 6.32704E-02 2.64279E+00 9.53221E-02 6.77691E-02 2.21491E+00
 -1      2305 2.12449E-01-7.60676E-02 2.50913E+00 4.19432E-02 1.88170E-02 2.04243E+00
 -1      2306 3.65299E-01-6.62304E-02 2.36251E+00 4.90723E-02 1.71207E-02 1.83333E+00
 -1      2307 3.27652E+00-1.11130E-02 2.16359E+00 3.83718E-02-1.15706E-02 4.17094E+00
 -1      2308 1.56119E-01 4.35931E-02 2.56943E+00-2.81771E-03 1.28062E-02 2.64901E+00
 -1      2309-9.83580E-02-4.64436E-02 2.60304E+00 3.83958E-02 2.03315E-02 2.37894E+00
 -1      2310 1.65456E-01 4.67219E-02 2.64990E+00 8.09001E-02 6.60684E-02 2.37133E+00
 -1      2311 4.27047E-01 3.38026E-03 2.58170E+00-1.19595E-02 6.49986E-03 2.92544E+00
 -1      2312 7.60554E-01-2.78806E-05 2.47123E+00 3.14979E-03-3.50608E-03 2.82694E+00
 -1      2313 3.13751E-01 2.16762E-02 2.63291E+00-1.51773E-02-2.68828E-02 3.05188E+00
 -1      2314 3.32147E+00 1.52784E-02 1.91666E+00-1.43114E-02 7.63965E-03 3.34727E+00
 -1      2315 1.26041E+00 6.17457E-03 1.98913E+00-9.60090E-03 1.00907E-03 2.20206E+00
 -1      2316-1.47089E+00 7.53624E-02 1.89777E+00-1.69168E-02-4.31027E-02 1.47308E+00
 -1      2317-1.35575E+00 6.25218E-02 2.47219E+00-8.92760E-02 4.14990E-01 3.28602E+00
 -1      2318 1.44215E-01 7.18519E-02 2.54403E+00-1.19868E-01-1.50531E-01 1.79761E+00
 -1      2319 6.34538E+00-4.53086E-02 1.90788E+00-6.04033E-02 4.98004E-02 4.92423E+00
 -1      2320-5.92494E-01 5.32003E-02 2.44697E+00-6.11784E-02-1.00720E-01 2.01153E+00
 -1      2321-2.91169E-01-1.21601E-02 2.66997E+00 3.02216E-03 7.62269E-03 2.67470E+00
 -1      2322 5.00876E-01-1.74338E-02 2.55386E+00-8.84956E-03 4.04654E-03 2.59765E+00
 -1      2323 3.22572E-02-8.00089E-03 2.68214E+00-9.44843E-02-1.16301E-01 2.13467E+00
 -1      2324-2.66580E+00 7.44347E-02 1.53141E+00-7.13252E-02-2.35981E-02 1.22816E+00
 -1      2325 4.81291E+00 3.44460E-03 1.92763E+00-3.37758E-02 2.03316E-02 4.04214E+00
 -1      2326 9.91837E-01-1.82852E-02 2.65168E+00 1.39792E-02-2.05801E-02 3.56829E+00
 -1      2327 2.08702E+00 2.08490E-02 1.93907E+00-3.19854E-03 4.33892E-03 2.69412E+00
 -1      2328 6.65550E-01 1.85130E-03 2.09093E+00-1.34689E-02-8.21683E-03 1.73068E+00
 -1      2329-1.15123E+00 1.09850E-02 2.47974E+00 3.64679E-02-4.71214E-03 2.48508E+00
 -1      2330 1.84604E+00-9.73097E-02 2.45684E+00-6.89985E-02 1.36592E-01 4.31111E+00
 -1      2331 9.20579E+00-7.72491E-02 1.42830E+00 2.41486E-02 3.04897E-01 5.55587E+00
 -1      2332 1.23840E+00-1.30039E-03 2.40882E+00-3.39612E-04 1.75462E-04 3.06884E+00
 -1      2333-1.90987E+00 4.35962E-02 3.05132E-01-1.26567E-01-3.17305E-03 2.79595E-01
 -1      2334 1.42282E-01 1.83296E-02 2.37090E+00-5.89958E-02-9.16387E-02 1.39980E+00
 -1      2335 4.39022E-01-3.01887E-03 2.48469E+00-8.55619E-03-9.59503E-04 2.19800E+00
 -1      2336 1.55771E+01-2.84612E-02 6.62532E-02 2.56568E-01 1.12417E-01 4.91543E+00
 -1      2337 1.69047E-01 1.55085E-01 3.08683E+00-2.17943E-01-2.56925E-01 1.27971E+00
 -1      2338-1.27929E+00 1.60581E-01 4.13247E-01-2.17682E-01-2.09128E-03 3.93766E-01
 -1      2339-1.97092E+00-3.82464E-01-1.03213E+00-2.99944E-01 1.26241E-01-3.17360E-01
 -1      2340-3.16530E+00-1.79570E-01-4.22510E-01-5.61909E-01 6.93704E-02-1.33832E-01
 -1      2341-3.29379E+00 1.31413E-01 2.10918E+00-1.68257E-01 1.42341E-01 2.15708E+00
 -1      2342-1.83123E+00-1.88543E-01 1.13703E+00-2.78609E-01 8.44650E-01 3.80301E+00
 -1      2343-3.91932E+00-2.45111E-01 9.25730E-02-4.89483E-01 1.82611E-02 2.56420E-01
 -1      2344-3.99979E+00-1.16974E-01 1.11195E+00-3.74677E-01 1.06505E-02 1.18840E+00
 -1      2345-2.07303E+00 7.29309E-02 2.39760E+00-6.90817E-02 1.41518E-01 2.13139E+00
 -1      2346 2.53035E+01 1.94481E+00-5.20700E-01 3.40804E+00-7.74503E-01-5.26248E-01
 -1      2347 3.58401E-01 4.23493E-01 3.36789E+00-4.63878E-01-6.49657E-01 1.97490E+00
 -1      2348 7.71539E-03 3.49367E-01 2.90260E+00-4.03787E-01-5.30248E-01 1.88336E+00
 -1      2349 4.66788E-02 4.88815E-03 2.26531E+00-3.08159E-02 3.28952E-03 9.89502E-01
 -1      2350 3.66970E-01 2.91874E-01 3.24912E+00-3.67007E-01-5.09773E-01 1.71465E+00
 -1      2351 1.24879E-01-9.75630E-03 2.36489E+00-9.68148E-02-1.41275E-01 1.59943E+00
 -1      2352 5.35450E-01 4.43860E-01 3.01603E+00-3.24170E-01-4.00191E-01 2.19245E+00
 -1      2353 1.87955E-01 3.10541E-01 3.03730E+00-4.17740E-01-5.07678E-01 2.15191E+00
 -1      2354 1.25953E-01 6.18697E-02 2.72437E+00-1.27906E-01-1.03752E-01 2.01397E+00
 -1      2355-1.71724E-01 3.47188E-01 2.87516E+00-3.68945E-01-4.77835E-01 2.05059E+00
 -1      2356-5.35091E-01 2.37326E-01 2.48349E+00-3.43149E-01-3.79920E-01 1.79460E+00
 -1      2357-2.04136E-01-8.35012E-03 2.54109E+00-7.90242E-02-1.29823E-01 2.07857E+00
 -1      2358-8.73025E-01 2.40121E-01 2.12677E+00-2.75676E-01-3.07528E-01 1.50364E+00
 -1      2359-1.31971E+00 7.98627E-02 1.26450E+00-1.84406E-01-1.15041E-01 9.62653E-01
 -1      2360-9.24416E-01 1.03995E-01 2.22473E+00-2.33099E-02-8.28105E-02 1.77645E+00
 -1      2361-1.75766E+00 1.41353E-02 1.19586E+00-5.51173E-02-2.52221E-02 9.15674E-01
 -1      2362 2.84559E+00-3.04986E-01 8.56526E-01 9.91413E-02 9.79636E-01 5.31091E+00
 -1      2363 8.13935E+00-8.94502E-02 6.81736E-02 5.52952E-01 9.91825E-01 5.77778E+00
 -1      2364 1.88692E-01-1.49454E-02 2.17481E+00-1.28992E-01 4.22689E-01 3.97452E+00
 -1      2365 1.51457E-01 2.83975E-03 1.86842E+00-8.24138E-02 7.72536E-01 4.46989E+00
 -1      2366 2.11738E+00-3.92502E-02 1.77398E+00-1.56603E-01 7.08332E-01 4.91034E+00
 -1      2367 4.12019E+00-9.64753E-02 2.31341E+00-1.03824E-01 8.17041E-02 4.58329E+00
 -1      2368 7.49217E+00-1.00968E-01 1.63707E+00-1.01362E-01 2.53199E-01 5.49358E+00
 -1      2369 1.17108E+01 5.35539E-02-1.04045E+00 9.43108E-01 8.01886E-01 5.89111E+00
 -1      2370 1.88480E+01 7.91288E-01-4.76710E-01 1.22104E+00 1.37604E-01 4.07953E+00
 -1      2371 1.20736E+01-3.03014E-01 5.69123E-01 1.50654E-01 1.76440E-01 5.28639E+00
 -1      2372 2.31467E+01 1.56551E-01-8.95270E-01 1.32540E+00 8.14353E-02 2.39329E+00
 -1      2373 2.67849E+01 4.65045E-01 3.25522E-01 1.62089E+00-5.52762E-01 2.15957E-01
 -1      2374 2.10350E+01 9.83083E-02-1.48359E-01 2.60389E-01 3.99565E-02 3.85158E+00
 -1      2375-2.32384E+00 7.28547E-02 9.45577E-01-7.68710E-03-3.00468E-02 7.10982E-01
 -1      2376 1.79594E+01-2.27068E-02 4.28871E-01 6.91262E-02 1.09945E-01 4.29736E+00
 -1      2377 1.45509E+01-1.84739E-02 6.12637E-01-4.20372E-02 1.19683E-01 4.74140E+00
 -1      2378 1.18878E+01-3.46528E-02 9.28348E-01-4.93680E-02 1.22196E-01 4.63616E+00
 -1      2379 1.04449E+01 4.78651E-02 1.33372E+00-4.08238E-02 7.21435E-02 4.42615E+00
 -1      2380 8.31636E+00 2.82577E-02 1.41023E+00 1.10266E-02-5.49270E-03 4.08823E+00
 -1      2381 7.40531E+00 5.39353E-02 1.46583E+00 7.00700E-03-5.96936E-03 3.65472E+00
 -1      2382 5.80375E+00 8.19644E-03 1.50284E+00-1.80888E-03 1.07178E-02 3.37261E+00
 -1      2383 5.48988E+00-4.03197E-02 1.95298E+00-4.78197E-02-8.68581E-03 4.52128E+00
 -1      2384 4.94197E+00 3.17571E-02 1.46737E+00 2.40010E-03-2.71320E-03 3.04396E+00
 -1      2385 3.88458E+00 1.54528E-02 1.50428E+00-6.58015E-03 6.26038E-03 2.77137E+00
 -1      2386 3.89673E+00-3.75978E-02 1.86791E+00-2.12254E-02-1.71808E-02 3.70261E+00
 -1      2387 3.19831E+00 1.97345E-02 1.53220E+00 1.37739E-02-4.87956E-03 2.49099E+00
 -1      2388 2.44149E+00 7.38663E-03 1.59265E+00 7.11181E-04 5.76369E-04 2.26036E+00
 -1      2389 2.61430E+00-1.34282E-02 1.91378E+00-6.05877E-04 2.11229E-02 2.98178E+00
 -1      2390 1.95071E+00 1.00407E-02 1.59115E+00 8.10919E-03-3.08484E-03 2.02300E+00
 -1      2391 1.41134E+00 1.07674E-03 1.65446E+00-4.55016E-03 4.82279E-03 1.81130E+00
 -1      2392 1.63122E+00-6.77381E-03 1.94835E+00-3.49375E-03-9.17126E-03 2.45111E+00
 -1      2393 1.05717E+00 6.48214E-03 1.70288E+00 4.56674E-03-1.41475E-03 1.58545E+00
 -1      2394 6.84453E-01 2.20056E-04 1.79430E+00-6.40215E-03 1.77518E-03 1.38309E+00
 -1      2395 9.39058E-01-3.40159E-03 2.03055E+00-1.37675E-02 3.46643E-03 1.95705E+00
 -1      2396 3.69699E-01 1.25412E-03 1.96922E+00 6.14744E-04 5.18813E-03 1.21994E+00
 -1      2397 4.59841E-01 4.56269E-02 2.29105E+00-2.61540E-02-2.34761E-02 1.60429E+00
 -1      2398 2.94940E+00 4.66200E-02 2.40181E+00-3.41566E-02-3.45108E-02 3.87281E+00
 -1      2399 2.19226E+00-2.61865E-02 2.30701E+00 6.39562E-03-1.38310E-02 3.47158E+00
 -1      2400 1.14253E+00-5.53563E-03 2.50933E+00 3.89787E-03 1.97594E-02 3.33878E+00
 -1      2401 2.28380E+00 3.19592E-02 2.22713E+00 9.26222E-03 1.59373E-02 3.23202E+00
 -1      2402 1.68144E+00 1.47152E-02 2.14902E+00-2.82657E-03 2.62142E-03 2.89940E+00
 -1      2403 8.85429E-01-3.49403E-03 2.27093E+00-7.90399E-03-2.54192E-03 2.40904E+00
 -1      2404 1.26927E+00 2.73469E-02 2.29297E+00-1.10996E-03 9.54116E-03 2.67742E+00
 -1      2405 4.63416E-01-6.80707E-03 2.51388E+00-9.38370E-03-6.70345E-03 2.40236E+00
 -1      2406 8.63132E-01 6.71650E-03 2.24371E+00-1.68764E-02-3.08032E-03 2.19926E+00
 -1      2407 5.86237E-01 2.45916E-03 2.29974E+00-2.04986E-02 3.85250E-03 1.97214E+00
 -1      2408-5.33937E-01 2.99056E-03 2.56813E+00 2.37020E-03-1.29229E-02 2.34199E+00
 -1      2409-9.34345E-01 2.24633E-02 2.37689E+00 2.02754E-02-6.20906E-03 2.11377E+00
 -1      2410-6.62188E-01 5.12552E-03 2.61501E+00 1.01814E-02 9.38287E-03 2.60502E+00
 -1      2411-1.36366E+00 3.45713E-02 2.20046E+00 4.85133E-02-8.19102E-03 1.95176E+00
 -1      2412-1.86665E+00 1.30949E-01 1.79215E+00-3.40705E-02-2.10701E-02 1.37033E+00
 -1      2413-1.90950E+00 1.29703E-02 2.01102E+00-3.98706E-02-1.47586E-02 1.84913E+00
 -1      2414-1.32657E+00 9.12755E-02 2.73407E+00 1.17290E-02 1.22281E-01 2.86452E+00
 -1      2415-1.72978E-01-4.29052E-03 2.61385E+00-2.78008E-02 1.15794E-01 3.47267E+00
 -1      2416-9.25450E-02 5.63666E-03 2.62122E+00 1.02074E-02-2.95896E-02 3.07866E+00
 -1      2417 1.20249E+00-5.24873E-02 2.57045E+00-3.45427E-02-1.30567E-02 3.97412E+00
 -1      2418 3.17628E-01 3.69256E-02 2.60476E+00-4.04248E-02-3.68159E-02 2.05177E+00
 -1      2419 1.71103E-01 1.52891E-02 2.63548E+00-1.57232E-02-2.95582E-02 2.20396E+00
 -1      2420 4.81519E-01 6.50012E-02 2.45174E+00-3.61316E-02-4.41877E-02 1.84272E+00
 -1      2421 3.20271E+00-1.63729E-01 2.09228E+00-9.12230E-02 3.99467E-02 4.16852E+00
 -1      2422-6.07614E-02 1.35842E-02 2.60907E+00-1.88576E-03-1.63992E-02 2.36720E+00
 -1      2423 1.35998E-01-2.38060E-02 2.60479E+00-1.23327E-02 1.94087E-02 2.65847E+00
 -1      2424 2.15792E-01 1.54275E-02 2.65439E+00-1.90718E-02-1.96672E-02 2.35507E+00
 -1      2425 7.98393E-01-3.78390E-02 2.47911E+00 1.37447E-03-1.71446E-03 2.81590E+00
 -1      2426 3.61709E-01-3.73565E-02 2.55577E+00-2.22379E-02-2.17305E-03 2.91093E+00
 -1      2427 2.95051E-01-1.27404E-02 2.63720E+00 2.06624E-03-1.51199E-02 3.06715E+00
 -1      2428 6.45118E+00-2.40936E-02-7.21553E-01-1.69520E-01 1.75735E-01-2.68492E+00
 -1      2429-3.04416E-01-1.93595E-02-2.68550E-01-1.07952E-02-1.67341E-01-3.39611E+00
 -1      2430-1.51560E+00 3.39117E-01-1.66200E+00-2.51121E-01 3.17162E-01 2.38337E+00
 -1      2431 5.72938E+00 1.96044E-01-2.92709E+00 9.35812E-03 4.36699E-01-1.41781E+00
 -1      2432-3.79431E+00 2.15302E-01-3.17514E+00-4.43075E-01-9.40409E-02-3.88317E+00
 -1      2433-7.58257E-01-1.89170E-02-6.72049E-02 4.73250E-02-1.96382E-01-4.62820E+00
 -1      2434 4.98890E+00 3.15133E-02-2.12187E+00-1.61814E-02 2.87855E-01 2.75459E+00
 -1      2435-4.72209E+00 5.23485E-02-9.34922E-01 2.77786E-01 1.26466E-01-4.62597E+00
 -1      2436-2.87446E+00 6.97656E-02 3.70395E+00-1.64830E-01 1.59888E-01 1.41512E+00
 -1      2437-1.88317E+00-6.64294E-02 2.99644E+00-1.19852E-01-1.04356E-01-1.98445E+00
 -1      2438 9.76200E-01 9.60510E-02-6.22994E-01 1.46633E-01-6.57452E-02-2.24001E+00
 -1      2439-5.36917E+00-8.59015E-03-4.72160E+00-7.80885E-03 7.04988E-01-3.38142E+00
 -1      2440-1.33570E-01 1.15832E-01-1.89824E+00 7.33272E-03-3.27976E-01-3.46234E+00
 -1      2441-6.81947E-01-1.19579E-04-5.85911E+00 5.45261E-02-1.89584E-01-3.75857E+00
 -1      2442 9.72684E-02 2.44176E-01-5.47843E+00-5.03510E-03 1.03675E-02-3.58880E+00
 -1      2443-1.13150E+00-3.57958E-02 5.18348E-02-5.73396E-03-1.67903E-02-1.75901E+00
 -1      2444-6.34458E-01-6.23681E-02-9.76681E+00 7.95976E-02-3.65187E-01-2.60796E+00
 -1      2445-1.77940E-01-2.15472E-03-7.36424E+00 7.21631E-03-1.44119E-01-2.15179E+00
 -1      2446-4.81571E+00 1.32297E-01-9.01142E+00-2.61727E-01-6.56214E-01-6.03088E+00
 -1      2447-1.52377E+00 4.63658E-01-8.28733E+00-1.90727E-01-5.28603E-01-2.74777E+00
 -1      2448-2.57866E+00-2.29248E-01-5.34196E+00-2.16859E-01-1.80924E-01-4.27248E+00
 -1      2449 1.13291E-01 1.23375E-01-7.11714E+00-4.07375E-03 5.74255E-02-2.32047E+00
 -1      2450-4.46541E-01-5.24579E-01-8.42868E+00 3.65703E-02-1.15913E+00-2.33079E+00
 -1      2451-6.91575E-01-3.61438E-01-5.86691E+00-1.09362E-01-7.56510E-01-3.31098E+00
 -1      2452-7.51717E-01-7.47562E-01-4.16618E+00-1.43985E-01-9.30197E-01-3.17604E+00
 -1      2453-1.10710E+00-4.81798E-01-3.36150E+00-2.94606E-01-4.86582E-01-3.15158E+00
 -1      2454 1.21242E-01 9.41838E-02 7.47004E-01 4.71646E-02 4.11384E-02-2.04097E+00
 -1      2455-7.85951E-01 1.00566E-02 5.46414E+00-4.48981E-02 2.51683E-02-1.01090E+00
 -1      2456-7.32341E-01-7.60933E-02 6.89410E+00-1.16336E-01-4.28944E-03 7.26113E-01
 -1      2457-1.33502E-01-1.08386E-01 1.19954E+00 2.41054E-03-1.20259E-01-2.11828E+00
 -1      2458-3.43039E-01-1.50686E-01 3.62227E+00-5.78520E-02-1.19735E-01-1.69621E+00
 -1      2459-1.00543E+00-1.06361E-01 1.39526E+00-7.81257E-02-1.15616E-01-2.83860E+00
 -1      2460 9.74576E+00-3.22784E-02-1.11467E+00 1.30592E-01 1.45130E-01 1.67684E+00
 -1      2461 9.46772E+00 5.23259E-02-1.17598E+00-6.86218E-03 1.22523E-01-4.42879E-01
 -1      2462 1.02459E+01-1.18146E-01-5.00620E-01-8.65447E-02 7.58953E-03-1.17866E+00
 -1      2463 1.03062E+01-9.05840E-02-4.53684E-01-1.05879E-01-8.28784E-03-1.17657E+00
 -1      2464 6.37478E+00 2.74040E-01-1.48699E+00-5.34592E-02 1.98755E-01-2.04110E+00
 -1      2465 9.91471E-01 1.95152E-01-7.33772E-01-3.59107E-03-5.39820E-02-1.36433E+00
 -1      2466 3.71784E-01 4.71995E-02-5.78079E-01 2.14408E-02-8.47318E-02-1.90508E+00
 -1      2467 2.35725E+00 9.42314E-02-6.04636E-01 2.75877E-01 9.93644E-02-1.62066E+00
 -1      2468-4.78071E-01-8.00685E-03-2.73277E-01 3.28023E-02-6.73479E-02-1.64417E+00
 -1      2469-9.37340E-01-1.35014E-01 8.70152E-03 6.53753E-02 3.67691E-03-1.17139E+00
 -1      2470-2.25852E+00-9.25930E-02 1.72078E-01-1.40628E-01 5.93212E-02-1.17836E+00
 -1      2471-1.18991E+01 4.03983E-01-2.44436E+00 2.17659E-01 4.26744E-01-3.09355E+00
 -1      2472-1.10135E+01 3.53453E-01-5.16473E+00-2.21984E-02 4.92002E-01-6.50503E+00
 -1      2473-7.03615E+00-7.67864E-02-2.26901E-01 2.78566E-01 2.46265E-01-2.84585E+00
 -1      2474-1.09047E+01-1.61058E-01-9.08239E-01 2.07579E-01 2.33503E-01-3.47683E+00
 -1      2475-5.28274E+00 2.45472E-01-2.68181E+00-2.09192E-01 3.60861E-01-4.61581E+00
 -1      2476 1.00575E+01-1.19728E-01-3.05651E-01-2.24616E-01 8.76446E-03-1.15491E+00
 -1      2477 7.86053E+00-5.51005E-02-3.35000E-01-3.12734E-01 2.71852E-01-1.99824E+00
 -1      2478-6.16261E-02 1.20943E-01-5.34808E+00-5.90409E-02-1.22319E-01-3.66013E+00
 -1      2479-2.23654E-01-5.39942E-02-4.04377E+00-3.84432E-02-2.36983E-01-3.72615E+00
 -1      2480-9.21836E-01-7.35645E-02 6.79371E+00-1.87302E-02 1.34283E-01 2.12330E+00
 -1      2481 9.42934E-01 8.40215E-02 6.83948E+00-9.06311E-02 3.72489E-02 4.32917E+00
 -1      2482-2.87423E+00-1.12982E-01 2.97981E+00-2.35330E-01 9.98607E-02-7.90412E-01
 -1      2483 1.62857E+00 3.44690E-02 4.12459E+00-1.30962E-01 2.40507E-01 4.75263E+00
 -1      2484 4.24134E+00 3.98730E-02 2.01222E+00-1.63771E-02 1.20641E-01 4.97395E+00
 -1      2485-3.61437E+00-4.70060E-01 3.63478E-01-2.00091E-02 5.84646E-01 1.81858E+00
 -1      2486 7.73737E+00-1.73684E-03 1.70581E+00-2.63214E-03-9.15842E-04 5.47338E+00
 -1      2487 9.30993E+00-2.04391E-02-3.41844E-01-1.78322E-02 3.71769E-02 3.67484E+00
 -1      2488 1.57553E+00 1.09826E-01-2.15427E+00-1.44119E-01 2.89820E-01 2.49758E+00
 -1      2489 4.98130E+00-1.68635E-01-2.96253E+00 4.93155E-02 3.43459E-01 4.68824E-01
 -1      2490-1.94760E-01-4.15423E-03-1.22848E+00-3.07572E-02-2.29522E-01-3.50196E+00
 -1      2491-1.27775E-01 6.20733E-02-1.75150E-01 4.41451E-02-9.46042E-02-2.24989E+00
 -1      2492-8.65943E+00 9.71535E-01-4.22964E+00 8.36121E-02-2.99071E-01-3.66964E+00
 -1      2493-4.55223E+00 8.00066E-01-6.07495E+00-2.61157E-01 2.97183E-02-3.35956E+00
 -1      2494-5.21347E+00 6.46894E-02-4.54436E+00 1.42276E-01-2.34596E-01-3.35442E+00
 -1      2495-4.21432E+00-2.48649E-01-4.10747E-01-5.08060E-01 6.73777E-02-1.19269E+00
 -1      2496-4.16258E+00-5.84998E-01-5.10201E+00 2.21904E-01 3.19692E-01-4.69254E-01
 -1      2497-2.60381E+00 1.20033E-02 1.42766E-01-4.96706E-02-4.76165E-02-2.54482E+00
 -1      2498-5.40860E+00-3.47638E-01 1.77442E-02 9.13684E-02-1.03169E-01-3.03797E+00
 -1      2499-2.06119E+00 1.27308E-01-6.41819E-02 1.55830E-01-1.05159E-01-4.68464E+00
 -1      2500-1.14339E+00 9.49298E-02 2.02366E-01-5.37395E-03-9.25929E-02-3.08052E+00
 -1      2501 4.57911E+00 3.43499E-01-1.69819E-01-6.63402E-02-6.25048E-03-3.29513E+00
 -1      2502 2.13652E+00 1.27486E-02-2.91727E-01 9.57797E-03-1.99587E-02-2.90305E+00
 -1      2503 2.08116E+00-2.20048E-02-3.44775E-01-9.42718E-02-4.24949E-02-4.24904E+00
 -1      2504 9.33466E-02-1.85289E-01-6.46718E-01 1.57149E-01-1.09174E-01-3.37782E+00
 -1      2505 6.93297E-01 3.39884E-01-2.04151E+00 2.67177E-01 2.87420E-01-3.36014E+00
 -1      2506 3.85440E-01-1.89678E-01-1.22779E+00 1.04691E-01 1.38053E-01-4.20035E+00
 -1      2507-6.56888E-01-1.61601E-02-2.99506E+00 2.14294E-02-2.10426E-01-3.78848E+00
 -1      2508-1.61242E+00-1.42659E-01-1.44254E+00-6.26621E-02-2.94497E-01-3.37195E+00
 -1      2509-1.95686E-01 8.10836E-02-2.85403E+00-8.63037E-02-1.84149E-01-3.66738E+00
 -1      2510 7.53485E-01 2.63100E-02-3.90774E+00 2.31570E-01 5.73618E-01-3.71876E-01
 -1      2511 7.28413E-01 1.12572E-01-3.70568E+00 1.22016E-01 6.05119E-01-2.37887E+00
 -1      2512-2.65018E+00 6.60202E-02-4.60003E-01-2.33694E-01-1.80308E-02-2.88542E+00
 -1      2513-1.89204E+00-7.65799E-02-1.22852E+00 1.11773E-01-1.49495E-01-5.04044E+00
 -1      2514-3.21078E-01 1.62064E-02-2.29426E-01-2.36435E-02 1.68296E-01-3.35141E+00
 -1      2515 6.22460E+00 2.93058E-01-2.83043E+00-5.40936E-02-4.73029E-01-1.01573E+00
 -1      2516-1.52024E+00 3.26606E-01-1.67376E+00 2.41768E-01-3.25589E-01 2.36788E+00
 -1      2517-4.01438E+00 2.55119E-01-3.11207E+00 4.50276E-01 1.25952E-01-3.81825E+00
 -1      2518 2.34898E-01 8.18625E-03-2.07753E-01 1.50784E-02 1.77494E-01-4.63425E+00
 -1      2519 8.22442E+00-8.24027E-03-1.07458E+00 1.01084E-01-1.24817E-01-1.37314E+00
 -1      2520 5.08190E+00 5.15715E-02-2.12346E+00 3.31406E-02-2.91390E-01 2.85232E+00
 -1      2521-2.85540E+00 6.73215E-02 3.72209E+00 2.11491E-01-1.63174E-01 1.50826E+00
 -1      2522-1.00400E+00-6.46433E-02 3.62685E-03 3.61859E-02 4.28250E-02-2.09067E+00
 -1      2523-1.82229E+00-6.75299E-02 2.99247E+00 1.02532E-01 1.33625E-01-2.01199E+00
 -1      2524-3.55881E+00 2.39204E-01-4.72273E+00 1.72049E-03-5.95228E-01-2.57425E+00
 -1      2525 5.22686E+00-9.12834E-02-3.03208E-01 1.48946E-01-2.01995E-01-3.45753E+00
 -1      2526-1.86631E-01 6.23303E-02-2.08881E+00 2.65534E-02 3.40290E-01-3.43691E+00
 -1      2527-5.95626E-01 7.69325E-02-6.03224E+00-6.71001E-02 2.85759E-01-3.75281E+00
 -1      2528 1.15848E-01 2.46598E-01-5.46070E+00-5.14216E-03 1.61146E-03-3.59070E+00
 -1      2529 1.17319E+00 1.18577E-01-8.28069E-01-4.82965E-02-6.07491E-04-1.85863E+00
 -1      2530-5.16883E-01-5.34134E-01-8.44350E+00-6.45433E-02 1.13944E+00-2.37659E+00
 -1      2531 1.25675E-01 1.20435E-01-7.14960E+00 7.55102E-03-4.88885E-02-2.34562E+00
 -1      2532-6.32950E-01-3.52442E-01-5.91979E+00 1.39332E-01 7.96316E-01-3.31110E+00
 -1      2533-1.26967E-01-1.27807E-02-7.33871E+00-1.93832E-02 1.95102E-01-2.15820E+00
 -1      2534-6.12057E-01 2.73051E-03-9.86985E+00-1.15686E-01 4.03531E-01-2.61423E+00
 -1      2535-1.63776E+00 5.47712E-01-8.20296E+00 1.83166E-01 5.14852E-01-2.76167E+00
 -1      2536-4.86455E+00 1.70457E-01-8.93012E+00 3.00186E-01 5.72710E-01-6.00734E+00
 -1      2537-2.55136E+00-3.63202E-02-5.39608E+00 1.39374E-01 2.94054E-01-4.25748E+00
 -1      2538-1.10386E+00-4.85486E-01-3.42715E+00 2.87703E-01 4.83185E-01-3.10709E+00
 -1      2539-7.39692E-01-7.54852E-01-4.18414E+00 1.64266E-01 9.57563E-01-3.15565E+00
 -1      2540-4.29035E-02-1.61335E-02 5.63771E-01-1.35279E-02 2.26569E-02-2.04268E+00
 -1      2541-7.50316E-01-6.88317E-02 6.92747E+00 1.21435E-01 3.81720E-02 6.81675E-01
 -1      2542-7.59059E-01 1.32096E-02 5.41540E+00 3.91334E-02-1.15018E-02-1.02387E+00
 -1      2543-4.19730E-01-1.07550E-01 3.60971E+00 6.46916E-02 8.79149E-02-1.70730E+00
 -1      2544-1.78970E-01-3.79620E-02 1.21176E+00-7.27069E-02 7.29358E-02-2.16016E+00
 -1      2545-8.71930E-01-4.95564E-02 1.37199E+00-2.95849E-02 1.57621E-01-2.79823E+00
 -1      2546 9.65383E+00-3.13209E-02-1.18962E+00-3.74415E-02-1.08554E-01-2.18120E-01
 -1      2547 9.89794E+00-1.00150E-01-1.02818E+00-1.38507E-01-1.53274E-01 1.94988E+00
 -1      2548 1.08849E+01-1.34037E-01-3.88796E-01 8.59276E-02 8.85853E-03-4.15701E-01
 -1      2549 1.09414E+01-1.26376E-01-4.45853E-01 8.52399E-02 1.33893E-02-4.94666E-01
 -1      2550 7.49251E+00 4.13930E-01-1.60603E+00 3.97161E-02-2.37157E-01-1.18082E+00
 -1      2551-9.60650E-01-1.59496E-01-3.89690E-02-5.00945E-02 2.03019E-02-1.30971E+00
 -1      2552-3.34484E-01-1.97145E-03-2.19237E-01-3.20150E-02 4.47339E-02-1.86584E+00
 -1      2553-2.22653E+00-9.99233E-02 1.74940E-01 1.48621E-01-3.11203E-02-1.42447E+00
 -1      2554 4.38360E-01 1.87770E-02-6.27431E-01 1.28188E-02 4.65404E-02-1.76349E+00
 -1      2555 9.96035E-01 1.77081E-01-8.29934E-01 4.22712E-02 1.65724E-02-1.22534E+00
 -1      2556 2.30543E+00 1.56779E-01-7.00694E-01-1.61535E-01-1.31235E-01-1.31829E+00
 -1      2557 1.07878E+01-1.37339E-01-4.13181E-01 1.75350E-01 3.52670E-04-4.30941E-01
 -1      2558 7.39359E+00 8.44780E-03-1.31774E-01 2.84529E-01-1.68315E-01-2.20028E+00
 -1      2559 9.59548E+00-1.17007E-01-4.51715E-01 1.43259E-01-1.01198E-01-1.61431E+00
 -1      2560 6.88270E+00-1.13115E-01-8.73797E-01 1.79778E-01-2.32923E-01-2.60822E+00
 -1      2561-9.64060E+00 1.56993E-02-1.05228E+00-2.15113E-01 1.48627E-01-3.71002E+00
 -1      2562-5.92861E+00-8.37063E-02-4.29647E-01-1.17926E-01-2.60807E-01-3.20067E+00
 -1      2563-1.00961E+01 4.16243E-01-5.45403E+00 1.64735E-01-3.61157E-01-6.02523E+00
 -1      2564-1.01482E+01 1.07600E+00-1.65347E+00-1.32365E-01-2.12437E-01-2.68092E+00
 -1      2565-2.63042E+00 1.23041E-01-3.46304E+00 3.53888E-01-2.98960E-01-4.35409E+00
 -1      2566 1.82244E-02 1.70809E-01-5.23092E+00 5.10314E-02 1.80521E-01-3.65845E+00
 -1      2567-2.12823E-01-6.30049E-02-4.07759E+00 3.05346E-02 2.45890E-01-3.72927E+00
 -1      2568 9.87026E-01 7.97155E-02 6.83586E+00 9.75145E-02-1.79603E-02 4.33585E+00
 -1      2569-9.03726E-01-5.32812E-02 6.87673E+00 9.01663E-03-1.36782E-01 2.08698E+00
 -1      2570-2.92188E+00-1.29138E-01 3.04666E+00 3.21532E-01-6.64237E-02-7.83285E-01
 -1      2571 4.19835E+00 3.30480E-02 1.98981E+00 1.87169E-02-1.28051E-01 4.94540E+00
 -1      2572 1.62211E+00 1.47418E-02 4.11221E+00 1.48120E-01-2.35057E-01 4.76471E+00
 -1      2573-3.63947E+00-5.09678E-01 3.16333E-01-6.08244E-03-5.63352E-01 1.81840E+00
 -1      2574 9.32231E+00-2.50613E-02-2.94252E-01 2.43348E-02-3.01006E-02 3.74327E+00
 -1      2575 7.75743E+00 2.46482E-02 1.67846E+00-4.69928E-03 1.43442E-03 5.49002E+00
 -1      2576 1.57633E+00 1.29288E-01-2.15019E+00 1.21118E-01-2.88552E-01 2.54003E+00
 -1      2577 5.29172E+00-1.34448E-01-2.81185E+00-4.27530E-02-3.45413E-01 7.82680E-01
 -1      2578-2.48919E-01 9.80200E-02-1.27385E+00 5.46718E-02 2.66972E-01-3.50766E+00
 -1      2579 1.29910E-01 1.01250E-02-4.15709E-01 5.10422E-03 8.62225E-02-2.21647E+00
 -1      2580 2.48856E+00-8.91692E-03-3.74408E-01-7.38026E-02 2.96243E-02-2.74491E+00
 -1      2581 5.20386E+00 3.47833E-01-1.04246E-01 8.76274E-02-1.94815E-02-3.02676E+00
 -1      2582 2.41993E+00-6.06757E-03-2.46249E-01 5.18242E-02 6.06397E-02-4.23827E+00
 -1      2583 9.70217E-01-2.70063E-02-6.82286E-01-3.76763E-02 7.79303E-02-3.15292E+00
 -1      2584-5.02916E+00-3.25839E-01-7.12603E-02-7.75087E-02 7.50981E-02-3.20411E+00
 -1      2585-2.32200E+00-4.75461E-04 9.18930E-02 5.97473E-02 3.63153E-02-2.72648E+00
 -1      2586-7.39800E-01-7.26185E-02-5.18439E-01 9.89341E-02 5.79893E-02-5.03406E+00
 -1      2587-3.88361E-01 1.55482E-01 1.77875E-01 6.25339E-02 1.07590E-01-3.30892E+00
 -1      2588-4.52560E+00 7.93213E-01-6.11412E+00 2.45721E-01-4.87498E-02-3.35247E+00
 -1      2589-8.60899E+00 1.00836E+00-4.13158E+00-7.67479E-02 3.17310E-01-3.64600E+00
 -1      2590-5.22827E+00 9.02818E-02-4.60074E+00-1.07956E-01 2.34715E-01-3.32088E+00
 -1      2591-4.22648E+00-2.82464E-01-2.53479E-01 6.29152E-01-2.52542E-02-1.11856E+00
 -1      2592-3.86680E+00-6.39396E-01-5.16139E+00-2.54168E-01-3.48343E-01-3.28048E-01
 -1      2593 2.38195E+00 2.32897E-01-2.16007E+00-2.83112E-02-4.05884E-01-3.15249E+00
 -1      2594 3.05156E+00-7.59137E-02-1.51481E+00 4.33917E-02-1.88371E-01-3.58562E+00
 -1      2595 1.70307E+00 3.28487E-01-3.43506E+00-1.40326E-01-6.47703E-01-1.94890E+00
 -1      2596 1.52292E+00-1.46630E-01-8.95009E-01 1.05076E-01-1.54567E-01-4.56581E+00
 -1      2597-1.58761E+00-3.91146E-02-1.54224E+00 4.53485E-03 3.65509E-01-3.31636E+00
 -1      2598-5.71044E-01 7.86560E-03-3.04332E+00-2.27414E-02 2.96236E-01-3.72072E+00
 -1      2599-9.18138E-02 9.53228E-02-2.76086E+00 9.09271E-02 2.33054E-01-3.61509E+00
 -1      2600 1.20598E+00 7.39486E-02-3.77971E+00-2.19568E-01-5.81271E-01-9.90607E-02
 -1      2601-2.67952E+00 1.19240E-01-4.05441E-01 1.95873E-01 1.67885E-01-2.87562E+00
 -1      2602 1.22035E+01-1.19521E-01 8.07719E-01 1.47998E-02-3.88016E-04 3.26823E+00
 -1      2603 1.98959E+00-1.18926E-02 1.19680E+00 1.76098E-03-2.96886E-03 1.57179E+00
 -1      2604 2.58021E+01 1.88067E+00 1.73432E-01 3.92220E-01 7.76429E-02 2.93026E+00
 -1      2605-9.67039E-02 1.75738E-02 1.81151E+00 2.73074E-02 1.59727E-02 2.99171E-01
 -1      2606 5.25385E+00-3.69577E-02 1.01607E+00 3.81016E-03-3.40914E-03 2.31140E+00
 -1      2607 2.41345E+01 2.51807E+00 5.40576E-01 1.78028E-02-1.86298E-01 1.22767E+00
 -1      2608 7.47726E+00-5.60877E-02 9.25224E-01 1.74687E-03 1.03580E-02 2.73237E+00
 -1      2609 3.11223E+00-2.32875E-02 1.10359E+00-6.93639E-03-3.26488E-04 1.90094E+00
 -1      2610 2.45273E+01 8.70358E-01 8.74270E-01 1.76586E-01 3.81231E-02 3.69918E+00
 -1      2611 1.97709E+01 3.77350E-02 7.17232E-01 2.86312E-02-4.27221E-02 3.56070E+00
 -1      2612 9.84822E-01-1.58090E-02 1.34312E+00 8.70656E-03 1.56302E-03 1.15635E+00
 -1      2613 3.81907E-01-9.40670E-03 1.65794E+00-6.33497E-03 8.84183E-03 7.45820E-01
 -1      2614 1.55516E+01-1.15818E-01 8.17640E-01 7.21446E-02-2.48600E-02 3.53244E+00
 -1      2615 2.59629E+01 2.33525E+00 1.35527E-01-7.37709E-01 4.68465E-02 1.75183E+00
 -1      2616 9.74507E+00-8.85594E-02 8.69345E-01 5.74149E-03 1.19851E-02 3.03578E+00
 -1      2617 4.18216E+00-3.62397E-02 1.05380E+00-6.83972E-03-4.28497E-03 2.14773E+00
 -1      2618 2.32278E+01 3.18954E-01 7.43731E-01-1.60135E-01 3.06084E-02 3.56851E+00
 -1      2619 2.59914E+01 1.21325E+00 1.28400E-01-8.53493E-01-1.94724E-01 3.42711E+00
 -1      2620 2.23491E+01 2.43351E-01 7.91312E-01-1.01334E-01-2.95833E-02 3.60715E+00
 -1      2621 2.54693E+01 2.37385E+00 3.41259E-01 1.03477E+00 2.34833E-01 1.60243E+00
 -1      2622 2.28515E+01 2.58201E+00 3.63660E-01 1.40842E+00-1.61858E-01 1.30453E+00
 -1      2623-2.63885E-01-1.92223E-01 2.17673E+00 2.76478E-02 3.09729E-02 1.43313E-01
 -1      2624-3.17583E-02 9.00871E-02 2.85388E+00-1.97627E-03-3.48848E-01 4.05063E-01
 -1      2625-4.06793E-02-9.96787E-02 1.74327E+00-2.54145E-02 7.78290E-02 4.15468E-01
 -1      2626-1.47678E-01 1.47789E-01 2.90719E+00 1.56875E-04 3.59438E-01 3.74646E-01
 -1      2627-1.14288E-01-6.70633E-02 1.72481E+00 3.96241E-02-7.63069E-02 4.33350E-01
 -1      2628 1.49093E+01 1.29359E+00-5.06783E-02 8.77064E-01-1.79186E-01 3.94156E-01
 -1      2629 1.66830E+01 1.82078E+00-1.71356E-01 1.25394E+00-2.32874E-01 8.19176E-01
 -1      2630 2.37597E+01 2.29880E+00 4.76384E-01 2.20059E+00 1.19302E-01 1.58374E+00
 -1      2631 2.16726E+01 2.94097E+00 7.65945E-01 1.53530E+00-2.92745E-01 9.79081E-01
 -1      2632 2.22110E+01 3.55731E+00 7.73642E-01 1.57822E+00-5.08246E-01 1.06929E+00
 -1      2633 2.27299E+01 2.94622E+00 4.26178E-01 1.27128E+00-4.05186E-01 9.17454E-01
 -1      2634 1.39444E+01 3.18903E-01-8.24451E-02 7.13404E-01-7.88186E-02 5.84983E-01
 -1      2635 1.63001E+01 1.85876E+00-1.48906E-01-9.72777E-01 2.49477E-01 1.03666E+00
 -1      2636 1.50039E+01 1.22830E+00-8.38787E-02-1.06436E+00 3.11848E-01 5.62106E-01
 -1      2637 2.18490E+01 3.59542E+00 1.19341E+00-8.85457E-01 5.24749E-01 9.41355E-01
 -1      2638 2.28625E+01 2.33288E+00 4.61156E-01-1.76071E+00 1.61714E-01 1.22042E+00
 -1      2639 1.38618E+01 3.76589E-01 2.64913E-01-7.58680E-01 2.60082E-02 6.64755E-01
 -1      2640 1.39744E+01 3.68118E-01 1.21534E-01-7.07350E-01 5.83312E-02 5.90339E-01
 -1      2641 1.40344E+01 3.38480E-01-8.62757E-02 6.83896E-01-8.25336E-02 4.76181E-01
 -1      2642 2.64809E+01 8.33570E-01-5.75306E-01-2.00601E+00-3.74296E-01 2.37774E+00
 -1      2643 2.60855E+01-2.55879E-02-3.79673E-01-4.39567E-01-2.66665E-01 3.65196E+00
 -1      2644 2.35324E+01 2.96586E+00 9.84388E-01-6.56578E-01-8.69734E-02 1.45325E+00
 -1      2645 2.49287E+01 2.56634E+00 1.79627E-01-1.73016E+00-3.27472E-01 1.19595E+00
 -1      2646 2.51873E+01 2.43838E+00 3.35250E-01-3.84259E-01-1.59092E-01 1.40887E+00
 -1      2647 2.63173E+01 2.44328E+00-7.49811E-02-2.16063E+00-2.27476E-01 1.74559E+00
 -1      2648 2.61411E+01 1.66116E+00 2.87781E-01-7.55128E-01-9.11318E-02 2.54489E+00
 -1      2649 2.50303E+01 2.07186E-01 5.99571E-01-2.90414E-01-6.16501E-02 3.36771E+00
 -1      2650 2.23341E+01 1.04271E-01 7.00587E-01 3.16321E-02 5.93411E-02 3.57451E+00
 -1      2651 2.53562E+01 1.12318E+00 1.09611E+00-7.24684E-01-3.32384E-02 3.73316E+00
 -1      2652 1.80243E+01-8.88457E-02 5.82043E-01 1.77159E-01 4.04467E-02 3.59526E+00
 -1      2653 1.51017E+01-2.16802E-02 8.78256E-01 1.85621E-01 2.96237E-03 3.54550E+00
 -1      2654 2.02618E+01 6.01827E-02 6.97408E-01 1.63922E-01 2.90137E-02 3.62564E+00
 -1      2655 1.76197E+01-1.05270E-01 6.74627E-01 3.99702E-02 3.06612E-02 3.60383E+00
 -1      2656 2.16094E+01 2.61112E-01 7.39620E-01-3.52991E-03 5.79399E-03 3.59304E+00
 -1      2657 1.32826E+01-1.20633E-01 7.53844E-01 1.29472E-01 5.66413E-02 3.41193E+00
 -1      2658 1.10112E+01-7.68922E-02 8.68053E-01 8.46937E-02 2.48698E-04 3.14658E+00
 -1      2659 1.37867E+01-1.38817E-01 7.28909E-01 5.03936E-02-2.20798E-02 3.44852E+00
 -1      2660 8.58979E+00-8.05355E-02 8.79210E-01 6.80192E-02 1.44367E-02 2.86479E+00
 -1      2661 7.05168E+00-3.63362E-02 1.00249E+00 3.34968E-02-1.43703E-02 2.66518E+00
 -1      2662 1.08995E+01-1.04651E-01 9.12546E-01 1.31398E-02 1.25571E-02 3.12388E+00
 -1      2663 9.88605E+00-5.03575E-02 9.18885E-01 7.96203E-02 1.14042E-02 3.03871E+00
 -1      2664 8.41719E+00-1.67424E-01 7.69225E-01 1.08073E-02 2.08092E-03 2.86407E+00
 -1      2665 5.85120E+00-3.94655E-02 9.69103E-01 2.63237E-02 1.63296E-02 2.45459E+00
 -1      2666 4.73396E+00-1.48065E-02 1.04514E+00 1.72521E-02-4.74445E-03 2.22914E+00
 -1      2667 6.28806E+00-5.13893E-02 9.69354E-01 1.73286E-03 2.70755E-03 2.54849E+00
 -1      2668 3.62718E+00-3.73335E-02 1.06965E+00 2.05404E-02 4.86753E-03 2.01942E+00
 -1      2669 2.89411E+00-1.30552E-02 1.15209E+00 1.02177E-02-6.31874E-03 1.83731E+00
 -1      2670 4.68149E+00-4.87425E-02 1.04297E+00-4.19790E-03-6.51264E-03 2.19472E+00
 -1      2671 4.23687E+00-1.12806E-02 1.07646E+00 1.99117E-02 2.20078E-03 2.15982E+00
 -1      2672 3.54059E+00-8.09083E-02 1.01702E+00-7.11243E-03 1.59563E-04 2.00773E+00
 -1      2673 2.29438E+00-1.07746E-02 1.17154E+00 1.12365E-02 5.52558E-03 1.66419E+00
 -1      2674 1.73787E+00-2.22849E-03 1.24806E+00 1.06017E-02-2.24146E-03 1.48115E+00
 -1      2675 2.48726E+00-3.83996E-02 1.13267E+00-1.30683E-03-3.98470E-03 1.73727E+00
 -1      2676 1.22963E+00-6.45125E-04 1.31920E+00 8.52965E-03 5.54373E-03 1.27146E+00
 -1      2677 8.30932E-01-1.18572E-02 1.40983E+00 1.66973E-02 6.87126E-03 1.08653E+00
 -1      2678 1.43972E+00-2.26261E-02 1.26997E+00 3.63232E-04 2.98933E-04 1.37221E+00
 -1      2679 5.09403E-01-1.93269E-02 1.57998E+00-3.80260E-03 7.71072E-03 8.72467E-01
 -1      2680 2.41326E-01 2.03169E-02 1.76580E+00 1.57026E-02 2.42441E-02 6.58310E-01
 -1      2681 6.51353E-01-1.66922E-02 1.50523E+00 3.06966E-03 5.27655E-03 9.50924E-01
 -1      2682 2.40391E-01 6.00179E-02 1.79012E+00 3.06040E-03-2.53072E-04 6.17292E-01
 -1      2683 2.60609E+01 3.91773E-01-6.61456E-02 5.79403E-01 3.67703E-01 3.42130E+00
 -1      2684 2.63266E+01 1.72396E+00-1.61908E-01 1.82196E+00 3.34829E-01 2.41647E+00
 -1      2685 2.62938E+01 2.30203E+00 4.22637E-01 6.72266E-01 2.60632E-01 2.19674E+00
 -1      2686 2.58050E+01 2.42194E+00 1.52562E-01 2.07542E+00 3.12475E-01 1.45534E+00
 -1      2687 2.41532E+01 2.47010E+00 4.13728E-01 1.23801E+00 5.72230E-02 1.49290E+00
 -1      2688 2.17007E+01 7.09189E-02 7.74750E-01-1.25570E-01-7.56838E-02 3.63509E+00
 -1      2689 2.43644E+01 1.29826E-01 4.31995E-01 2.59600E-01 7.32259E-04 3.33784E+00
 -1      2690 2.61427E+01 5.46726E-01 7.77539E-01 2.53119E-01 2.29994E-02 3.50066E+00
 -1      2691 2.54007E+01 1.54734E+00 5.98831E-01 1.95060E-01-4.32432E-02 3.31406E+00
 -1      2692 2.37856E+01 5.67625E-01 9.64651E-01-1.81659E-01-8.51328E-02 3.75641E+00
 -1      2693 1.71841E+01-8.85767E-02 7.92325E-01-1.28176E-01-4.50817E-02 3.55884E+00
 -1      2694 2.01760E+01 2.18987E-02 7.12928E-01-1.08641E-01-5.95970E-02 3.53912E+00
 -1      2695 2.12356E+01 2.16666E-01 8.92475E-01-3.59551E-02-5.67524E-02 3.63193E+00
 -1      2696 1.10305E+01-4.76797E-02 8.91660E-01-6.23119E-02-1.15294E-02 3.14224E+00
 -1      2697 1.32397E+01-1.66489E-01 7.18683E-01-1.24465E-01-4.43324E-02 3.39611E+00
 -1      2698 1.51605E+01-8.21965E-02 9.19896E-01-1.20881E-01-1.82588E-02 3.52877E+00
 -1      2699 7.03698E+00-1.55630E-02 9.83234E-01-3.89190E-02 1.29780E-02 2.66349E+00
 -1      2700 8.55538E+00-6.92444E-02 8.51033E-01-5.42286E-02-1.03404E-02 2.87296E+00
 -1      2701 9.83350E+00-2.02040E-02 9.06830E-01-6.33620E-02-1.28356E-02 3.03705E+00
 -1      2702 4.73652E+00-3.99073E-02 1.03720E+00-1.84464E-02 3.58931E-03 2.21947E+00
 -1      2703 5.84305E+00-5.16966E-02 9.72817E-01-2.79836E-02-2.31878E-02 2.45105E+00
 -1      2704 2.88572E+00-7.02649E-03 1.15003E+00-1.99411E-02 3.48078E-03 1.83844E+00
 -1      2705 3.64387E+00-3.03199E-02 1.06241E+00-2.68105E-02-4.60289E-03 2.02695E+00
 -1      2706 4.25653E+00-1.83999E-02 1.07884E+00-2.73253E-02-1.45553E-03 2.16264E+00
 -1      2707 1.74601E+00-1.23092E-02 1.24826E+00-1.14252E-02 6.52558E-06 1.48329E+00
 -1      2708 2.30029E+00-1.83035E-02 1.17501E+00-1.32929E-02-1.00413E-02 1.65975E+00
 -1      2709 8.30787E-01-1.88384E-02 1.40864E+00-5.12368E-03 3.70829E-03 1.08446E+00
 -1      2710 1.22654E+00-9.43012E-03 1.32708E+00-2.15960E-03-4.75653E-03 1.27309E+00
 -1      2711 2.53405E-01 2.74479E-02 1.78442E+00-2.71271E-02-2.14976E-02 6.53542E-01
 -1      2712 5.47108E-01-9.12826E-03 1.56468E+00-7.41382E-03 5.83290E-03 8.82337E-01
 -1      2713 2.30387E+01 2.86866E+00 5.40090E-01 7.30668E-01-2.42048E-01 1.37033E+00
 -1      2714 2.38825E+01 2.77817E+00 4.86709E-01 6.38416E-01-3.33448E-01 9.70696E-01
 -1      2715 2.58288E+01 1.37897E+00 6.71466E-01-2.10274E-02 1.54020E-01 3.31743E+00
 -1      2716 2.60481E+01 1.75740E+00 2.67823E-01-3.17566E-01-1.35749E-01 2.79973E+00
 -1      2717 2.63686E+01 2.26739E+00 2.77590E-01-2.22227E-01 3.17300E-02 2.14493E+00
 -1      2718 2.59163E+01 2.37628E+00 3.31267E-01 1.36983E-01 1.69786E-02 1.65219E+00
 -1      2719 2.49127E+01 2.50682E+00 5.60594E-01 5.17791E-01-8.87578E-02 1.37983E+00
 -1      2720 2.38522E+01 6.58596E-01 9.06569E-01 2.26144E-01 6.27971E-02 3.59192E+00
 -1      2721 2.31433E+01 4.21808E-01 5.19601E-01-6.10734E-02 6.74962E-02 3.68008E+00
 -1      2722-1.46983E+01 1.44585E-01 8.86122E-01 1.49496E+00-8.92727E-02-6.27710E-01
 -1      2723-1.36990E+01-6.03234E-02 2.91573E-01-1.45495E+00-1.13586E-01-7.51658E-01
 -1      2724-2.72095E+01-7.59872E+00-5.28947E+00 3.12003E-01-1.24098E-01 9.77575E-01
 -1      2725-2.17314E+01-4.15597E+00-2.17982E+00-3.98277E-01 1.40779E-01-5.54402E-01
 -1      2726-2.72586E+01-7.67090E+00-5.57951E+00-3.91114E-02-1.98765E-01 1.10429E+00
 -1      2727-2.06503E+01-4.20583E+00-2.90397E+00 8.53265E-01-1.16567E-01-7.69921E-01
 -1      2728-3.11472E+00 9.40690E-02 2.93883E-01-1.71347E-01 1.90537E-01-6.11217E-01
 -1      2729-2.96017E+00 1.37063E-01 2.79667E-01 1.72221E-01-1.88582E-01-4.58205E-01
 -1      2730-1.59408E+01 1.98967E-01 5.40492E-01 1.53157E+00-1.66424E-01-6.08464E-01
 -1      2731-1.10912E+01 3.52339E-01 2.61329E-01 1.06370E+00-1.29250E-01-2.59830E-01
 -1      2732-1.79157E+01-9.06420E-01-1.49603E-01 1.27708E+00 3.43656E-01-1.49967E+00
 -1      2733-1.11688E+01 7.49849E-02 2.69164E-01-1.14020E+00-6.26077E-02-6.03113E-01
 -1      2734-1.49702E+01 1.45700E-01-4.41579E-02-1.32715E+00 9.16851E-02-1.05700E+00
 -1      2735-1.75685E+01-1.17984E+00-8.10132E-01-1.40092E+00-6.65804E-01-1.53439E+00
 -1      2736-9.05760E+00 5.93347E-01 2.87799E-01-8.29977E-01 2.03279E-01-5.97393E-01
 -1      2737-5.63932E+00 2.13066E-01 3.22189E-01-3.26222E-01 2.55666E-01-8.38658E-01
 -1      2738-1.61810E+01-9.69220E-01-8.39517E-01-7.73272E-01-3.35557E-01-1.95535E-01
 -1      2739-1.16007E+01 5.21170E-01 3.48585E-01-1.11149E+00 2.00504E-01-4.85118E-01
 -1      2740-1.96425E+01-1.93663E+00-1.25132E+00-1.88789E-01-6.11178E-01-1.45035E+00
 -1      2741-1.13132E+01 8.62160E-01 8.36865E-01 1.06053E+00-2.33606E-01-4.85781E-02
 -1      2742-1.63908E+01-1.16739E+00-8.81207E-01 9.08552E-01 2.75794E-01-3.53852E-01
 -1      2743-1.91757E+01-1.77449E+00-1.29430E+00 2.61763E-01 4.31637E-01-1.70655E+00
 -1      2744-9.13462E+00 6.22392E-01 1.35152E-01 7.98414E-01-2.11783E-01-3.83078E-01
 -1      2745-5.66497E+00 2.10299E-01 2.77944E-01 3.26749E-01-2.42998E-01-7.00828E-01
 -1      2746 1.33170E+01 6.01246E-01 3.44245E-02-9.71269E-01 2.06384E-02-2.09460E-01
 -1      2747 1.30439E+01 5.35278E-01-3.90072E-02 8.83112E-01-3.62939E-02-1.47357E-01
 -1      2748 2.99731E+00-2.21102E-01-6.54605E-01 2.66395E-01 4.24918E-01-7.48736E-01
 -1      2749 2.02342E+01 3.57678E+00 1.71042E+00 1.44477E+00 1.49933E-02 1.31636E+00
 -1      2750 2.58076E+01 6.03763E+00 4.17819E+00 3.55452E-01-1.69808E-01 3.06378E+00
 -1      2751 2.53670E+01 5.83094E+00 4.14367E+00-5.60331E-01-1.02535E-01 3.37174E+00
 -1      2752 2.02624E+01 3.65272E+00 2.22737E+00-1.30220E+00 2.62571E-02 1.79581E+00
 -1      2753 3.34205E+00-1.19839E-01-5.85197E-01-3.43779E-01-3.74962E-01-9.29114E-01
 -1      2754 1.14428E+01 1.72239E-01 2.24729E-01-8.13920E-01 1.55179E-02-3.54472E-01
 -1      2755 1.38744E+01 2.23841E-01-1.78252E-01-6.56326E-01-4.00048E-02 1.22566E-01
 -1      2756 1.42993E+01 9.67360E-01-1.15545E-01-9.20657E-01 2.38490E-01 2.58698E-01
 -1      2757 1.35995E+01 2.63071E-01-1.01922E-01 5.74454E-01-1.17062E-02 1.28116E-01
 -1      2758 1.14881E+01 2.06666E-01 6.54372E-02 7.84541E-01-6.29343E-02-2.92694E-01
 -1      2759 1.42014E+01 9.56199E-01 1.94641E-02 9.81238E-01-2.58064E-01 2.91156E-01
 -1      2760 5.82043E+00-2.26366E-01-3.08353E-01 4.23651E-01 3.42242E-01-8.24750E-01
 -1      2761 9.28821E+00-4.67494E-01-1.72966E-01 7.90689E-01 2.11128E-01-5.27360E-01
 -1      2762 1.16316E+01 8.39137E-02 4.33364E-02 9.55859E-01 3.41149E-01-2.95117E-01
 -1      2763 1.53940E+01 1.36638E+00 6.93156E-01 9.02067E-01-1.67863E-01 3.72009E-01
 -1      2764 1.66453E+01 1.93852E+00 6.76092E-01 9.09415E-01-2.87331E-01 7.22292E-01
 -1      2765 1.55293E+01 1.40795E+00 6.69987E-01-1.08563E+00 3.65362E-02 4.26937E-01
 -1      2766 1.17307E+01 9.23107E-02 1.45711E-01-9.99433E-01-3.24071E-01-3.13603E-01
 -1      2767 1.66696E+01 1.82385E+00 3.31833E-01-1.03924E+00 2.21929E-01 7.40649E-01
 -1      2768 9.34400E+00-4.93393E-01-2.33363E-01-7.61278E-01-2.36647E-01-6.56328E-01
 -1      2769 5.75280E+00-2.67964E-01-4.81176E-01-3.85294E-01-3.54899E-01-1.03963E+00
 -1      2770-1.54429E+01-2.41670E+00-1.57852E+01-2.33119E-01 3.35045E-01-1.29955E+01
 -1      2771-1.54178E+01-2.38711E+00-1.57659E+01 2.35755E-01-3.69146E-01-1.29200E+01
 -1      2772-2.53687E+01-6.65108E+00-1.06591E+01-2.27727E-01-2.37471E-01-1.25180E+01
 -1      2773-2.27803E+01-5.53687E+00-1.14449E+01-1.16341E-01-6.03114E-01-1.21519E+01
 -1      2774-2.25628E+01-5.41908E+00-1.13884E+01 1.79077E-01 6.32639E-01-1.23787E+01
 -1      2775-8.56677E+00-3.56940E+00-2.08599E+01-5.69415E-02-3.36490E-01-1.01463E+01
 -1      2776-8.87736E+00-3.57055E+00-2.07185E+01 1.94840E-02 3.30356E-01-1.04337E+01
 -1      2777-8.87537E+00-3.85270E+00-2.23647E+01-2.24732E-02 2.42068E-02-1.22762E+01
 -1      2778-5.97950E+00-1.52676E+00-1.97396E+01 4.09919E-01 8.12421E-01-7.91486E+00
 -1      2779-2.39687E+01-2.19969E+00-6.35339E+00-8.68212E-01-1.07158E+00-1.03261E+01
 -1      2780-6.07991E+00-1.46274E+00-2.00052E+01-4.75451E-01-9.01046E-01-7.72268E+00
 -1      2781-2.39241E+01-2.36697E+00-6.25654E+00 9.03451E-01 1.03574E+00-1.04162E+01
 -1      2782-1.95510E+00-1.14450E+00-1.99635E+01 4.11145E-01 1.31484E+00-4.42342E+00
 -1      2783-4.26251E+00-2.54258E+00-2.21770E+01-5.45514E-02 1.60046E+00-5.18265E+00
 -1      2784-5.79199E+00-4.52056E-01-1.83671E+01 5.75263E-01 5.54919E-01-8.66894E+00
 -1      2785-3.90009E+00-2.41200E+00-2.26696E+01-1.93773E-02-1.70454E+00-4.97389E+00
 -1      2786-2.06799E+00-1.08862E+00-2.00151E+01-3.92855E-01-1.19260E+00-4.38324E+00
 -1      2787-5.83340E+00-2.61746E-01-1.83204E+01-6.24866E-01-5.43076E-01-8.62740E+00
 -1      2788-2.11540E+01-1.07336E+00-6.50922E+00 3.39971E-01 7.42743E-01-1.09256E+01
 -1      2789-2.42446E+01-1.92457E+00-3.18314E+00 1.54170E+00 7.97603E-01-5.67797E+00
 -1      2790-2.48815E+01-2.83708E+00-4.03113E+00 8.77187E-01 8.92475E-01-7.79856E+00
 -1      2791-2.45342E+01-1.73977E+00-2.80236E+00-1.44301E+00-8.14754E-01-5.84055E+00
 -1      2792-2.10918E+01-9.55742E-01-6.62595E+00-2.43169E-01-6.92318E-01-1.07383E+01
 -1      2793-2.50109E+01-2.79110E+00-4.07964E+00-9.54269E-01-9.16851E-01-7.69082E+00
 -1      2794-4.68130E+00-2.78178E+00-2.22641E+01 2.58309E-01-4.60067E-01-6.70302E+00
 -1      2795-3.38283E+00-2.77590E+00-2.28517E+01-1.25080E-01-1.01896E+00-5.85914E+00
 -1      2796-6.91231E+00-2.78419E+00-2.07256E+01-4.38246E-01-8.59226E-01-8.89183E+00
 -1      2797-5.11830E+00-3.08090E+00-2.26030E+01-2.39270E-01 1.63075E-01-7.38007E+00
 -1      2798-4.85853E+00-2.90872E+00-2.23753E+01 2.20311E-01-1.52523E-01-7.46497E+00
 -1      2799-8.25072E+00-3.23666E+00-2.00649E+01 2.38436E-01-1.93407E-01-1.10214E+01
 -1      2800-4.54431E+00-2.98641E+00-2.26820E+01 3.34682E-02 1.08067E+00-6.51299E+00
 -1      2801-5.58557E+00-3.16504E+00-2.26644E+01-2.57630E-01 4.87429E-01-7.05367E+00
 -1      2802-8.29220E+00-3.33132E+00-2.01136E+01-2.99410E-01 1.64495E-01-1.10731E+01
 -1      2803-7.24820E+00-2.61422E+00-2.04791E+01 3.82422E-01 7.91658E-01-9.29675E+00
 -1      2804-1.12390E+01-1.01906E+00-1.59866E+01-7.43971E-01-2.50060E-01-1.15639E+01
 -1      2805-1.93938E+01-2.29974E+00-1.33968E+01 2.55909E-01 7.15107E-01-1.37937E+01
 -1      2806-1.20347E+01-3.19968E+00-2.04998E+01-1.92031E-01-2.27581E-01-1.13911E+01
 -1      2807-2.24312E+01-3.64427E+00-1.26057E+01 6.41041E-01 1.17783E+00-1.33468E+01
 -1      2808-1.93950E+01-2.29045E+00-1.33685E+01-2.56296E-01-7.13879E-01-1.37656E+01
 -1      2809-1.12086E+01-9.98533E-01-1.60125E+01 7.40550E-01 2.17662E-01-1.15304E+01
 -1      2810-1.18599E+01-3.13514E+00-2.04229E+01 1.79537E-01 1.31647E-01-1.14507E+01
 -1      2811-2.24339E+01-3.56224E+00-1.25921E+01-6.42866E-01-1.23547E+00-1.33079E+01
 -1      2812-2.61891E+01-5.16502E+00-6.59266E+00 9.80663E-01 7.77519E-01-9.00704E+00
 -1      2813-2.96518E+01-7.00351E+00-6.34322E+00 1.00709E-01 3.10974E-01-8.34849E+00
 -1      2814-2.58039E+01-4.78897E+00-1.00743E+01 5.16491E-01 1.17152E+00-1.26595E+01
 -1      2815-3.02987E+01-7.70636E+00-8.11537E+00-6.45641E-01 1.25067E-01-8.57048E+00
 -1      2816-2.87376E+01-7.36681E+00-6.58336E+00 4.20573E-02 4.33590E-02-9.16211E+00
 -1      2817-2.33444E+01-5.98973E+00-9.86800E+00-3.32216E-01-1.79251E-01-1.20394E+01
 -1      2818-2.88420E+01-6.76698E+00-7.36241E+00 3.32804E-01-2.05190E-02-8.12698E+00
 -1      2819-2.60483E+01-5.18838E+00-6.15914E+00-1.03640E+00-1.01181E+00-8.47865E+00
 -1      2820-2.31545E+01-5.69481E+00-1.10843E+01 1.68259E-01 1.68360E-01-1.27850E+01
 -1      2821-2.57713E+01-4.90895E+00-9.87208E+00-5.01513E-01-1.18425E+00-1.26420E+01
 -1      2822-1.96070E+01-4.19544E+00-1.44052E+01-3.56784E-01 2.50130E-01-1.35185E+01
 -1      2823-1.38657E+01-4.42202E+00-2.10661E+01-2.40489E-01-1.60908E-01-1.35628E+01
 -1      2824-1.81397E+01-6.32005E+00-1.99198E+01 1.76602E-01 4.14901E-01-1.41709E+01
 -1      2825-1.95520E+01-4.34672E+00-1.42624E+01 4.85351E-01-1.93577E-01-1.34642E+01
 -1      2826-1.81872E+01-6.43942E+00-2.00196E+01-9.55416E-02-3.68378E-01-1.42679E+01
 -1      2827-1.38445E+01-4.31801E+00-2.11330E+01 2.58440E-01 1.84708E-01-1.35921E+01
 -1      2828-2.00881E+01-7.37129E+00-2.10409E+01-7.48934E-02-1.02742E-01-1.56648E+01
 -1      2829-1.77754E+01-6.32503E+00-2.00101E+01-3.32858E-02 2.21287E-03-1.54417E+01
 -1      2830-1.77923E+01-6.39165E+00-1.99247E+01-1.92826E-02 1.09167E-01-1.53203E+01
 -1      2831 4.87597E-02-7.30919E-02-5.36094E-01-8.21918E-03-4.82375E-02-2.83491E+00
 -1      2832 6.09065E-02 7.55607E-03-5.08036E-01 9.20241E-03 6.44986E-02-9.73226E-01
 -1      2833 1.13805E-02-2.81879E-02-5.10886E-01-2.50914E-02-4.92256E-02-1.20313E+00
 -1      2834 1.67466E-02-1.03160E-02-5.15779E-01-2.07518E-03-9.14212E-03-5.30890E-01
 -1      2835-2.51271E-02 1.26723E-02-4.92343E-01 2.80460E-02 1.31074E-01-2.29820E+00
 -1      2836 4.39899E+00-1.84267E-01-3.46411E+00 2.83446E-01-9.92535E-02 6.75835E-01
 -1      2837-1.14615E+00-7.64969E-03-3.99483E+00-6.53789E-03 9.67255E-03-1.33513E+00
 -1      2838 2.00709E-01-4.25213E-02 2.67950E+00 1.41794E-02 3.11199E-02 8.16229E-01
 -1      2839-3.96737E-01-4.36154E-01-3.86993E+00-4.29530E-01 1.22869E+00-2.39867E+00
 -1      2840-4.57064E-01-4.41673E-01-3.86069E+00 4.18632E-01-1.24241E+00-2.36671E+00
 -1      2841-3.55045E-01-5.12331E-01-2.85261E+00-8.73429E-02-3.05907E-01-6.50148E-01
 -1      2842-2.93139E-01 2.27822E-02 1.36601E+00 7.61979E-03 2.78317E-03 5.59641E-01
 -1      2843-7.43192E-01-2.95610E-01-1.07743E+00 5.84269E-03-2.64006E-03-3.53528E-01
 -1      2844-7.23118E-01 1.13930E-01-2.96355E-01-1.23152E-02-5.68122E-03-1.27357E+00
 -1      2845-3.38540E-01-5.37884E-01-3.00657E+00 5.87924E-02 3.14327E-01-6.81284E-01
 -1      2846 2.30913E+00-1.48826E-01-2.97119E+00 7.99062E-01-1.47550E+00-1.93034E+00
 -1      2847-3.02936E-01-5.61105E-01-3.43926E+00-1.71632E-02 1.27779E-01-4.47487E-01
 -1      2848-7.58639E-01-2.35664E-01-9.93908E-01 9.32063E-02 1.34136E-01-5.48494E-01
 -1      2849-5.26700E-01-1.11952E-01-2.31670E-01-2.20444E-01-1.38231E-01-1.92189E-01
 -1      2850-5.03441E-02 2.76015E-02-5.01414E-01-4.77668E-02-1.69439E-01-2.44846E+00
 -1      2851-3.09972E-03-1.35061E-01 4.33906E-03-2.78753E-02-7.91491E-02-2.24578E-02
 -1      2852-2.22241E+00 3.86770E-01-4.63123E+00 5.90144E-01-7.17484E-01-2.24289E+00
 -1      2853-2.00580E+00 3.84078E-01-4.80526E+00-6.56491E-01 7.15798E-01-2.28852E+00
 -1      2854-3.41639E-02-3.66494E-02-4.40613E-03-2.95836E-02-4.27281E-02-1.71748E-02
 -1      2855-1.52579E-01-3.87991E-02-1.35597E-02 6.27591E-02 5.62015E-02-5.42247E-03
 -1      2856-5.97990E-03-1.44833E-01 1.72986E-03 2.72136E-02 8.08869E-02-2.49119E-02
 -1      2857 3.74709E-01-2.76746E-01-9.03475E-01 2.41261E-01-8.04978E-02-5.64458E+00
 -1      2858-3.17580E-02-1.44962E-01 7.14876E-03-6.34051E-02-7.91835E-02-2.11443E-02
 -1      2859 3.71594E-03 4.67351E-02-4.76039E-03 1.97940E-02-2.19906E-02-6.47556E-03
 -1      2860-1.20115E-01 2.36364E-02-2.57259E-02-2.94445E-03-4.62731E-02 3.07169E-02
 -1      2861-3.61134E-01-8.50575E-02-7.35401E-02 1.99005E-01 1.12821E-01-9.68114E-02
 -1      2862-3.27663E-01-5.59601E-01-3.32325E+00 1.34929E-02-1.42372E-01-4.42190E-01
 -1      2863 6.38454E-02 2.50161E-02 1.90313E+00 1.93493E-03-4.42598E-04 8.44429E-01
 -1      2864-1.32546E-01-1.53961E-01-6.38700E-03 1.25637E-01 7.43306E-02-2.67481E-02
 -1      2865-9.71812E-02-5.68202E-02-6.35135E-03-5.86750E-02-5.58116E-02-1.25603E-02
 -1      2866-2.10313E-03 4.06726E-02-2.00979E-03-2.11229E-02 2.46732E-02-4.30333E-03
 -1      2867 2.59883E-01-1.21538E-01-7.19704E-01-5.23211E-02-1.16695E-01-5.69569E-01
 -1      2868-1.44166E-02-8.67380E-02-1.06164E+00-3.59551E-01 5.05527E-01-4.15596E+00
 -1      2869 3.36699E+00 6.58601E-02-3.12450E+00-9.13269E-01 1.54706E+00-1.50968E+00
 -1      2870-2.23745E+00 6.03601E-01-1.06456E+00-6.62976E-03-2.47987E-02 2.79187E+00
 -1      2871-3.54663E+00-1.36550E-02-2.95464E-01-3.50239E-01-1.38635E-01 1.29902E+00
 -1      2872-3.64553E+00 1.36347E-02-3.98383E-01 3.42144E-01 1.15901E-01 1.31996E+00
 -1      2873-7.94549E-01-2.09247E-01-1.01613E+00-8.64295E-02-1.14854E-01-5.65863E-01
 -1      2874 4.30851E-02 2.67503E-01 3.85312E-02 4.16309E-02 4.73979E-02 1.08204E-01
 -1      2875-7.31342E-02-4.22380E-01-6.19912E-02-1.61250E-01-1.70922E-01-4.74102E-02
 -1      2876-1.35406E-01 2.21140E-01 5.46838E-02 8.97641E-02 4.84590E-02 1.67057E-01
 -1      2877-1.08942E-03 3.45662E-01 4.80674E-01 2.14640E-01 3.86587E-01 3.75242E-01
 -1      2878-4.77918E-02-1.71583E-01 1.07032E-02 7.75276E-02 7.81915E-02-2.29725E-02
 -1      2879-1.34468E-02-1.15520E-04-7.56414E-03 1.34561E-02 8.93882E-03-1.40444E-02
 -1      2880-6.09670E-01-5.73324E-02 4.08371E-01-2.16576E-02-4.28933E-02 9.87425E-02
 -1      2881-4.37033E-01 1.54086E-01-2.16442E-01 8.57436E-02-9.83659E-02-6.02591E-01
 -1      2882-5.71816E-02-9.25516E-02 5.64537E-03-6.47161E-02-6.26405E-02-1.88899E-02
 -1      2883-1.45722E-01 2.48959E-01 4.89630E-01-1.43285E-01-3.09484E-01 3.07695E-01
 -1      2884-3.78773E-02 3.02735E-01 1.29620E-01-1.46442E-01-1.12401E-01 2.31324E-01
 -1      2885-2.80473E-01-4.70310E-03-3.16227E-02-6.08260E-02-6.32981E-02 1.45203E-02
 -1      2886-5.10320E+00 6.99407E-01-1.71218E+00 2.49677E-02-2.02378E-02-1.10252E+00
 -1      2887-1.69849E-01 1.34222E-01-3.07103E-01-2.68160E-02 1.16547E-01-4.60822E-01
 -1      2888 2.96801E-01 8.60277E-02-7.81834E-01 2.08782E-01-4.26009E-01-4.14780E+00
 -1      2889-3.26368E+00 7.44934E-03-9.75488E-01-4.21753E-01 1.09757E+00-1.99276E+00
 -1      2890 1.36725E-01 3.26748E-01 1.12554E+00-2.34573E-01-4.99184E-01 5.84569E-01
 -1      2891 1.40505E-02 1.14180E-01-8.13700E-03-1.95597E-02 2.31666E-02 2.12281E-02
 -1      2892-4.49190E-01 6.33815E-02-3.62504E+00 6.11876E-01-1.07727E+00 1.19974E+00
 -1      2893-2.94841E-01-6.89586E-01-1.41661E+00 3.36372E-01 7.23417E-01-3.88591E-01
 -1      2894-2.93885E-01 1.16144E-01 8.94647E-02 3.34592E-04-1.14369E-02 1.01583E-01
 -1      2895-2.15513E-01-1.95989E-01-2.90298E-02-1.78481E-01-1.02779E-01-5.77169E-02
 -1      2896 7.71411E-02 4.50498E-01 5.40961E-01 1.79862E-01 3.61568E-01 3.67636E-01
 -1      2897-7.32621E-01-1.17902E-02-3.56378E+00-6.52541E-01 1.03024E+00 1.09838E+00
 -1      2898-2.17339E+00 4.19508E-02-2.20727E+00 4.92335E-01-1.13422E+00-2.67031E+00
 -1      2899-2.10684E-01 2.07503E-01 5.83896E-01 9.59164E-02 2.64577E-01 2.97079E-01
 -1      2900-2.77342E-02-2.24365E-02-4.68849E-03 2.48531E-02 3.03223E-02-1.35501E-02
 -1      2901-4.22228E-02-4.13750E-03-1.73768E-02-1.01991E-02-2.73270E-02 3.21700E-03
 -1      2902-3.88221E-02 1.57816E-01-4.34921E-02 5.75215E-02-6.61250E-03 1.05813E-01
 -1      2903-2.30945E+00-4.73648E-01 3.38472E-01-2.78242E-03 1.35579E-03 3.50346E-01
 -1      2904-2.17214E-01-5.98599E-01-1.45347E+00-3.01442E-01-7.68417E-01-3.81370E-01
 -1      2905 4.51829E-02 2.94866E-01 1.49508E-02-9.13168E-02-4.48452E-02 1.62816E-01
 -1      2906-1.79863E+00-1.85393E-01 2.09444E+00 2.66666E-02-5.78249E-02 2.17087E+00
 -1      2907-5.64097E-01 7.44917E-03 1.73560E-01 1.32669E-03 7.89762E-02 5.54905E-02
 -1      2908 1.06556E+01 8.62846E-01 4.67457E-01-1.93029E-02-3.24908E-02 4.95300E+00
 -1      2909 1.25134E+00 4.63159E-03 2.41562E+00-8.85183E-04-1.92508E-03 3.06966E+00
 -1      2910 2.31661E+00 1.87220E-02 2.15474E+00-4.49670E-03-8.61850E-03 3.16819E+00
 -1      2911 1.16590E+00 1.43218E-02 2.49675E+00 1.20083E-03-1.07540E-02 3.30414E+00
 -1      2912 8.59782E-03 6.34467E-02 6.81114E-03 3.55640E-03-2.72994E-02 9.31829E-03
 -1      2913 1.68926E-02 1.10475E-01 1.86001E-02-6.72241E-03-3.86128E-02 1.79925E-02
 -1      2914-8.85319E-03 6.10129E-02-4.71685E-03 3.99147E-03 1.60368E-03 5.29698E-03
 -1      2915 1.92704E-02 4.90914E-02 6.40697E-03 1.14524E-02-5.30119E-02-1.04399E-03
 -1      2916-1.14245E-02 2.54568E-02-6.64027E-03 1.34479E-02 6.20331E-03 1.14771E-03
 -1      2917-2.98578E-02-3.72948E-02-6.35913E-03 3.37620E-02 4.76243E-02-2.22487E-02
 -1      2918-6.90621E-02-7.98379E-02-1.90490E-02 5.79491E-02 9.02351E-02-4.43427E-02
 -1      2919-5.34033E-02-6.71451E-02 3.59366E-03 6.88686E-02 3.03530E-02-6.42379E-03
 -1      2920-2.67970E-02-2.40053E-02-9.28850E-04 3.54479E-02 1.56452E-02-6.59697E-03
 -1      2921-5.63484E-02-5.66001E-02-1.22023E-04 5.13357E-02 5.02825E-02-1.78905E-02
 -1      2922-2.76514E-02-2.58065E-02-1.16200E-02 1.65663E-02 5.63304E-02-2.96035E-02
 -1      2923 8.00580E-01 1.97176E-03 2.43325E+00 9.53045E-04 3.70383E-03 2.77201E+00
 -1      2924 1.73684E+00 4.86259E-03 2.16033E+00-1.09731E-02-3.97595E-03 2.87002E+00
 -1      2925-1.13673E-01-3.16296E-02-5.47986E-03 2.39769E-02 3.58464E-02 2.58756E-03
 -1      2926-7.30354E-02-1.77172E-02-2.33299E-02 2.11607E-02 3.67878E-02-9.59958E-03
 -1      2927-4.90189E-02-2.60193E-03-1.10965E-02 6.87930E-03 2.54134E-02 4.25484E-04
 -1      2928-4.96754E-02-2.40208E-02-1.59609E-03 2.26040E-02 2.53397E-02-1.80340E-03
 -1      2929-2.53448E-02-1.20581E-02-1.52527E-02 1.39277E-02 2.52737E-02-1.54758E-02
 -1      2930-7.80857E-02-3.22090E-02-7.07343E-03 3.87120E-02 4.05866E-02-9.19443E-03
 -1      2931-9.04881E-02 5.28098E-02-6.36653E-03-6.08352E-02 1.72160E-02 4.98353E-02
 -1      2932-7.58924E-02 1.95441E-02-1.51287E-02 1.42263E-03 1.50567E-02 1.72995E-02
 -1      2933-8.33789E-02 8.87639E-03-2.38313E-02 2.88937E-02 2.54535E-02 6.89011E-03
 -1      2934-1.67533E-01-3.83321E-02-1.66246E-02-3.02470E-02 5.00362E-02 2.40278E-02
 -1      2935 4.43304E-01 6.79563E-03 2.52375E+00 7.25482E-03-3.12343E-03 2.86919E+00
 -1      2936-9.48436E-03-1.84860E-03-1.42287E-02 9.27304E-04-1.22929E-02-3.53831E-02
 -1      2937-8.81723E-03-3.08319E-03-9.94021E-03-1.09711E-03-2.72459E-03-3.13681E-02
 -1      2938-1.51089E-02-1.60271E-03-4.49415E-03-1.44802E-02-2.83676E-03-1.75052E-02
 -1      2939-1.38734E-02-6.25470E-03-4.02196E-03-1.66983E-02-4.76093E-03-1.67041E-02
 -1      2940-1.79969E-02-1.37239E-02-9.56658E-03-1.50068E-02-1.68847E-02-1.88305E-02
 -1      2941-1.11392E+00-1.41222E-02 2.38543E+00 6.87797E-03-1.07645E-02 2.47024E+00
 -1      2942-1.25057E-01-7.65375E-03 2.54260E+00 7.10033E-03-1.65682E-03 3.03311E+00
 -1      2943-1.51375E+00-6.64056E-02 2.19069E+00 1.01021E-02-5.13035E-02 2.25563E+00
 -1      2944-4.37304E-01-4.70457E-02 2.48479E+00 1.63870E-02-3.72123E-02 2.84476E+00
 -1      2945-1.50119E+00-8.18641E-02 2.15036E+00 1.30989E-02 2.76546E-02 2.24723E+00
 -1      2946-7.92435E-03-1.35998E-01 3.78257E-02 4.16506E-02-3.00353E-03-5.62114E-03
 -1      2947-2.98557E-02-1.95767E-01-8.54998E-02 3.39143E-02 2.25893E-01-4.28425E-02
 -1      2948-2.16286E-02-3.07614E-01-8.75494E-02 5.83443E-02 1.58306E-01-1.95336E-02
 -1      2949 4.99102E-03-1.65655E-01 4.39528E-02 7.10607E-02 8.18936E-03 4.81595E-03
 -1      2950-7.28778E-02-2.09875E-01-1.04656E-01 5.90373E-02 2.32102E-01-5.35530E-02
 -1      2951-3.12281E-02-1.73634E-01 1.20136E-02 5.80238E-02 8.06161E-02-2.37528E-02
 -1      2952-9.58445E-02 1.13091E-01 5.26988E-02-6.83991E-02-2.67288E-02 1.08736E-01
 -1      2953-1.88910E-01 7.66991E-02 8.58603E-04-1.61523E-01 2.03337E-03 1.24741E-01
 -1      2954 2.27400E-02 2.14438E-01 1.66417E-01-4.28697E-02-1.29213E-01 1.72764E-01
 -1      2955-6.38481E-02 1.56088E-01 1.28706E-01 4.55278E-03-7.16991E-02 1.19981E-01
 -1      2956-1.19644E-01 2.20658E-01 1.31074E-01-9.83726E-02-7.18809E-02 1.59901E-01
 -1      2957-2.62962E-01 2.45578E-02 2.58898E-03-8.39975E-02 3.32563E-02 8.06564E-02
 -1      2958 2.46512E+00-4.00649E-01-9.48150E-01 1.00061E-01 3.02893E-02-9.89912E-01
 -1      2959 1.83615E+00-3.50533E-01-9.06900E-01 2.75623E-01 4.07806E-02-1.03244E+00
 -1      2960 1.17534E+00-3.08204E-01-7.42636E-01 1.56844E-01-9.98890E-03-8.55921E-01
 -1      2961-4.86436E-01 4.36724E-02-3.58476E-01-8.26518E-04 1.76908E-02-1.71566E+00
 -1      2962 1.78542E+00-3.20379E-01-6.93233E-01 3.13852E-02-5.41357E-03-8.16597E-01
 -1      2963 3.95756E-01-3.21577E-02-7.11629E-01 3.11440E-02 5.88161E-02-1.29663E+00
 -1      2964 9.25442E-01-2.03701E-01-8.37086E-01 2.35128E-01 2.39470E-02-6.00175E-01
 -1      2965 1.39065E+00-1.06542E-01-9.60383E-01 2.36193E-01 1.40673E-02-8.34066E-01
 -1      2966 7.09518E-01 1.02105E-03-7.90129E-01 2.71168E-02 1.19850E-01-1.88761E+00
 -1      2967 1.34682E+00-1.78584E-01-9.67382E-01 3.10265E-01 4.71198E-02-9.70162E-01
 -1      2968-2.95120E-02-2.55693E-03-4.84463E-01 1.44638E-02 7.56885E-02-1.46656E+00
 -1      2969-4.01875E-03 4.71665E-02-5.23372E-04 2.28023E-02-6.10107E-03 1.65001E-03
 -1      2970-2.06525E-02-3.71313E-02-1.32592E-02 2.77622E-02 4.83330E-02-2.03029E-02
 -1      2971-2.78632E-02-3.17454E-02-1.67637E-02 1.88194E-02 6.05716E-02-3.15446E-02
 -1      2972-1.78907E-02-1.07708E-02-6.38627E-03-1.66440E-02-1.54630E-02-1.42879E-02
 -1      2973-3.22065E-03 1.99646E-01 2.32645E-02 5.16645E-03-3.71676E-02 1.23491E-02
 -1      2974 1.42674E-02 1.55260E-01 4.50970E-02 1.29723E-02-1.15348E-01 5.20692E-03
 -1      2975-3.63648E-03 1.39258E-01 1.66236E-02 1.88011E-02-6.68527E-02 6.75494E-04
 -1      2976-9.69609E-04 6.59146E-03 2.24115E-02 7.62863E-04-2.02308E-02-3.13470E-02
 -1      2977-4.95764E-03 3.52521E-03 1.42689E-02 1.24253E-03-2.57773E-02-2.65975E-02
 -1      2978-4.40489E-03 4.38799E-03 1.32346E-02 1.64435E-03-2.13026E-02-2.69582E-02
 -1      2979-8.20531E-02-8.21424E-02 2.81577E-03 8.54328E-02 2.91909E-02-3.37559E-03
 -1      2980-4.30068E-02-4.28759E-02-2.76495E-03 4.42325E-02 1.95166E-02-3.93799E-03
 -1      2981 6.41725E-01-5.42979E-03 2.03988E+00 6.11492E-03 1.79261E-03 1.68930E+00
 -1      2982 5.92506E-01 7.45810E-03 2.22932E+00 1.84352E-03-6.43332E-03 1.92401E+00
 -1      2983 9.22224E-01-1.71654E-02 1.99031E+00-1.03549E-03-1.22562E-02 1.91942E+00
 -1      2984-1.37507E-01 7.58124E-02 4.59096E-02 1.04710E-03-1.58067E-02 3.28414E-02
 -1      2985-1.35277E-01 5.64375E-02 9.52563E-03-7.99382E-03-2.52500E-02 6.15047E-02
 -1      2986 4.62096E-01 5.21528E-03 2.41046E+00-2.08764E-04-1.20257E-03 2.14227E+00
 -1      2987 8.88220E-01 1.95953E-02 2.19917E+00-2.32874E-03-1.67560E-03 2.16155E+00
 -1      2988-5.05047E-01-8.28256E-02-1.94015E-01-7.22032E-02-6.86166E-03-8.79357E-02
 -1      2989-5.65092E-01-2.69989E-01-8.07725E-01 5.31823E-02 1.03322E-01-4.11162E-01
 -1      2990-7.32120E-01-1.25552E-01-3.27741E-01-8.02202E-02 4.36916E-02-1.43879E-01
 -1      2991-5.36285E-01 3.45821E-03 2.45748E-01-1.61537E-01-7.93154E-02 1.49533E-01
 -1      2992-7.66018E-01-2.05685E-01-3.66264E-01 9.55718E-03 5.79072E-02-2.39804E-01
 -1      2993-4.46034E-01-1.60392E-01-1.57071E-01 4.32383E-02 2.55543E-02-1.37737E-01
 -1      2994 1.71677E+00-8.01601E-01-2.89101E+00 2.09779E-01-2.34683E-01-2.80191E+00
 -1      2995 1.05125E+01 6.81573E-01-4.58174E-01 2.60525E-01-1.87948E-01-1.85356E+00
 -1      2996 1.39087E+01 9.46294E-01-1.26543E+00 2.16418E-01 3.85688E-04 6.46357E-01
 -1      2997 4.85043E+00-2.31321E-02-3.23880E+00-2.05671E-01 6.56779E-01-1.29791E-01
 -1      2998 1.34466E+01 9.12690E-01-1.12033E+00-7.09963E-01 7.15621E-01-2.03199E-01
 -1      2999 7.55350E-01-6.27781E-01-2.19752E+00-2.39380E-01 5.86846E-01-3.56531E+00
 -1      3000-8.11974E-01-6.91631E-01-2.55025E+00 1.94504E-01-5.80036E-01-1.81416E+00
 -1      3001-4.42311E-01-4.93397E-01-3.11476E+00 1.42427E-01-6.40556E-01-1.53761E+00
 -1      3002-1.13339E+00-7.17255E-01-2.28884E+00 4.67718E-02-9.90345E-02-8.03800E-01
 -1      3003-9.38173E-01-5.88999E-01-2.44061E+00 7.19409E-02-9.41327E-02-6.93970E-01
 -1      3004-4.55348E-01-5.85713E-01-3.07211E+00-5.43904E-03-2.19287E-01-5.53386E-01
 -1      3005-3.86503E-01-5.70173E-01-3.53013E+00 1.81002E-01-6.57002E-01-1.28668E+00
 -1      3006-1.69715E-03 1.43692E-01 1.90085E-03-2.76807E-03-2.15851E-02 2.65352E-05
 -1      3007-5.68597E-03 1.20408E-01 5.36017E-03 1.39311E-02-2.82431E-02-1.85370E-03
 -1      3008-4.87972E-03 8.93418E-02-4.00585E-03 1.48251E-02-4.23667E-02-6.95951E-03
 -1      3009 4.99907E-01 1.20937E-03 2.44806E+00-7.19326E-03 1.56752E-03 2.35053E+00
 -1      3010 1.96110E-01 1.25742E-02 2.53207E+00-2.87185E-02-2.63929E-02 2.11684E+00
 -1      3011-7.36628E-02-4.77983E-02-5.31470E-01 3.52993E-02 8.75867E-02-2.52121E+00
 -1      3012 2.98652E+00-3.56337E-01-9.26376E-01-2.04187E-02-1.40521E-02-1.19268E+00
 -1      3013-4.81511E-01 1.11875E-02-4.23646E-01-1.73907E-02-1.80712E-02-1.82748E+00
 -1      3014 1.26119E-02 1.29533E-01 3.51617E-02 6.91191E-03-6.35392E-02 4.14183E-02
 -1      3015-3.83328E-03 7.76689E-02 1.42610E-02 4.91543E-03-4.23609E-02 2.82835E-02
 -1      3016 4.30606E-01 8.76178E-02 2.37385E+00-1.60793E-02-6.02961E-03 1.76867E+00
 -1      3017 3.45174E-01 6.17475E-02 2.51174E+00-2.52654E-02-3.19092E-02 1.97749E+00
 -1      3018 2.83601E-03 1.54017E-01 4.73806E-02-4.78011E-02-5.38298E-02 1.10050E-01
 -1      3019-2.83232E-01-1.21372E-01-2.28726E-01 1.27517E-01 2.17055E-01-1.73492E-01
 -1      3020-3.04240E-01-2.54331E-01-4.19547E-02 2.26396E-01 7.81975E-02-8.12639E-02
 -1      3021-1.80928E-01-2.66622E-01-2.15152E-01 1.91195E-01 1.90522E-01-1.18986E-01
 -1      3022-1.59993E-01-1.90515E-01-1.53488E-01 1.03963E-01 1.89625E-01-1.18468E-01
 -1      3023-1.18891E-01-1.97386E-01-1.86612E-03 1.79113E-01 5.02959E-02-1.69082E-02
 -1      3024-2.60863E-01-1.46875E-01-4.54900E-02 1.58821E-01 1.00309E-01-7.44040E-02
 -1      3025 1.39895E+00-3.22957E-01-1.22249E+00 5.00570E-01 5.08543E-02-2.65020E-01
 -1      3026 1.95784E+00-2.22036E-02-1.00011E+00 9.31690E-02 1.73813E-01-1.23536E+00
 -1      3027 1.69074E+00-9.99093E-03-1.01005E+00 1.36077E-01 1.93229E-01-1.35411E+00
 -1      3028 2.89865E+00 1.00533E-02 2.23569E+00-4.31694E-03 2.35544E-02 3.81084E+00
 -1      3029 3.95936E+00-3.71663E-02 1.85579E+00-7.97663E-03 1.92159E-02 3.59189E+00
 -1      3030 4.83457E+00 1.03079E-02 1.91617E+00 1.70654E-03 4.14721E-03 3.97240E+00
 -1      3031-8.39355E-02-3.54569E-02-2.57104E-03 3.44164E-02 2.55553E-02 8.83710E-04
 -1      3032-3.12699E-02-2.03582E-02-1.17155E-03 3.02354E-02 1.60548E-02-4.42100E-03
 -1      3033 1.94159E+00-4.13258E-01-1.01976E+00-2.10070E-01-1.47814E-02-1.11951E+00
 -1      3034 1.36156E+00-2.29128E-01-6.72433E-01-8.02206E-02 1.93606E-02-8.31279E-01
 -1      3035-2.30514E-02-8.70882E-04-1.60275E-02-8.26787E-03-2.08636E-02-1.19550E-02
 -1      3036-3.28130E-02-1.35853E-02-4.60966E-03-2.26264E-02-1.40525E-02-1.13948E-03
 -1      3037-2.02134E-02-1.65140E-03-1.08818E-02-7.86366E-03-8.83825E-03-1.33636E-02
 -1      3038-1.73634E-01-2.43629E-01-1.08671E-02-2.20829E-01-7.65659E-02-1.57416E-02
 -1      3039-3.91113E-01-1.55516E-01-1.53346E-01-1.98782E-01-1.21180E-01-1.43200E-01
 -1      3040-2.59567E-01-1.71600E-01 7.74492E-02-2.22728E-01-4.83417E-02-8.00026E-02
 -1      3041-2.51104E-01-5.91959E-01-5.57619E-01-2.92855E-01-4.00646E-01-1.97136E-01
 -1      3042-4.25067E-01-3.67582E-01-8.40474E-01-2.84439E-01-4.39556E-01-3.31536E-01
 -1      3043-2.47128E-01-4.12837E-01-5.11455E-01-2.46945E-01-3.65060E-01-2.05628E-01
 -1      3044-4.90380E-02-3.11253E-01-1.48132E-01 1.03111E-01 1.88563E-01-5.62816E-02
 -1      3045-8.50091E-02-2.08932E-01-1.33185E-01 7.13362E-02 2.30829E-01-8.96501E-02
 -1      3046-7.82709E+00-1.41386E+00-1.19346E+00 4.01358E-04 3.01567E-02-3.87781E+00
 -1      3047-8.32103E+00-2.19009E+00-4.18372E+00-2.66323E-02 1.22821E-01-2.02522E+00
 -1      3048-8.28345E+00-1.61334E+00-2.22251E+00-2.93511E-01 1.18533E+00-2.16207E+00
 -1      3049-3.79820E-02 1.07295E-02-8.32461E-03-1.47831E-02 2.24810E-02 9.41205E-03
 -1      3050-2.30225E-02 4.34521E-03-8.37266E-03 1.64891E-02 1.72942E-02-3.48668E-03
 -1      3051-9.55774E-03-2.48708E-04-1.95140E-03-1.14120E-02-2.54261E-03-1.87557E-02
 -1      3052-6.77390E-03 2.88656E-03-1.68543E-03-1.12754E-02 1.42125E-04-1.57082E-02
 -1      3053 8.10417E+00 3.60142E-01-9.30067E-01 7.22667E-01-1.44906E-01-2.43839E+00
 -1      3054 8.30142E+00 5.79452E-01-5.73294E-01-9.59496E-02 1.42005E-01-2.36999E+00
 -1      3055 8.44700E+00 1.38158E+00 1.69525E-02 4.68258E-01-1.60045E-02-2.12664E+00
 -1      3056-1.23767E-02-1.32931E-02-2.95095E-02 3.89567E-03 4.71421E-02-3.96095E-02
 -1      3057-1.76468E-02-1.37813E-02-3.31245E-02 5.06005E-03 4.45663E-02-4.10769E-02
 -1      3058-1.90437E-02-1.18555E-02-1.38656E-02 1.36118E-02 2.08821E-02-2.48894E-02
 -1      3059-2.14053E-02-1.62617E-02-2.15258E-02 1.53743E-02 2.54252E-02-2.44992E-02
 -1      3060-2.45408E-02 4.65635E-02-1.81978E-02-5.90486E-02 1.28232E-02 6.32436E-02
 -1      3061 8.24456E-02 2.46615E-01 8.60740E-02-2.85364E-02-1.32276E-01 1.00290E-01
 -1      3062-2.16689E-02 6.75944E-02-1.51809E-02-7.29317E-02 9.21325E-03 7.94944E-02
 -1      3063 2.26247E+00 1.00320E-03 2.24663E+00-5.66838E-03-3.61023E-03 3.42204E+00
 -1      3064 9.90820E-01-9.38517E-03 2.55100E+00 2.40172E-03 4.94636E-03 3.55062E+00
 -1      3065 3.34724E+00 6.44501E-03 1.89527E+00-3.67845E-03-1.71610E-04 3.25890E+00
 -1      3066-8.69449E+00-1.73798E+00-2.31445E+00 2.94042E-01 2.19974E-01-3.16721E+00
 -1      3067 6.48387E-01-7.28522E-02-7.78884E-01-7.00685E-02 1.98994E-01-4.88249E+00
 -1      3068 4.42620E-01-4.48667E-01-2.42480E+00-6.75629E-01 1.11552E+00-3.20678E+00
 -1      3069-9.49144E-04 2.98493E-02 4.58680E-04 1.09717E-02-3.15442E-02-9.62948E-03
 -1      3070-5.75205E-03 3.26614E-02-1.12436E-02 1.38935E-02-3.02292E-02 1.28188E-03
 -1      3071-6.80559E-03 1.29947E-03-5.31920E-03 6.81943E-03-7.77150E-03-1.52176E-02
 -1      3072-1.28851E-02-5.51722E-04-1.67736E-02 7.38095E-03-5.60424E-03-5.94649E-03
 -1      3073-7.60330E-03 1.89524E-02-7.07983E-03 1.47071E-02-7.42859E-03-9.91137E-03
 -1      3074-8.59291E-01-6.32735E-01-2.67750E+00 3.97244E-01-6.66377E-01-1.48776E+00
 -1      3075-7.54831E-01-5.80511E-01-2.51014E+00 8.58511E-02-1.21943E-01-5.30150E-01
 -1      3076 3.56170E+00-2.22687E-01-3.47535E+00 4.79261E-01-7.69281E-01-9.14365E-01
 -1      3077 1.22583E+01 7.86986E-01-1.17114E+00 8.04032E-01-7.18214E-01-1.97395E-01
 -1      3078 1.01299E+00-2.94326E-01-1.86523E+00 4.30207E-01-1.00771E+00-3.87630E+00
 -1      3079 2.12636E+00 1.49858E-02 1.93618E+00-8.13491E-03-2.76952E-03 2.67232E+00
 -1      3080 1.26018E+00-1.15724E-02 2.22809E+00-1.16886E-02-1.11531E-02 2.65423E+00
 -1      3081 1.51665E+00-3.86765E-01-8.01430E-01-1.58336E-01 1.43166E-03-6.63756E-01
 -1      3082-2.35469E-02-3.61170E-02-5.18526E-01-2.77955E-02 6.63094E-03-1.67305E+00
 -1      3083-3.52030E-01 4.10711E-02-4.00984E-01-1.75947E-02-3.01449E-02-1.26995E+00
 -1      3084-7.73418E-02 1.52960E-02-2.18175E-02-1.97670E-02 1.85562E-02 3.00864E-02
 -1      3085-1.65406E-01-5.33502E-02-6.80879E-03 1.93199E-02 3.14277E-02 6.73778E-03
 -1      3086-2.26845E-01-3.68948E-03 1.55831E-02-2.89968E-02 2.01997E-02 5.26374E-02
 -1      3087-2.39298E-01 3.70273E-03 3.88606E-03 2.61861E-02 3.63643E-02 3.84719E-02
 -1      3088-1.14456E-01-4.45711E-02-6.22870E-03 4.45883E-02 2.70835E-02 7.61564E-04
 -1      3089-5.56425E-02-2.95209E-02-2.66921E-03 3.59643E-02 1.81751E-02-2.96439E-03
 -1      3090-2.36445E-01-5.91282E-01-5.48445E-01 2.97734E-01 4.13387E-01-2.01807E-01
 -1      3091-2.70564E-01-3.51089E-01-6.93016E-01 1.87538E-01 4.26525E-01-2.96414E-01
 -1      3092-4.09355E-01-3.78100E-01-6.27309E-01 2.60763E-01 3.70019E-01-2.70891E-01
 -1      3093-9.36227E-03 1.78356E-02-2.65734E-03 2.03711E-02 2.76170E-03-6.05532E-03
 -1      3094-2.17732E-02 1.53971E-02-8.68646E-03 1.03813E-02-2.18079E-03 2.70867E-03
 -1      3095-2.39104E-02-7.80828E-03-4.20645E-03 1.81332E-02 1.30294E-02-7.32112E-03
 -1      3096-4.99593E-01-4.69049E-02 2.48190E+00 1.53557E-02-3.57051E-02 2.89279E+00
 -1      3097-4.74809E+00-5.20581E-01-5.47907E-01 2.22084E-01-1.05993E-01-3.05672E+00
 -1      3098-7.00107E+00-8.81784E-01-1.19919E+00 1.51211E-01 8.84480E-02-2.42399E+00
 -1      3099-2.16047E-01-2.52617E-01-3.30583E-01-1.42649E-01-3.04762E-01-1.83237E-01
 -1      3100-4.24872E-01-3.08387E-01-6.58116E-01-1.64043E-01-3.51866E-01-2.99713E-01
 -1      3101-2.63153E-01-5.10817E-01-1.11030E+00-1.44579E-01-5.77556E-01-2.97214E-01
 -1      3102-8.48294E-02-3.38826E-02-2.52930E-02 2.98243E-02 6.01960E-02-2.72977E-02
 -1      3103-2.55028E-02-2.26670E-02-1.49922E-02 1.47585E-02 4.34881E-02-2.51105E-02
 -1      3104-2.39240E-01-4.78624E-01-7.67304E-01 1.67572E-01 5.10771E-01-2.32879E-01
 -1      3105-1.43006E-01-6.10155E-01-4.50036E-01 2.16886E-01 3.55982E-01-1.42030E-01
 -1      3106-1.48397E-01-4.83931E-01-6.08484E-01 1.32559E-01 5.16604E-01-1.60977E-01
 -1      3107 2.00092E+00-2.70589E-01-1.35242E+00 7.24289E-01 8.74484E-02-2.13494E-01
 -1      3108 1.93285E+00-9.42346E-02-9.03886E-01 4.30879E-01 9.85050E-02-9.81812E-01
 -1      3109 6.51793E-02-2.91714E-01-8.20868E-01 5.22880E-02-1.35379E-01-4.14111E+00
 -1      3110-5.05894E+00-2.70322E-01 7.02552E-01 5.36717E-02-3.14968E-01-1.79525E+00
 -1      3111-1.02961E-02-8.02064E-02-7.64510E-01-1.98859E-01 1.37524E-01-3.77216E+00
 -1      3112 5.62492E+00 1.49641E-01-8.89281E-01-3.67602E-01-2.19082E-01-2.77817E+00
 -1      3113 5.27861E+00 2.42589E-01-1.67377E+00-2.97418E-01-3.56750E-01-1.59358E+00
 -1      3114 6.58834E+00 6.16141E-01-3.36569E-01-9.18686E-01 4.45690E-03-1.92165E+00
 -1      3115-7.98172E-01-6.45401E-01-2.64849E+00-3.43480E-01 6.65284E-01-1.49680E+00
 -1      3116-7.98438E-01-9.32212E-02-3.94665E+00-3.36716E-01 6.56150E-01-1.73730E+00
 -1      3117-1.27283E+00-4.24700E-01-2.80620E+00-1.07518E-01 1.11212E-01-8.95949E-01
 -1      3118-7.49043E-01-5.46768E-01-2.56299E+00-1.10287E-01 9.47361E-02-5.21725E-01
 -1      3119-6.74660E-01-3.27490E-01-3.63044E+00 1.90816E-02 9.20363E-02-8.89581E-01
 -1      3120-4.37104E-01-5.52526E-01-3.62158E+00-1.93381E-01 6.43682E-01-1.23342E+00
 -1      3121-2.97658E-01-1.73873E-01-5.27340E+00-2.27878E-01 9.47027E-01-9.89167E-01
 -1      3122-4.22153E-01 1.48001E-01-5.08786E+00-2.36219E-02 2.49342E-01-7.01075E-01
 -1      3123-1.49060E-01-2.57720E-01-4.58406E+00-2.32334E-02 3.13659E-01-2.55782E-01
 -1      3124-6.94617E-01-7.01160E-01-2.53013E+00-2.21889E-01 5.74156E-01-1.81798E+00
 -1      3125-9.69073E-01-6.11922E-01-2.38395E+00-7.96890E-02 1.64164E-01-7.14426E-01
 -1      3126-4.31910E-01-5.26328E-01-3.21348E+00-1.68398E-01 6.80906E-01-1.52348E+00
 -1      3127-1.15105E+00-7.05652E-01-2.33834E+00-4.77945E-02 8.82123E-02-8.20721E-01
 -1      3128-7.98889E-01-9.38144E-02-4.00391E+00 3.39095E-01-6.56143E-01-1.75967E+00
 -1      3129-1.23190E+00-3.94574E-01-2.80876E+00 8.86301E-02-9.91246E-02-8.85447E-01
 -1      3130-6.67927E-01-3.29953E-01-3.56562E+00-2.76965E-02-9.69096E-02-8.33606E-01
 -1      3131-2.25461E-02-1.29655E-01-4.72177E-02 1.97688E-02 1.63849E-01-3.73383E-02
 -1      3132-5.11852E-02-1.36336E-01-5.99685E-02 4.71185E-02 1.63300E-01-4.99751E-02
 -1      3133-4.72441E-03-1.40175E-03-2.16428E-03-4.20425E-04 1.45337E-03-3.07992E-02
 -1      3134-8.06501E-03-1.79235E-03-2.79224E-04-1.17175E-02-1.59419E-03-1.81738E-02
 -1      3135-9.12647E-02 5.52681E-02-1.56298E-02-1.08279E-01 2.02440E-02 7.70487E-02
 -1      3136-7.29024E-02 3.04251E-02-4.38357E-03-1.36600E-01 1.87024E-02 8.75703E-02
 -1      3137-8.32208E+00-1.90685E+00-3.27942E+00 1.35391E-01-5.06284E-01-2.60020E+00
 -1      3138-2.34352E-01-1.62604E-01-5.29013E+00 2.53138E-01-9.47298E-01-1.01914E+00
 -1      3139-4.22446E-01 8.01326E-02-5.12347E+00 6.46339E-03-2.30489E-01-7.11324E-01
 -1      3140-1.40306E-01-2.62562E-01-4.52219E+00 2.78794E-03-2.81955E-01-2.64693E-01
 -1      3141-1.93732E-03 2.11743E-02 6.85379E-03 9.44985E-03-2.00918E-02-1.91843E-02
 -1      3142-4.47420E-04 2.53896E-02 9.03134E-04 9.86898E-03-3.26512E-02-1.32004E-02
 -1      3143-1.26796E-03 4.31600E-03 1.13991E-02 1.86823E-03-1.85252E-02-3.19584E-02
 -1      3144-8.12851E-03 2.65916E-04-6.34414E-04 6.36200E-03-8.54025E-04-2.42778E-02
 -1      3145-5.73272E-03 4.80482E-03-3.44037E-03 5.87088E-03-1.00059E-02-2.01501E-02
 -1      3146 8.68980E-01-4.14266E-01-8.07444E-01 8.71001E-03-3.81453E-03-3.98772E-01
 -1      3147 5.33160E-02-6.69053E-03-5.44284E-01-3.09248E-02-1.84259E-02-8.23920E-01
 -1      3148 1.06126E+00-4.28603E-01-8.17551E-01-6.82649E-02-1.72061E-02-7.03159E-01
 -1      3149 9.13508E-01-2.73292E-01-7.05499E-01 2.96632E-02-2.06266E-03-8.73705E-01
 -1      3150-2.23052E-01 9.25265E-02-3.95089E-01-7.48844E-03 3.66480E-03-8.68923E-01
 -1      3151-2.01158E+00 2.15901E-02 2.36687E-01 6.51248E-02-8.91193E-02-1.10995E+00
 -1      3152-1.36060E+00 1.27329E-01 6.07936E-02 2.35773E-01 5.28833E-04-7.89426E-01
 -1      3153-1.46779E+00 2.33476E-01 2.40359E-01 4.56631E-01-1.81878E-02-1.87342E-01
 -1      3154-1.87101E+00 1.02548E-02 1.22714E-01 6.05952E-02-1.87236E-01-1.43346E+00
 -1      3155-1.40795E+00 1.82983E-01 2.66575E-02 2.54218E-01-8.42032E-02-1.06688E+00
 -1      3156-7.67365E-01 2.70669E-02-7.07362E-02-1.09133E-02-1.16426E-01-2.00477E+00
 -1      3157 9.20313E+00 1.31909E+00 1.28628E-01-8.41982E-01 5.88118E-01-1.38381E+00
 -1      3158 1.13712E+01 1.19198E+00-1.10648E+00-1.25543E+00 1.05251E+00-4.45057E-01
 -1      3159-1.12984E+00 1.54217E-01-2.03565E-01 2.23089E-01-2.39293E-02-6.99092E-01
 -1      3160-4.98205E-01-1.87571E-02-2.70273E-01 3.91810E-02-7.31837E-02-1.37849E+00
 -1      3161-9.47568E-01 3.08021E-01-4.76310E-02 2.40346E-01-3.86184E-02-3.43212E-01
 -1      3162-6.13400E-01 1.00699E-01-1.28697E-01 7.96450E-02-6.51720E-02-1.05892E+00
 -1      3163-3.08425E-01 5.40121E-02-3.14884E-01 3.20952E-02-7.54889E-02-8.88308E-01
 -1      3164 2.63662E+00-1.80732E-02 1.87400E+00-2.32988E-03-7.16250E-03 2.91804E+00
 -1      3165 3.57198E-01-1.62219E-01-9.78513E-01 8.01163E-02 1.16942E-01-2.59399E-01
 -1      3166 3.00979E-01-2.37303E-01-9.80152E-01 6.74065E-02 1.16666E-01-2.18588E-01
 -1      3167 4.30557E-01-2.54297E-01-8.10207E-01 9.88700E-02 6.65856E-02-4.92582E-01
 -1      3168 2.54750E-01-4.31620E-02-7.30736E-01 1.68909E-02 1.34778E-01-6.91036E-01
 -1      3169 6.05715E-01-1.49604E-01-7.82542E-01 1.05846E-01 7.59634E-02-5.47919E-01
 -1      3170-9.07281E-02-1.80665E-02-2.69229E-02 3.08986E-02 5.52139E-02-2.46125E-02
 -1      3171 5.84629E-01-3.01846E-01-7.93702E-01 8.08106E-02 3.62769E-02-5.02815E-01
 -1      3172 3.34803E-01-2.34684E-01-6.89222E-01 2.69520E-02 6.88972E-02-3.65959E-01
 -1      3173 2.39498E-01-1.44364E-01-6.95038E-01 5.90084E-02 1.04419E-01-3.53378E-01
 -1      3174-1.09963E-01 6.37802E-02-4.16869E-01-1.35581E-02 8.81770E-02-7.07325E-01
 -1      3175-6.94858E-02-6.59479E-02-2.08448E-02 5.24963E-02 7.36878E-02-3.74439E-02
 -1      3176-1.02017E-02-6.02956E-03-1.01662E-02 2.32497E-02 6.74689E-03-1.41391E-02
 -1      3177-9.99905E-01 1.87238E-01 2.78706E-02 2.30988E-01-4.22383E-02-3.28585E-01
 -1      3178-5.60542E-01 9.74435E-02-1.43588E-01 8.95007E-02-7.14071E-02-6.28171E-01
 -1      3179-1.42226E-01-2.18651E-01-1.58205E-01 9.44861E-02 2.25470E-01-1.03377E-01
 -1      3180-1.42160E-01-3.19220E-01-2.24992E-01 1.69507E-01 2.26622E-01-9.99145E-02
 -1      3181-6.29056E-02-2.09333E-01 2.68147E-03 1.25336E-01 3.66551E-02-1.65275E-02
 -1      3182-9.02920E-02-1.69629E-01 8.87333E-03 1.03196E-01 7.06322E-02-2.42893E-02
 -1      3183-3.12130E-02 1.70902E-02-1.99357E-02 6.36133E-03 1.66428E-03 9.28323E-03
 -1      3184-3.00463E-01 3.10827E-03 2.58017E+00 6.59039E-03 1.12452E-03 2.63703E+00
 -1      3185 2.25755E-01 3.06724E-02 2.57065E+00 3.76463E-03 1.63450E-03 2.63093E+00
 -1      3186-1.40498E-01-8.81255E-02-8.77951E-03 8.14764E-02 6.07351E-02-1.76536E-02
 -1      3187-4.12219E-01-9.86278E-02-4.37864E-01 5.77328E-02 8.94949E-02-2.72398E-01
 -1      3188-5.07501E-01-1.18012E-01-4.77529E-01 1.76165E-01 1.53708E-01-2.96499E-01
 -1      3189-2.54643E-01-6.12814E-02-1.22287E-01 9.72909E-02 6.49312E-02-1.33882E-01
 -1      3190-2.18635E-01 3.41123E-02 4.14980E-03 7.10798E-03-1.32753E-02-2.51063E-02
 -1      3191-3.76517E-01-1.64845E-02-3.35347E-02 7.51254E-02 4.97256E-02-7.88320E-03
 -1      3192-5.12830E-01-5.23750E-02-2.26254E-01 4.23858E-02 7.54536E-02-1.32478E-01
 -1      3193-3.31026E+00 3.21811E-01 4.96853E-01 1.02861E-01 2.57174E-02-9.18886E-01
 -1      3194-3.03442E+00 1.13163E-01-1.16818E-01-1.10402E-01 1.77415E-02-1.06287E+00
 -1      3195-3.48129E+00 1.08575E-01 3.24171E-01-4.08368E-01 1.23612E-01-7.00072E-01
 -1      3196-2.10601E+00 3.45662E-01 7.39071E-02-3.46321E-01 7.81338E-02-9.50383E-01
 -1      3197-2.84414E+00 2.33359E-01-1.16881E-01 1.49269E-02-2.54252E-02-1.16453E+00
 -1      3198-1.05635E-02-3.50500E-03-3.71592E-03 2.16982E-02 4.69840E-03-1.49939E-02
 -1      3199-1.50413E-01 7.08694E-02 2.15172E+00-3.09315E-02 5.01178E-02-1.78005E+00
 -1      3200-1.78002E-01 1.14196E-01 2.97294E+00 1.42396E-02 2.84481E-01-1.34894E+00
 -1      3201-3.91594E-01-1.87015E-01 3.62451E-01-1.79814E-01 7.53262E-01-1.37043E+00
 -1      3202-3.47872E-01-2.25674E-01-2.41574E+00-1.09669E-01 6.73338E-01-2.76232E+00
 -1      3203-3.25129E-01-2.22545E-01-1.21273E-01-1.17096E-01 6.38229E-01-1.57670E+00
 -1      3204-1.86238E-02-1.84076E-02-5.56938E-01-8.30009E-03-1.32739E-01-1.63557E+00
 -1      3205-4.86829E-01-7.21208E-02 1.20867E-03 2.69121E-02 5.85574E-02 2.24529E-02
 -1      3206-3.55489E-01 5.66092E-02 9.06662E-02-1.13309E-01-6.48182E-03 1.38980E-01
 -1      3207-9.23954E-03 6.23452E-03-3.43835E-03-1.35365E-02 2.51916E-03-4.17594E-03
 -1      3208-1.65591E-02-3.27486E-03-4.93340E-03-1.42361E-02-3.47703E-03-9.96781E-03
 -1      3209-3.77632E-02-9.96934E-03-7.65847E-03-1.71821E-02-1.56178E-02 3.08843E-03
 -1      3210-1.60919E-02 5.88307E-03-1.50817E-02-6.30202E-03-9.13839E-04-5.11685E-03
 -1      3211-1.21015E-02-3.10011E-03-1.07379E-02 6.81606E-03 5.82482E-03-1.66986E-02
 -1      3212 3.05287E-01-1.66340E-03 2.54574E+00 1.31950E-02 3.16510E-03 3.02403E+00
 -1      3213-4.41465E-01 4.24917E-02-2.32755E-01-6.00050E-02 5.19728E-02-8.60990E-01
 -1      3214-2.99461E-01 3.27355E-02-2.35395E-01-1.64471E-02 6.37353E-02-1.40419E+00
 -1      3215 2.80136E-02-4.61729E-03-4.76222E-01 4.16561E-04 5.98310E-02-1.13394E+00
 -1      3216 4.69836E-01 5.02931E-03 2.50567E+00-8.77335E-03 4.09368E-03 2.55979E+00
 -1      3217 9.26956E-01-2.27056E-03 2.25003E+00-5.61097E-03 1.97762E-03 2.37694E+00
 -1      3218 1.62636E+00-1.16005E-02 1.92097E+00 3.14697E-03 7.66783E-03 2.39961E+00
 -1      3219-4.24347E+00-1.77715E-01 1.64416E-01-5.91164E-02 3.34941E-02-1.50254E+00
 -1      3220-3.54392E-03-1.48827E-01-6.83161E-01 1.14365E-01 1.78019E-01-3.66205E+00
 -1      3221 1.30536E+00-3.64262E-01-8.24951E-01 1.73286E-01 2.44835E-02-6.17535E-01
 -1      3222-3.30614E-01 3.65045E-02-3.93353E-01-2.83504E-03 4.68366E-02-1.13849E+00
 -1      3223-2.94038E-02 3.16034E-02-4.69091E-03-2.91369E-02 6.46877E-03 2.28810E-02
 -1      3224-9.23991E-02-1.14484E-01-2.20828E-02 1.01641E-01 3.59057E-02-2.43617E-03
 -1      3225-3.81695E-02-1.12591E-01-1.33479E-02 7.99374E-02 2.21698E-02-2.05942E-04
 -1      3226-3.87181E-03 1.23914E-03 2.14564E-03 9.11276E-04-7.35115E-03-3.24613E-02
 -1      3227-8.55556E-03-6.62368E-04-7.65071E-03 6.42215E-03 1.17016E-03-2.19401E-02
 -1      3228-6.60542E-02-3.37813E-01-1.84698E-02-1.65663E-01-7.55533E-02-1.23746E-02
 -1      3229-1.57672E-01-3.23915E-01-4.34422E-02-1.92541E-01-1.46873E-01-5.97074E-02
 -1      3230-1.58696E-01-5.42547E-01-6.12784E-01-2.35134E-01-4.66375E-01-2.06228E-01
 -1      3231-2.12709E-01 1.18301E-01 2.56592E+00 1.95517E-02 1.95995E-02 2.07723E+00
 -1      3232-7.45494E-02 7.20083E-02 2.56311E+00-1.92830E-02-4.37329E-03 2.32265E+00
 -1      3233 1.76765E-01 7.63320E-03 2.52307E+00-3.87815E-02-2.90624E-02 2.28998E+00
 -1      3234-4.85819E-02 4.77005E-02 2.58417E+00 3.61464E-02 1.89955E-02 2.08441E+00
 -1      3235 4.98709E-03 2.23748E-01 7.15047E-02 3.30928E-02-1.57967E-01 1.79503E-02
 -1      3236-3.75126E-01-5.89351E-01-3.20655E+00-5.20973E-04 2.16108E-01-5.67043E-01
 -1      3237-3.91014E-01 2.45559E-01 2.25366E+00 1.49195E-01 1.78330E-01 1.76619E+00
 -1      3238-2.12982E-01 1.90286E-01 2.25834E+00 1.46373E-01 1.79018E-01 1.78908E+00
 -1      3239 1.26378E+00 1.39602E-04 1.96397E+00-2.12225E-03 1.57270E-03 2.15561E+00
 -1      3240-5.50516E-02 5.90453E-01 2.08924E+00-3.23361E-03-3.88457E-02 1.47387E+00
 -1      3241-1.27964E+00 8.50527E-02 1.11644E+00 5.49653E-02 3.34283E-02 9.07742E-01
 -1      3242-1.08760E+00 1.62977E-01 1.69350E+00 1.06947E-01 1.27337E-01 1.27778E+00
 -1      3243-8.79391E-01 2.70558E-01 8.71381E-01 2.65738E-02 3.99382E-02 6.43075E-01
 -1      3244-1.15565E+00 4.30646E-02 2.96352E-01-1.36542E-02 3.52020E-03 2.86737E-01
 -1      3245-3.42740E-02-2.73195E-02-3.23850E-03 3.54635E-02 1.51122E-02-5.02612E-03
 -1      3246 3.56819E+00-2.04652E-01-1.35547E+00 4.91463E-01 1.46712E-01-6.94783E-01
 -1      3247 3.54533E+00-4.80051E-01-1.54804E+00-6.57995E-02 4.00487E-02-8.68051E-01
 -1      3248 4.62487E+00-1.56260E-01-1.44391E+00 2.48178E-01 8.64442E-02-1.34212E+00
 -1      3249 9.96163E-01-3.52840E-01-8.15646E-01 7.84706E-02 3.44096E-02-6.04876E-01
 -1      3250 3.56819E-02-5.10580E-03-5.55639E-01 2.25112E-02 1.51392E-02-7.33992E-01
 -1      3251 9.93507E-01-2.21756E-01-1.02133E+00 2.69550E-01 4.10733E-02-3.54225E-01
 -1      3252 4.21226E-01-8.55986E-02-7.72898E-01 6.79568E-02 5.26016E-02-8.39751E-01
 -1      3253-3.41194E-03-3.34224E-01-1.29752E-01 4.66998E-04 2.69954E-01-3.58353E-02
 -1      3254-1.72047E-02-3.14171E-01 3.38897E-02 3.40067E-02 4.55742E-02 1.94139E-02
 -1      3255-1.49186E-01-7.71300E-01-5.71288E-01 1.70003E-01 5.13195E-01-1.63117E-01
 -1      3256-1.20864E-01 5.16038E-02-5.17443E-03-1.22020E-01 5.85503E-03 1.05949E-01
 -1      3257-3.00193E-01-1.51379E-01-2.98205E-01-1.44847E-01-2.33191E-01-2.20452E-01
 -1      3258-2.14067E-01-2.17328E-01-2.22086E-01-1.17665E-01-2.10597E-01-1.47684E-01
 -1      3259 3.87317E-02 1.20399E-01 1.79663E-02-1.57837E-02-4.59183E-02 6.54047E-02
 -1      3260-2.01876E-02-2.23070E-02-1.45891E-02 1.22669E-02 4.14654E-02-2.61030E-02
 -1      3261-2.02105E-02-1.17665E-02-1.21002E-02-1.28923E-02-2.14499E-02-2.53689E-02
 -1      3262-2.47770E-02-1.89648E-02-5.56052E-04-2.79198E-02-2.16619E-02-7.97351E-03
 -1      3263-1.95404E-02-2.04444E-02-1.47352E-02-1.17707E-02-3.61579E-02-2.59472E-02
 -1      3264-2.13334E+00 4.31663E-01 5.42365E-02-4.52663E-02 3.21787E-02-9.96769E-01
 -1      3265 3.16212E+00-2.20821E-01-8.40171E-01 1.48864E-01 1.96395E-02-1.03002E+00
 -1      3266 2.13086E+00-3.89438E-01-1.03163E+00 4.37975E-01 4.44735E-02-9.51006E-01
 -1      3267-3.91999E-01 4.72227E-01 1.75623E+00 9.77269E-03-6.57049E-03 1.23832E+00
 -1      3268-5.37492E-01-2.54328E-01-9.43297E-01-9.46115E-02-2.34109E-01-4.54942E-01
 -1      3269-6.80613E-01-1.54892E-01-5.75278E-01-1.52459E-01-1.33066E-01-3.82163E-01
 -1      3270-4.72026E-01-2.60224E-01-5.51275E-01-1.50379E-01-2.30548E-01-3.17922E-01
 -1      3271-3.37472E-01-4.48647E-01-1.18232E+00-1.68053E-01-5.15462E-01-3.91724E-01
 -1      3272-5.67446E-01-4.25331E-01-1.51252E+00-2.32790E-01-4.67799E-01-5.05013E-01
 -1      3273-1.47901E+00 3.36420E-01-1.82548E-01 1.65145E-01-3.64124E-02-6.73306E-01
 -1      3274-1.88383E+00 3.21060E-01 2.22914E-02 2.16144E-01-2.03583E-02-1.11435E+00
 -1      3275-1.80632E+00 3.57085E-01 6.19745E-03 2.26633E-01-7.89615E-02-1.09002E+00
 -1      3276 6.42845E-02-5.84704E-02-5.23781E-01-4.26349E-02-1.45029E-01-2.54931E+00
 -1      3277-1.96955E+00 3.21915E-01-1.35868E-01 1.30994E-01 7.61487E-03-6.00505E-01
 -1      3278-3.27308E-01-1.01745E-01 7.61558E-03 1.76607E-01 5.64729E-02-3.93699E-02
 -1      3279-4.93683E-01-5.82521E-01-6.61140E-01 3.72759E-01 4.94550E-01-2.77094E-01
 -1      3280-1.42368E+00 1.10290E-01-4.16057E-03-2.33052E-01 1.98133E-02-9.13180E-01
 -1      3281-9.98651E-01 1.88165E-01-1.97992E-01-2.23738E-01 3.91476E-02-5.88540E-01
 -1      3282-6.74527E-01-1.48248E-02-1.54029E-01-1.30342E-02 1.29812E-01-1.99470E+00
 -1      3283-1.37303E+00 1.81428E-01-3.31084E-02-2.86261E-01 6.91827E-02-9.79038E-01
 -1      3284-1.79596E-01-3.68662E-01-4.22817E-01-1.23024E-01-3.69973E-01-1.61481E-01
 -1      3285-5.73282E-01 2.35989E-02 2.38775E+00-1.45716E-02-3.71906E-02 2.01580E+00
 -1      3286-2.05426E+00 1.47858E-01 3.16145E-01 6.72614E-01-4.09018E-03-1.12802E-01
 -1      3287-1.99210E+00 1.29824E-01 4.88527E-03 3.53953E-01-1.15721E-01-1.04925E+00
 -1      3288-4.67069E-01 4.40026E-02 2.51516E+00-9.70234E-03-1.67675E-02 2.31400E+00
 -1      3289-1.17048E-02-4.28454E-03-2.02328E-02 9.94588E-04 2.85690E-02-3.73348E-02
 -1      3290-6.19272E-01 4.00120E-01 1.48532E+00-2.81343E-02-3.80220E-02 1.01863E+00
 -1      3291-5.81663E-02 4.53146E-02-7.84450E-03-3.36457E-02-1.21037E-02 6.36045E-02
 -1      3292 2.61588E-02 2.08545E-01 1.03413E-01-4.94444E-02-1.14564E-01 1.53577E-01
 -1      3293-9.38792E-01 4.21291E-02 2.30253E+00-7.52256E-03-1.57138E-02 2.08590E+00
 -1      3294-1.50494E+00 1.75734E-02 1.84205E+00-1.97553E-02-1.84539E-02 1.45718E+00
 -1      3295-7.02544E-01-4.67545E-01-1.46965E+00 1.13703E-02 3.99374E-02-3.54934E-01
 -1      3296-9.74044E-01-4.75684E-01-1.53957E+00-1.27964E-01 8.31611E-02-5.49474E-01
 -1      3297-7.68952E-01-5.59010E-01-1.93013E+00-4.50603E-02 7.55629E-02-5.06672E-01
 -1      3298-7.23771E-01-4.92190E-01-1.47972E+00 3.77250E-02 1.40875E-01-4.60062E-01
 -1      3299-9.98632E-01-4.35127E-01-1.43481E+00-1.03797E-01 6.80543E-02-7.07342E-01
 -1      3300-7.49791E-01-3.08303E-01-1.03204E+00-3.12100E-02 7.50926E-02-4.04980E-01
 -1      3301-1.68534E+00-1.31765E-01 2.59236E-01 1.19480E-01 2.58775E-02 3.32693E-01
 -1      3302-1.92105E+00-1.11646E-01 1.13902E+00-4.48478E-02-9.01014E-03 9.22081E-01
 -1      3303-1.66534E+00-1.04654E-01 2.79802E-01-1.57901E-01-1.59829E-02 3.35318E-01
 -1      3304 1.13579E-02 1.99759E-01 2.42846E+00-1.48156E-01-1.79125E-01 1.91228E+00
 -1      3305 1.41009E-01 6.28789E-01 2.22365E+00-1.44414E-02-8.33983E-03 1.57190E+00
 -1      3306-2.03364E+00-1.63444E-02 1.96601E-01-6.68696E-02 1.16795E-01-1.31699E+00
 -1      3307-1.48442E+00 2.96215E-01 2.45274E-01-4.38795E-01 3.32828E-02-2.11920E-01
 -1      3308-1.76938E+00 1.89764E-02 8.87155E-02-9.31014E-02 1.92421E-01-1.28870E+00
 -1      3309-3.99165E-02-2.51905E-02-1.19047E-03-3.06975E-02-1.90291E-02-6.37931E-03
 -1      3310-4.79965E-02-1.82732E-02-7.47708E-03-2.28648E-02-1.43642E-02 1.35591E-03
 -1      3311-3.91764E-02-2.40979E-02-7.39552E-03-2.27505E-02-3.07487E-02-7.52159E-03
 -1      3312-5.84625E-01 2.48075E-01 2.07298E+00 1.06075E-01 1.10311E-01 1.58317E+00
 -1      3313-1.64962E-01-1.17390E-01 1.88528E-03 1.17881E-01 1.01657E-02-4.20500E-03
 -1      3314-1.19801E-02 9.31805E-02 6.89702E-03 1.45084E-02-8.36058E-02-8.11881E-03
 -1      3315-1.29691E+00-1.86797E-01-5.51817E-01 7.20114E-02-2.21949E-02-1.32044E-01
 -1      3316-8.87592E-01-1.00941E-01-3.68861E-01 1.33680E-01-1.54888E-02-4.59180E-02
 -1      3317-1.62271E+00-4.29047E-01-6.65877E-01 3.51454E-03 5.23298E-03-1.52224E-01
 -1      3318-2.04062E+00-1.58589E-01 2.82948E-01 9.83987E-02 9.17784E-03 2.86757E-01
 -1      3319-8.74093E-01-1.07521E-01-3.94068E-01-1.33790E-01 3.28562E-02-5.35659E-02
 -1      3320-1.31987E+00-2.09058E-01-5.58662E-01-7.70219E-02 2.76021E-02-1.29055E-01
 -1      3321-2.06268E+00-1.53211E-01 2.80768E-01-1.06590E-01-1.22793E-02 2.80418E-01
 -1      3322-8.87293E-01 4.77194E-02 2.18781E+00 1.11297E-02-1.71702E-02 1.78528E+00
 -1      3323 9.27221E-02-4.64745E-02-6.61121E-01 1.01875E-02 1.82527E-01-6.13773E-01
 -1      3324 2.89355E-02-1.74853E-02-5.36000E-01 1.46352E-02 1.78620E-01-7.66042E-01
 -1      3325-5.56483E-01-6.47847E-01-2.59024E+00 4.34837E-03 1.10248E-01-3.83300E-01
 -1      3326-5.73508E-01-4.44049E-01-2.20310E+00 4.23406E-02 1.36591E-01-5.26591E-01
 -1      3327-3.07487E-01-5.54210E-02-4.59342E-02 5.07038E-02-5.49065E-02 2.74974E-02
 -1      3328-2.53102E-01 9.85076E-02 1.33815E-01 4.22554E-02 5.32509E-02 1.40605E-01
 -1      3329-3.14386E-01 8.71890E-02 1.35210E-01 1.68195E-01 8.20625E-02 1.64172E-01
 -1      3330-4.13927E-01 1.14835E-02 5.15419E-02 1.15616E-01 1.37916E-02 9.15059E-02
 -1      3331-3.43584E-01 1.42214E-01 4.11783E-01 5.68306E-02 1.77152E-01 1.90753E-01
 -1      3332-4.39951E-01 4.43399E-03 3.53258E-02-2.39392E-03 8.09099E-04 5.50811E-02
 -1      3333-1.14832E-02 3.02388E-01 7.14444E-02-1.33511E-01-8.91985E-02 1.97353E-01
 -1      3334 3.55536E-02 1.84546E-01 6.03682E-02-1.98893E-02-1.05793E-01 1.15926E-01
 -1      3335-9.85541E-01-4.51043E-01-1.50244E+00 1.31684E-01-7.30335E-02-5.51065E-01
 -1      3336-2.04631E+00-6.26933E-01-1.00142E+00 1.93923E-01-1.45765E-02-2.83194E-01
 -1      3337-2.04165E+00-6.39332E-01-9.95924E-01-1.95076E-01 1.57270E-02-2.74103E-01
 -1      3338 3.43344E+00 2.50528E-02 2.18936E+00 3.26709E-02 1.60268E-03 4.11626E+00
 -1      3339-3.48893E-01-8.08677E-02-9.18629E-02-1.60559E-01-4.26033E-02-5.84530E-02
 -1      3340-2.53085E-01-1.78008E-01-5.40398E-02-1.45065E-01-6.18678E-02-2.72185E-02
 -1      3341-6.88373E+00-1.61681E+00-1.23042E+00-2.43111E-01-2.89677E-02-2.40969E+00
 -1      3342-1.02053E+00-3.28385E-01-4.63649E-01-3.93923E-01-2.71770E-01-5.38256E-01
 -1      3343-8.44098E-01-7.35355E-01-1.51096E+00-5.52285E-01-7.98709E-01-6.34658E-01
 -1      3344 4.10055E-01-3.46397E-01-7.98447E-01 2.71351E-02-8.62957E-03-3.28566E-01
 -1      3345-5.74525E-02 4.89292E-02-4.15868E-01-1.24247E-02 5.28074E-02-5.13015E-01
 -1      3346-2.23641E+00 4.55071E-01-1.03942E-01-4.27344E-02-4.98361E-03-5.50579E-01
 -1      3347 1.81640E-01 5.30216E-02 2.50573E+00-2.48892E-03-5.70145E-02 1.81626E+00
 -1      3348 6.71382E-01-1.94423E-01-9.81144E-01 1.54965E-01 6.77783E-02-5.02114E-01
 -1      3349 3.40766E-01-1.47413E-01-9.26899E-01 7.50834E-02 1.04739E-01-4.47447E-01
 -1      3350 2.06991E-01-3.04647E-03-6.27043E-01 9.51215E-03 1.18129E-01-9.18295E-01
 -1      3351-1.93964E+00-1.40548E-01 1.18091E+00 4.05191E-02-1.47050E-03 9.37712E-01
 -1      3352 1.30656E+00-4.07494E-03 1.63967E+00-9.83260E-03-5.59781E-03 1.66024E+00
 -1      3353 1.30871E+00 1.49142E-02 1.63622E+00 1.45678E-02 1.97458E-03 1.66081E+00
 -1      3354 1.64630E+00 3.77581E-03 1.59173E+00 1.15997E-02-2.30621E-03 1.87541E+00
 -1      3355-3.73447E-01 7.81318E-02 6.00526E-01-1.26040E-01-2.12610E-01 2.20295E-01
 -1      3356-2.50365E-01 3.61902E-01 7.81144E-01-4.05838E-01-4.00664E-01 4.61932E-01
 -1      3357-5.66601E-01 1.52943E-01 9.41558E-01-2.89949E-01-2.20402E-01 4.44195E-01
 -1      3358-3.96182E-01 4.65140E-02 2.32409E-01-3.25965E-02-8.49193E-02 7.71289E-02
 -1      3359-3.89511E-01 2.64866E-01 3.32197E-01-3.13102E-01-2.08242E-01 2.90313E-01
 -1      3360-2.27645E-01 1.84671E-01 2.60692E-01-7.48787E-02-1.36151E-01 2.10143E-01
 -1      3361 4.12302E-01 3.75338E-02 2.18027E+00-1.95311E-03-1.95448E-02 1.53816E+00
 -1      3362-4.96345E-02 1.58606E-01 5.15298E-01-5.62675E-02-1.73666E-01 1.64634E-01
 -1      3363-3.05129E-01-2.14219E-02 2.73553E-01 1.72504E-02-3.98684E-02-7.49389E-03
 -1      3364-1.24471E-01 1.00007E-01 2.15315E-01 5.77152E-03-6.61111E-02 2.79903E-02
 -1      3365-7.91063E-01-4.38382E-01-1.85895E+00-7.16497E-01 7.05152E-01-1.44568E+00
 -1      3366-2.63033E-01-3.64694E-01-1.72003E+00-2.39739E-01 6.20463E-01-1.49010E+00
 -1      3367-9.02527E-01-4.18589E-01-1.86350E+00 7.16675E-01-7.17055E-01-1.42573E+00
 -1      3368-3.56041E-01-2.99742E-01-1.64990E+00 2.20699E-01-5.85662E-01-1.50498E+00
 -1      3369-2.48696E+00 2.27367E-01 9.82466E-02 3.68563E-01-7.54849E-02-1.12087E+00
 -1      3370-1.95713E+00 4.57369E-01 2.24147E-01 2.41241E-01-1.07642E-01-1.01049E+00
 -1      3371 2.26635E-01-2.02231E-01-9.23360E-01 4.15926E-02 1.64241E-01-2.02121E-01
 -1      3372-2.81465E-02 1.79344E-02-5.68060E-01 1.18780E-02 2.37928E-01-4.43434E-01
 -1      3373-4.41387E-01 1.38677E-01 1.36656E+00-2.58956E-01-1.33901E-01 7.18121E-01
 -1      3374-1.68234E-01 2.07665E-01 1.74641E+00-3.08064E-01-1.69879E-01 9.49700E-01
 -1      3375-1.74591E-01 3.28192E-01 1.67415E+00 2.82236E-01 1.57577E-01 9.37820E-01
 -1      3376-2.10370E-02 4.07433E-02-2.01157E-02-6.39130E-03-7.95685E-03 1.63108E-02
 -1      3377-2.10204E-02 1.79621E-02-2.08462E-02-8.71701E-03 9.49980E-03 8.81174E-03
 -1      3378 9.46086E-03 6.71445E-02-5.45518E-03-1.98560E-02 4.84262E-02 1.81219E-02
 -1      3379-1.94285E-02 1.01327E-01-2.58516E-02 2.51124E-02 8.84869E-03 6.40393E-02
 -1      3380 6.40456E-03 8.95879E-02-6.28039E-03 1.72583E-02 4.27490E-02 5.38558E-02
 -1      3381-4.40054E-02 3.93343E-02-2.95693E-02 2.50160E-02-1.99047E-02 4.56665E-02
 -1      3382-2.59541E-01 7.59980E-02-3.39363E-01 3.04572E-02-6.37430E-02-5.80045E-01
 -1      3383-6.12764E-01 1.87609E-01-2.18517E-01 3.63160E-02-4.63363E-02-8.28036E-01
 -1      3384-6.84474E-01-5.11683E-01-2.22880E+00 5.03875E-02-6.70716E-02-4.07881E-01
 -1      3385-8.10564E-01-3.15525E-01-1.01944E+00 4.42771E-02-6.42928E-02-4.10378E-01
 -1      3386-1.11815E+00-4.87085E-01-1.36551E+00 1.38002E-01-4.38353E-02-7.76294E-01
 -1      3387-5.74839E-01-4.05330E-01-2.11260E+00-3.49767E-02-1.44298E-01-5.22283E-01
 -1      3388 1.11239E+00-1.62564E-02-8.37449E-01-1.83517E-01-8.56768E-02-1.06308E+00
 -1      3389 4.87760E-01 1.69404E-02-5.82781E-01-1.37761E-02-6.25092E-02-1.62396E+00
 -1      3390 2.01187E+00 4.01145E-02-8.27426E-01-3.75560E-02-1.68144E-01-1.49973E+00
 -1      3391 1.68325E+00-1.49280E-02-1.00236E+00-1.17179E-01-2.06644E-01-1.49780E+00
 -1      3392 3.20896E-01-8.38516E-02-7.28564E-01-2.28454E-02-1.88760E-01-2.27162E+00
 -1      3393-1.39321E-01-6.68083E-01-1.15628E+00 2.12154E-02 7.12399E-01-7.40592E-02
 -1      3394 2.19567E-02-4.80912E-01-5.13477E-01 3.06292E-02 5.45480E-01-2.34942E-02
 -1      3395-3.11707E-01-5.73094E-01-1.33261E+00 1.25289E-01 6.19291E-01-2.29707E-01
 -1      3396-5.11870E-02-8.19135E-01-1.23445E+00 1.07721E-01 8.13745E-01-1.90340E-01
 -1      3397 1.63404E-01 6.52349E-01 2.35936E+00 4.38150E-02 2.53483E-02 1.57504E+00
 -1      3398-4.17021E+00 1.49672E-01-5.86255E+00-3.71741E-01-3.12571E-01-2.79484E+00
 -1      3399-4.37395E+00-3.41810E-01-1.12911E+01-4.35661E-01-5.42696E-01-5.45428E+00
 -1      3400-2.49458E+00 2.57382E-01-2.32759E+00-1.07571E-01-7.06412E-01-2.97990E+00
 -1      3401-3.14583E+00-1.13427E-02-8.71662E+00 2.80683E-02-1.27779E+00-4.40479E+00
 -1      3402-3.18253E+00-2.89659E-01-3.97238E-01-1.23878E-01-4.81939E-01-1.19689E+00
 -1      3403 1.80439E-03 2.98506E-02 4.64888E-03 8.53864E-03-4.06377E-02-1.35715E-02
 -1      3404-3.51345E-03 2.27823E-02 5.11058E-03 8.13332E-03-2.21977E-02-1.50666E-02
 -1      3405-1.01983E-01-1.17869E-02-3.85204E-02 3.42688E-02 4.12500E-02-2.33460E-02
 -1      3406-2.35485E-02 2.29856E-01 1.96192E+00-3.14964E-01-1.93595E-01 1.07309E+00
 -1      3407 9.09518E-02 3.12669E-01 2.10743E+00-3.19887E-01-1.90351E-01 1.14212E+00
 -1      3408 5.69736E-02 3.46019E-01 1.99087E+00 3.14838E-01 1.86945E-01 1.08043E+00
 -1      3409-1.49865E-01-3.14710E-01-2.66802E-01-1.16879E-01-2.85088E-01-1.41336E-01
 -1      3410 6.78881E-01-3.10836E-01-7.48513E-01-8.44737E-02-3.23206E-02-6.41008E-01
 -1      3411 4.73744E-01-3.23290E-01-7.92661E-01-4.73221E-02-1.40803E-02-3.35983E-01
 -1      3412 1.34010E+00-8.01569E-02 2.48555E+00-1.81591E-02 2.81571E-02 3.90753E+00
 -1      3413-6.24391E+00-1.00027E+00 5.45203E-01-2.05814E-02 3.81996E-02-1.58973E+00
 -1      3414 3.81331E+00-9.94363E-03 1.45600E+00 1.50061E-02-1.24580E-02 2.69597E+00
 -1      3415 3.14846E+00 1.01871E-02 1.50921E+00-1.27408E-02 2.68150E-03 2.45222E+00
 -1      3416 3.14173E+00-2.33908E-03 1.50067E+00 6.92900E-03-1.41612E-03 2.45844E+00
 -1      3417 6.60535E+00 6.84200E-01-1.53386E+00-5.82594E-03 9.45564E-03-1.38170E+00
 -1      3418-4.42675E-02-1.16509E-02-9.04621E-03 6.16694E-03-1.89407E-02 6.94411E-03
 -1      3419-8.69405E-03 5.11749E-02-3.58190E-04-2.83945E-04 1.99849E-03 1.23300E-02
 -1      3420-5.17004E-02 2.56898E-02-2.60368E-02 4.22988E-02-2.08025E-02 4.71970E-02
 -1      3421-1.03146E+00 2.13477E-01 3.35665E-02-2.50327E-01 3.85037E-02-3.22459E-01
 -1      3422-6.22762E+00-1.24965E+00-9.01784E+00-4.46350E-01-2.39662E-01-4.30917E+00
 -1      3423-5.30489E+00-1.24108E-01-2.59251E+00-2.81898E-02-4.43610E-01-6.01799E-01
 -1      3424-5.84729E+00-5.05778E-01-8.88481E+00 2.46476E-01-2.47810E-01-4.78817E+00
 -1      3425-3.90440E+00-8.67279E-01-1.00186E+01 2.59651E-01-9.63328E-01-5.41095E+00
 -1      3426-3.84267E+00 4.53884E-01-2.01123E+00 4.90541E-01-8.65319E-01-1.90819E+00
 -1      3427-4.17389E+00-5.33596E-01-2.52734E+00 4.37004E-02-5.82628E-01-1.42528E+00
 -1      3428-4.15703E-01 1.04177E-02 9.44552E-01-4.03845E-03-1.98134E-02 3.51385E-01
 -1      3429-1.44183E-01 3.81561E-02 7.70952E-01 1.69128E-02-3.43652E-02 2.10210E-01
 -1      3430-2.02435E-01 1.09975E-01 1.00277E+00-1.22622E-01-2.10834E-01 4.33419E-01
 -1      3431 5.56793E+00 9.03038E-01-4.35721E-01-1.05669E+00-6.25824E-01 3.52609E+00
 -1      3432-3.46201E-01-7.52639E-01-4.32742E+00 1.09150E-01-9.06963E-02 1.18522E+00
 -1      3433 9.80899E+00 8.70786E-01-1.15846E+00-1.30378E+00-5.19870E-01 2.75578E+00
 -1      3434 5.87237E+00 9.66193E-01-1.58979E-01-2.08399E+00-7.53743E-02 3.48508E+00
 -1      3435 7.32620E-01-5.97812E-01-3.66802E+00-6.69046E-01 5.00412E-01 5.42766E-01
 -1      3436-2.79534E+00-5.21395E-01-3.50313E+00-4.39010E-01 2.90470E-01 1.18445E+00
 -1      3437 1.39545E-01 6.16755E-02 2.57412E+00-5.80799E-04-3.85040E-03 1.96140E+00
 -1      3438-4.02533E-01 2.53538E-01 1.42140E+00 2.14670E-01 1.05405E-01 7.22130E-01
 -1      3439-6.82765E-01-4.37308E-01-2.23714E+00-3.23893E-02 2.82410E-02-3.83757E-01
 -1      3440-4.81393E-01 3.16567E-01-2.13042E-01 3.46190E-02-3.29279E-03-3.40248E-01
 -1      3441-9.30409E-01 4.40840E-01-1.08512E-01 2.28359E-02-4.20167E-03-5.35803E-01
 -1      3442-5.99872E-01 4.38566E-01-8.88529E-02 9.23932E-02-5.57433E-02-3.18193E-01
 -1      3443 6.21280E+00-6.84257E-03 1.41739E+00-3.44126E-02 2.30240E-02 3.38551E+00
 -1      3444 6.25065E+00-5.73789E-03 1.43987E+00 3.92341E-02-1.38073E-02 3.40540E+00
 -1      3445 5.36990E+00 8.94202E-04 1.44624E+00 1.66688E-02 1.52860E-03 3.07044E+00
 -1      3446-1.46712E+00 4.24529E-01-1.29355E-01 1.71510E-02 1.04673E-02-6.10718E-01
 -1      3447-1.04421E+00 3.79929E-01-1.93182E-01 9.30469E-02-4.05610E-02-7.07573E-01
 -1      3448-1.05872E+00 5.15645E-01-9.98459E-02 1.41836E-01-4.62258E-02-3.69978E-01
 -1      3449-1.35377E-01 1.10915E-01 2.03881E-01 1.38693E-02 9.53744E-02 9.64528E-02
 -1      3450-1.85693E-01-2.83795E-03-5.79103E-02-5.23350E-02-4.51679E-02-3.07370E-02
 -1      3451-2.78294E-01 1.45785E-02 2.27596E-02-1.80827E-02 3.21061E-02-3.23238E-02
 -1      3452-8.07927E-02 2.97860E-01 2.77585E-01-1.72083E-01-1.89432E-01 2.94174E-01
 -1      3453-4.57646E-02 1.78295E-01 2.96793E-01-5.33543E-02-1.82764E-01 2.10144E-01
 -1      3454 3.81807E+00-9.89769E-03 1.48482E+00-2.28749E-02 6.76736E-03 2.72105E+00
 -1      3455-2.15252E-02-1.08337E-01-6.35826E-03 6.20710E-02 2.32336E-02-4.94037E-03
 -1      3456-4.09414E-03 1.05175E-02 2.93048E-04-1.15463E-02 1.18779E-02-1.74129E-02
 -1      3457-2.54196E-03 1.61018E-02-1.69206E-03-1.05309E-02 1.62970E-02-1.56595E-02
 -1      3458-7.32997E-03 1.60208E-02-9.13614E-05-2.07082E-02 8.78824E-03-2.99721E-03
 -1      3459-2.41701E-01 1.25344E-01 1.43511E-01-1.88132E-01-7.26831E-02 1.69984E-01
 -1      3460-4.82681E+00-2.28650E-01 2.41171E-01-1.15401E-01 3.78320E-01-1.36232E+00
 -1      3461-5.54482E+00 1.82114E-01-1.78414E-01-6.03932E-01 6.15031E-01 1.92563E+00
 -1      3462-6.66793E+00-9.20268E-01-9.69018E-01-6.81712E-02 3.07945E-01-2.74798E+00
 -1      3463 1.86977E+00-3.91134E-01-9.73585E-01-2.83983E-01-7.88366E-02-1.07926E+00
 -1      3464-9.51583E-03 1.29272E-02-5.36497E-03 2.07401E-02-4.35723E-03-4.82384E-03
 -1      3465-4.81673E-03 2.12464E-02-3.20515E-03 2.01620E-02-8.83495E-03-5.63087E-03
 -1      3466-1.19277E-02-1.56656E-03-2.02538E-03 2.00001E-02 4.18255E-03-7.47859E-03
 -1      3467-8.76040E-03 1.26624E-03-1.29351E-03 1.71853E-02 1.79182E-04-7.40076E-03
 -1      3468 8.34817E-01-3.22163E-03 1.72954E+00-7.27089E-03-4.67976E-03 1.44604E+00
 -1      3469 8.24356E-01-5.96605E-03 1.69557E+00 1.89643E-02 6.20763E-03 1.42990E+00
 -1      3470-9.20416E-01-2.09396E-01-4.43354E-01-1.25511E-01 8.17891E-02-1.67912E-01
 -1      3471-8.54467E-01-4.27219E-02 3.11615E-01-1.93684E-01-4.09868E-02 1.57284E-01
 -1      3472-6.77703E-01-1.57621E-01-2.98954E-01-1.84645E-02-1.36857E-02-1.10745E-01
 -1      3473-5.34432E-01-6.40804E-01-2.49230E+00 1.58287E-02-1.07043E-01-4.06922E-01
 -1      3474-7.34100E-01-5.06992E-01-1.44951E+00 2.16040E-03-2.53814E-02-3.59511E-01
 -1      3475-7.33402E-01-4.87229E-01-1.47073E+00-2.21126E-02-1.26056E-01-4.44421E-01
 -1      3476-9.31962E-02-7.10158E-01-4.02198E+00-1.28122E-02 5.96685E-01-5.39120E-01
 -1      3477-2.46639E-01-6.97689E-01-4.84223E+00-2.32299E-01 1.14012E+00-1.11588E+00
 -1      3478-8.85270E-02-6.39543E-01-4.30011E+00-4.44733E-02 5.26981E-01-3.21053E-01
 -1      3479-7.07332E-01-1.13853E-01-4.62135E-01-1.70800E-01 5.04017E-02-1.80305E-01
 -1      3480-6.75590E-01-1.58400E-01-4.08231E-01-1.26056E-01 1.00288E-01-2.22140E-01
 -1      3481-5.34543E+00 3.24617E-01-3.15288E-01-6.16093E-01 3.59952E-01 1.09470E+00
 -1      3482-5.31572E-03-5.40986E-04 9.29041E-04 1.05373E-02-4.91376E-04-1.44115E-02
 -1      3483-4.83814E-03 1.46894E-02 3.13777E-04 1.08055E-02-1.06019E-02-1.80968E-02
 -1      3484-1.12991E-02-3.03727E-03-3.55704E-03 7.51861E-03 3.52375E-03-2.23207E-02
 -1      3485-1.23800E+00-3.18663E-01-1.29187E+00-2.36851E-01-2.21471E-01-9.04750E-01
 -1      3486-7.47743E-01-2.20054E-01-4.45727E-01 3.30310E-01 2.03897E-01-4.04386E-01
 -1      3487-8.98518E-01-8.21068E-01-1.45486E+00 5.75114E-01 7.96557E-01-6.25652E-01
 -1      3488-7.94113E-01 2.92405E-01-2.18100E-01 1.15361E-01-5.85660E-02-6.92270E-01
 -1      3489-8.27117E-01 3.72278E-01-1.01552E-01 1.64836E-01-5.58111E-02-3.22128E-01
 -1      3490 1.64269E+00-2.82314E-01-1.17089E+00-5.06472E-01-1.98273E-02-3.34759E-01
 -1      3491 1.33587E+00-9.19651E-02-8.92624E-01-2.30604E-01-3.11882E-02-9.74359E-01
 -1      3492 1.01941E+00-2.12766E-01-8.11358E-01-2.66594E-01-1.75054E-02-6.67583E-01
 -1      3493-5.41036E-01-2.91588E-01-8.29878E-01 8.43981E-03 3.80322E-02-3.17419E-01
 -1      3494-2.12272E-01-7.22298E-01-4.88037E+00 2.33198E-01-1.16141E+00-1.15507E+00
 -1      3495-1.24006E-01-6.73788E-01-4.23846E+00 4.07042E-02-5.29406E-01-3.19538E-01
 -1      3496 1.08558E-01 2.72477E-01 2.15199E+00 3.45042E-01 2.03087E-01 1.17127E+00
 -1      3497-1.67470E+00-1.38981E+00-2.75516E+00-2.44036E-01-5.58101E-01-1.73388E+00
 -1      3498-6.41432E-01-9.40444E-01-4.11509E+00 3.59239E-02-1.19216E+00-2.47478E+00
 -1      3499-5.85805E-01-1.00500E+00-3.16339E+00-3.36659E-01-6.00301E-01-1.31040E+00
 -1      3500-4.14698E-01-2.71865E-01-5.70750E-01 1.38207E-01 2.94729E-01-2.84551E-01
 -1      3501-5.80237E-01-3.73263E-01-1.16956E+00 1.06550E-01 3.28214E-01-4.75196E-01
 -1      3502-3.13186E-01-4.38257E-01-1.25760E+00 1.72171E-01 5.17180E-01-3.56625E-01
 -1      3503-5.89553E-01-3.73482E-01-1.47536E+00 2.32477E-01 4.14517E-01-5.23339E-01
 -1      3504-1.03031E-01-7.09548E-01-3.90821E+00-9.57905E-03-5.73990E-01-5.41604E-01
 -1      3505 4.61095E+00 4.23643E-01-2.76819E+00 4.19390E-01-8.99914E-01-1.40272E+00
 -1      3506-8.57397E+00-1.08839E+00-2.97961E+00 2.01217E-02-8.64528E-01-3.11609E+00
 -1      3507-5.33038E+00-3.12475E-01-2.80520E+00-4.61151E-01-7.98296E-01-2.85132E+00
 -1      3508 2.71527E+00 5.10304E-02-2.22358E+00 1.57607E-01-5.32638E-01-2.76114E+00
 -1      3509-8.07184E+00-2.31095E-01-1.00851E+00-4.93462E-01-7.23146E-01-3.34360E+00
 -1      3510 8.87990E-01-1.20010E-02-1.90739E+00 4.22594E-01-9.97916E-01-3.24184E+00
 -1      3511 2.71469E+00-3.28935E-01-1.11702E+00-4.10880E-01-7.31110E-02-1.10443E+00
 -1      3512 2.04278E+00-4.75341E-01-1.24356E+00-3.72961E-01-1.19269E-01-9.65845E-01
 -1      3513 5.68837E+00-2.85254E-01-7.99615E-01 7.98666E-01 8.49626E-01 2.01849E+00
 -1      3514 4.80608E+00 2.52608E-01-1.14029E+00 3.22667E-01 4.00920E-01-1.32874E+00
 -1      3515 6.77858E+00 5.84286E-01-2.85284E-01 5.45945E-01 3.31195E-01-2.42836E+00
 -1      3516 5.33105E+00 5.78994E-03 1.42670E+00-2.77852E-02 5.03297E-03 3.09466E+00
 -1      3517-6.49966E-01 1.46022E-01 9.14528E-01 1.59064E-01 5.94662E-02 4.90698E-01
 -1      3518-8.45031E-01 1.37677E-04 3.47717E-01 8.69967E-02 1.05043E-02 1.84352E-01
 -1      3519 7.77546E-01-3.01286E-01-7.82443E-01 1.34111E-01 4.02857E-02-5.74029E-01
 -1      3520-1.87303E-02-2.17266E-02-5.32703E-01 9.17307E-03-6.15198E-02-1.20703E+00
 -1      3521-2.14379E-01 8.34957E-02-3.23202E-01 4.08120E-02-9.18185E-02-9.86535E-01
 -1      3522-2.36636E+00 3.81167E-01-1.03443E-01-1.72875E-01 6.65633E-03-5.74161E-01
 -1      3523-7.83135E-01-1.72754E-01-5.01654E-01 1.49104E-01-6.79261E-02-1.95980E-01
 -1      3524-7.27585E-01-1.49814E-01-3.71043E-01 1.15801E-01-9.37756E-02-2.54688E-01
 -1      3525-3.92621E-02-5.15652E-01-4.65703E-01 2.75311E-01 3.72644E-01-1.64445E-01
 -1      3526-1.27116E+01-9.66627E-01-3.65690E+00-4.43151E-01-6.81681E-01-3.62155E+00
 -1      3527-9.62462E-01 7.90623E-02-3.61223E+00 2.93367E-01-9.64836E-01-2.13778E+00
 -1      3528-2.93887E-03 2.82211E-02-2.80312E-03 2.39566E-02-6.21456E-03-5.00129E-03
 -1      3529-2.76534E+00 1.32807E-01-1.57143E+00-8.06365E-01 8.28317E-01-9.36376E-01
 -1      3530-2.30485E+00 3.73951E-01-4.92789E+00-4.12030E-02 4.84928E-02-2.27105E+00
 -1      3531-2.99485E+00 3.00224E-01-1.83531E+00-5.62640E-02-2.98743E-02-1.00416E+00
 -1      3532-3.26867E+00-5.60716E-01 5.05517E-01-3.98371E-01 1.91418E-01 5.79311E-01
 -1      3533-2.40816E+00 1.42092E-02-1.98433E+00 2.56531E-01-3.29086E-01-8.31181E-01
 -1      3534-2.34181E+00-2.08573E-02-1.92893E+00-2.75159E-01 3.63314E-01-8.68150E-01
 -1      3535-1.03355E+00-5.29574E-01-1.70420E+00 7.53225E-03-3.10558E-04-5.16124E-01
 -1      3536 6.04469E-01-3.86571E-01-8.69934E-01-1.09598E-01-6.82197E-02-3.01782E-01
 -1      3537 1.71021E-01-6.26508E-02-6.16949E-01-3.60153E-02-6.68876E-02-5.26274E-01
 -1      3538 2.57706E-01-7.67610E-02-6.23601E-01-3.09134E-02-8.89394E-02-8.80127E-01
 -1      3539 3.48855E-04 3.83207E-03 2.13574E-02 2.15875E-03-1.72353E-02-3.78500E-02
 -1      3540-3.42373E-01 5.67978E-02 1.67165E-01 2.00274E-01 7.27320E-02 1.89440E-01
 -1      3541-5.38283E-01 4.91771E-04 5.20772E-02 1.44639E-01 1.51997E-02 8.42772E-02
 -1      3542 3.57742E-01 3.61656E-01 2.69890E+00 1.53739E-01 2.21527E-01 1.88448E+00
 -1      3543-1.60655E-01 6.40841E-02 4.40877E-02-2.11279E-01-6.93930E-03 1.33237E-01
 -1      3544-1.13612E-01 3.35540E-02-1.03694E-03-1.82135E-01 3.17916E-02 1.05023E-01
 -1      3545-6.12339E-01-7.70571E-02-3.39164E-01 3.42049E-02 4.57983E-02-2.17849E-01
 -1      3546-5.30704E-01-1.08398E-01-8.86746E-02 1.13335E-01 7.43159E-02-8.79472E-02
 -1      3547 2.67473E+00-1.29896E-03 1.54168E+00 9.73467E-03-5.01554E-03 2.31093E+00
 -1      3548 2.66410E+00 1.53683E-02 1.53257E+00-1.33294E-02 4.32196E-03 2.30343E+00
 -1      3549 2.17992E+00 3.65445E-03 1.56149E+00 4.67594E-03-1.76610E-03 2.06488E+00
 -1      3550 5.64031E-01 3.67562E-02 1.88164E+00-1.87190E-02-1.78205E-02 1.29156E+00
 -1      3551 2.99120E-01 1.70046E-01 1.59915E+00-2.67174E-04 9.35655E-02 6.53552E-01
 -1      3552 1.73293E-01 4.10912E-03 2.19488E+00 3.49876E-03 1.34527E-03 8.60705E-01
 -1      3553 4.16566E-01 1.72951E-01 1.96803E+00 1.36406E-03 1.28396E-01 6.87220E-01
 -1      3554 3.20264E-01 3.77862E-01 1.11370E+00 1.05357E-01 3.20244E-01 4.98902E-01
 -1      3555 1.17017E-01 1.23224E-01 1.55010E+00 1.89041E-01 3.39430E-01 5.89241E-01
 -1      3556 2.58844E-02 1.44402E-01 1.24259E+00 1.95587E-01 2.85380E-01 5.84850E-01
 -1      3557-1.25251E-02-2.80869E-03-4.96905E-03 1.78380E-02 4.07803E-03-1.70558E-02
 -1      3558-2.65860E-02-1.68784E-02-5.70075E-03 3.08970E-02 1.57881E-02-6.55246E-03
 -1      3559-4.08221E-01-1.85717E-02-3.20536E-03 8.00660E-02-2.20394E-02 4.01468E-02
 -1      3560-5.23233E-01-5.23786E-02 4.60097E-02 1.05686E-01 5.35400E-03 1.00994E-01
 -1      3561 1.97223E-02-2.58484E-01 1.74601E-02 1.15225E-02 1.01763E-01-1.27431E-02
 -1      3562 5.36928E-01-6.36732E-02-7.56281E-01-1.01878E-01-3.43405E-02-9.66241E-01
 -1      3563 1.01332E+00-2.68825E-01-1.04619E+00-2.75296E-01-1.41134E-02-3.31152E-01
 -1      3564-7.68693E+00-1.51687E+00-2.35010E+00-2.19889E-01 9.82497E-01-1.95517E+00
 -1      3565-3.99666E-03 2.97767E-03 1.55925E-04-8.91803E-03 4.18697E-03-1.36874E-02
 -1      3566-5.40403E-03 2.84685E-03 7.53867E-05-3.96341E-03 4.40536E-03-1.17871E-02
 -1      3567-4.62730E-04 2.18541E-02 1.09004E-03-1.78685E-02 1.07086E-02-3.30291E-03
 -1      3568-4.96839E-04 2.85040E-02 2.43521E-03-1.60288E-02 1.36463E-02-4.99156E-03
 -1      3569-4.45708E-03 1.86130E-02 5.31144E-03-1.02727E-02 2.13515E-02-1.49932E-02
 -1      3570-1.28345E+00-3.59297E-01-1.17495E+00 2.45575E-01 1.98514E-01-8.73626E-01
 -1      3571-4.00320E-02 8.04640E-02 1.04098E+00 1.16876E-02-3.17581E-02 3.52322E-01
 -1      3572 7.75767E-02 2.29738E-01 7.97050E-01-5.77510E-02-2.02856E-01 2.98253E-01
 -1      3573 5.50912E+00-5.65002E-02 1.83041E+00-7.04852E-03 1.18693E-02 4.36209E+00
 -1      3574 7.26328E+00-1.02297E-02 1.38678E+00 3.22430E-02-7.50710E-03 3.59036E+00
 -1      3575 7.28485E+00 2.25669E-02 1.40450E+00-4.42547E-02 8.96573E-03 3.59048E+00
 -1      3576 8.20361E+00-4.77407E-02 1.33961E+00-4.43573E-02 2.42855E-02 3.97755E+00
 -1      3577 1.44448E+00-1.93277E-01-9.57056E-01-3.24078E-01-8.01272E-02-1.02643E+00
 -1      3578 1.66209E+00-3.61145E-04 1.60036E+00-1.07495E-02-1.11504E-03 1.88645E+00
 -1      3579-1.60700E+00 1.84020E-01-4.45189E+00-3.28984E-01 3.64858E-01-1.74820E+00
 -1      3580-1.67450E+00 1.70406E-01-4.52589E+00 3.31182E-01-3.52839E-01-1.76461E+00
 -1      3581-1.71701E+00-2.22965E-01-1.51976E+00-2.93010E-03 6.54642E-03-5.02335E-01
 -1      3582-5.07721E-01-2.42619E-01-6.81972E-01-4.78279E-04-2.47353E-02-3.01229E-01
 -1      3583-5.17882E-01-2.40824E-01-7.51220E-01-3.05497E-02-8.77892E-02-3.71893E-01
 -1      3584-4.70462E-01-2.12958E-01-7.45906E-01 8.30697E-02 2.06274E-01-3.91946E-01
 -1      3585-3.38217E-01-1.51474E-01-3.26209E-01 1.24053E-01 1.67922E-01-2.37708E-01
 -1      3586 1.91043E+00-2.41538E-02 2.45962E+00 3.04433E-03 5.99835E-03 4.22595E+00
 -1      3587-1.02444E-02 5.67120E-05 1.01448E-03-1.37551E-02 1.31973E-04-1.29472E-02
 -1      3588-3.30019E-03 1.61808E-02 1.66424E-03-1.15149E-02 1.38746E-02-1.42391E-02
 -1      3589 4.93778E-01-1.17783E-01-8.45636E-01-6.85155E-02-8.01714E-02-6.30016E-01
 -1      3590 8.18554E-01-3.28346E-01-9.48612E-01-2.31850E-01-5.69661E-02-3.66612E-01
 -1      3591-8.46011E-02 1.26353E-01 3.51905E-01-4.52502E-02-1.79571E-01 1.85666E-01
 -1      3592-9.89806E-02 1.23889E-01 1.72717E-01 4.01932E-03-7.86809E-02 8.51430E-02
 -1      3593-4.25281E-01-1.22556E-01-1.52279E-01-4.25213E-03 7.47033E-03-1.50234E-01
 -1      3594-6.56842E-01-1.52524E-01-3.72934E-01 2.90071E-02 4.51658E-03-1.65404E-01
 -1      3595-7.26937E-01-1.47025E-01-3.49298E-01-3.45110E-02-5.10247E-02-2.04613E-01
 -1      3596-2.84318E-02 6.88238E-02-3.49909E-01 6.05447E-03-1.54885E-01-3.64349E-01
 -1      3597-1.61962E-01 2.46393E-01-1.94265E-01 3.13927E-02-3.71748E-02-2.63510E-01
 -1      3598-8.82128E-02 2.22555E-01-6.79551E-02 4.10186E-02-1.64731E-01-1.16908E-01
 -1      3599-1.78352E-01 1.22864E-01-1.93893E-01 3.32626E-02-2.08155E-01-4.49446E-01
 -1      3600-3.11942E-01 3.22738E-01-7.09406E-02 7.39400E-02-7.03512E-02-2.49176E-01
 -1      3601-6.12947E-02-8.54670E-02 1.59997E-03 8.15441E-02 2.35970E-02-1.00395E-03
 -1      3602-2.67314E-02-9.28102E-02 9.15305E-03 6.59605E-02 2.55419E-02-5.01249E-04
 -1      3603-2.46670E-02-6.95505E-02 6.28537E-03 5.39958E-02 3.65102E-02-6.44961E-03
 -1      3604-2.07072E+00 1.88503E-01 3.22098E-01-6.44893E-01 1.46907E-02-1.41198E-01
 -1      3605-1.88679E+00 8.65509E-02-4.96580E-02-3.64311E-01 1.06758E-01-9.85511E-01
 -1      3606-2.57970E-01-5.16854E-02-1.63207E-01-6.97614E-02-8.96442E-02-1.22668E-01
 -1      3607-3.53324E-01-3.28556E-02-8.40437E-02-1.08041E-01-9.35144E-02-5.09715E-02
 -1      3608-4.10686E-01-1.45669E-01-3.38827E-01-1.15760E-01-1.18375E-01-2.35684E-01
 -1      3609-3.79504E-01-6.47333E-02-1.44902E-01-2.51263E-02-2.86789E-02-1.33165E-01
 -1      3610-5.31835E-01-6.83072E-02-1.07333E-01-4.78053E-02-3.13761E-02-3.88669E-02
 -1      3611 5.41046E+00-4.67091E-01-7.55775E-01 7.98637E-01 4.25184E-01 1.05061E+00
 -1      3612 9.68109E+00 9.27934E-01-1.03749E+00 1.46875E+00 5.08516E-01 2.77408E+00
 -1      3613-1.20566E+00-5.97613E-01-3.12964E+00 5.29178E-01-6.33285E-02 9.16973E-01
 -1      3614 3.97549E+00 8.59499E-01 1.08392E+00 1.75890E+00 9.26264E-01 3.71080E+00
 -1      3615 5.78898E+00 1.00266E+00-1.36215E-01 2.25901E+00 1.18825E-01 3.59334E+00
 -1      3616-3.44370E+00-5.35226E-01-3.06045E+00 3.40564E-01-7.18863E-01 1.15214E+00
 -1      3617 6.15723E-01-5.61752E-01-3.68896E+00 7.47976E-01-6.48239E-01 7.37425E-01
 -1      3618-3.33391E-01-5.83917E-02 7.39115E-02 1.04338E-03-3.69240E-02-4.78003E-02
 -1      3619-2.21710E-01-4.50023E-02 2.51192E+00-1.67529E-02 2.23947E-02 3.26069E+00
 -1      3620 1.35378E+01 1.07073E+00-1.27709E+00 7.20237E-01-8.41030E-02 4.58900E-01
 -1      3621 1.44752E+01 9.67910E-01-1.36427E+00 4.45901E-01 1.32194E-02 1.02033E+00
 -1      3622-9.50276E-03-1.49682E-03-2.37268E-03 1.21147E-02 1.57901E-03-1.47498E-02
 -1      3623-1.45342E-02-4.45923E-03-1.26601E-02 7.00492E-03 1.77843E-02-2.06033E-02
 -1      3624-1.89743E-02-1.40418E-03-1.74206E-02 7.64138E-03 1.26192E-02-1.24633E-02
 -1      3625-2.38844E-02-2.01696E-02-1.58766E-02 1.26977E-02 3.14244E-02-2.24637E-02
 -1      3626-1.93940E-02-7.91023E-03-6.45411E-03 1.78192E-02 2.04749E-02-1.45997E-02
 -1      3627 1.18463E-02-4.80056E-01-3.00565E-03 5.56738E-02 1.18603E-01-3.35786E-03
 -1      3628-2.48919E-01 6.22112E-03-6.55318E+00-2.90495E-01 1.42486E+00-1.34114E+00
 -1      3629-5.83097E-01 8.95493E-02-6.69892E+00-1.90125E-01 6.75664E-01-1.02389E+00
 -1      3630-5.73519E-01 4.25369E-01-6.87420E+00-3.36658E-01 1.04918E+00-1.29661E+00
 -1      3631-9.70474E-01 7.19283E-02-4.27888E+00-7.29248E-01 1.03577E+00-2.26537E+00
 -1      3632 2.17546E+00 7.73941E-03 1.55276E+00-1.33807E-02-2.38916E-03 2.07548E+00
 -1      3633 3.14743E-05 3.88229E-02 3.56090E-04-2.07400E-02 1.33013E-02-2.74446E-03
 -1      3634-2.81939E-01-5.68608E-02-7.01874E+00 3.33897E-01-1.40180E+00-1.38189E+00
 -1      3635-5.45086E-01 1.18411E-01-6.69116E+00 1.81020E-01-6.19693E-01-9.92944E-01
 -1      3636-6.21676E-01 4.93089E-01-6.89887E+00 3.78819E-01-1.01087E+00-1.31714E+00
 -1      3637-1.12808E+00 1.00152E-03-4.30849E+00 6.63798E-01-1.06500E+00-2.24633E+00
 -1      3638 5.31911E+00 8.18852E-01-4.97438E-01 1.04869E+00 6.97022E-01 3.49890E+00
 -1      3639-3.08865E+00 1.51722E-01-9.00222E-01 2.47350E-01 4.00611E-01 1.90909E+00
 -1      3640 2.25086E-03 3.02051E-02 1.99003E-03 1.46480E-02-1.14755E-02-5.15501E-03
 -1      3641 2.43098E-03 3.90992E-02-2.70959E-03 2.00160E-02-1.03369E-02-4.89144E-03
 -1      3642-1.09470E-02 9.82022E-03-1.61991E-02-7.39692E-03-8.17340E-03-1.32334E-03
 -1      3643-6.56723E-03 5.60731E-02-1.26283E-02 1.36427E-02 1.57844E-02 3.97060E-02
 -1      3644-1.65803E-02 3.29068E-03-4.21420E-03 2.10697E-02 3.11926E-03-6.89830E-03
 -1      3645-1.87928E-02-4.60259E-02-1.39669E-02 3.03132E-02 4.87839E-02-2.81249E-02
 -1      3646-3.27926E-02-7.89249E-02-1.48093E-02 3.48842E-02 9.45809E-02-3.77154E-02
 -1      3647-4.86332E-01-5.93795E-01-2.46616E+00 2.65911E-02 2.19923E-01-4.34310E-01
 -1      3648-4.62191E-01-5.61311E-01-2.28705E+00 4.33720E-02 3.20314E-01-4.71691E-01
 -1      3649-6.92995E-01-4.66398E-01-1.41243E+00 6.86577E-02 2.19065E-01-5.15673E-01
 -1      3650-5.89022E-01-4.15993E-01-2.03986E+00 7.02849E-02 2.34932E-01-6.31925E-01
 -1      3651 1.60612E-01 2.68270E-02 2.39153E+00-3.61185E-02-3.18540E-02 1.56481E+00
 -1      3652 1.92802E-01 1.41622E-02 2.31195E+00-6.72063E-03-3.43597E-02 1.39271E+00
 -1      3653-1.84105E+00-1.84292E-01-2.08171E+00-3.24209E-01 1.80554E-01-8.10469E-01
 -1      3654-2.03774E+00-1.65466E-02-2.39366E+00-7.98326E-01 4.87067E-01-1.32366E+00
 -1      3655-1.81838E+00-1.54937E-01-2.02543E+00 3.24130E-01-1.72135E-01-7.97057E-01
 -1      3656-2.13937E+00-3.26901E-02-2.36957E+00 7.82106E-01-5.21027E-01-1.31434E+00
 -1      3657-3.58209E-01-9.25297E-02-3.73513E-02 1.07289E-01 5.99226E-02-2.01932E-02
 -1      3658-3.45322E-01-4.82171E-03 8.18343E-03-2.88692E-02 5.29683E-03 5.63605E-02
 -1      3659-5.66882E-03 1.87932E-03 8.94418E-04-9.91488E-03 9.39682E-04-1.42250E-02
 -1      3660-3.80147E-04 2.78566E-02 1.76095E-03-8.15373E-03 1.62198E-02-2.14962E-03
 -1      3661-7.16769E-04 1.68925E-02 1.96651E-03-5.86335E-03 1.41432E-02-3.41016E-03
 -1      3662-1.06146E-03 3.56453E-02 2.61017E-03-1.13005E-02 3.30210E-02-7.45009E-03
 -1      3663-1.87036E-02-6.08737E-02 1.17483E-03-4.71141E-02-3.27715E-02-8.25833E-03
 -1      3664-1.43988E-02-4.50057E-02-1.87550E-02-2.61603E-02-5.07425E-02-2.79696E-02
 -1      3665-6.80468E-03-4.14631E-03-1.02056E-02-2.14928E-02-7.70656E-03-1.61300E-02
 -1      3666-3.22807E-02-4.94411E-02-4.65727E-05-5.11829E-02-2.93881E-02-8.12495E-03
 -1      3667-2.76213E-02-3.75574E-02-1.94702E-02-2.78332E-02-4.43705E-02-2.58327E-02
 -1      3668-4.35521E-02-1.17177E-01 5.23941E-03-6.38834E-02-7.12157E-02-2.09388E-02
 -1      3669-6.62409E-01-4.08685E-01-1.49162E+00-1.00901E-01-2.68105E-01-5.06512E-01
 -1      3670-4.35033E-01-6.00882E-01-1.68429E+00-1.77714E-01-5.73085E-01-3.84936E-01
 -1      3671 1.91641E-02 3.34260E-01 7.45520E-02-1.68635E-02-1.11849E-01 7.13812E-02
 -1      3672-1.94998E+00-3.62513E-02 1.04811E-01 9.02497E-02-6.56972E-01-2.25555E+00
 -1      3673-3.96813E-01 3.23660E-01-8.73475E-02 1.28758E-01-6.11990E-02-2.83691E-01
 -1      3674-2.55921E-02-2.43059E-02-1.48425E-02-1.59076E-02-4.29026E-02-2.75137E-02
 -1      3675-2.86680E-02-2.49742E-02-1.65819E-02-1.82401E-02-5.08888E-02-2.95092E-02
 -1      3676-3.02520E-02-1.45493E-02-1.75927E-02-1.10650E-02-3.08593E-02-1.67400E-02
 -1      3677-3.81326E-02-1.38076E-02-2.55049E-02-1.28763E-02-3.75923E-02-1.70364E-02
 -1      3678-1.71031E+00-1.39624E+00-2.72519E+00 2.58902E-01 5.54857E-01-1.73637E+00
 -1      3679-6.10904E-01-9.34241E-01-4.11272E+00-2.20183E-02 1.20407E+00-2.45118E+00
 -1      3680-5.62888E-01-1.03529E+00-3.17686E+00 3.26727E-01 5.95282E-01-1.31168E+00
 -1      3681-6.38258E-03-1.35200E-03-2.60025E-03 1.04822E-03-1.11856E-03-3.26281E-02
 -1      3682 5.88137E-03 3.86262E-02 8.49511E-03 8.75929E-03-4.53880E-02-9.44932E-03
 -1      3683-3.49753E-01 6.28242E-02-2.41714E-01-4.32673E-02 1.03453E-01-8.06324E-01
 -1      3684-1.51940E-01 2.42126E-02-3.31391E-01-4.59183E-03 1.38418E-01-8.54389E-01
 -1      3685 1.91214E-01 2.63594E-01 2.42758E+00 3.41582E-01 1.99774E-01 1.08862E+00
 -1      3686 3.66646E-02 6.30447E-01 1.09336E+00 7.40900E-01 6.55899E-01 6.77697E-01
 -1      3687 4.13574E+00 9.92913E-01 1.22641E+00-1.79392E+00-1.01038E+00 3.69768E+00
 -1      3688-3.02755E+00 2.24972E-01-7.74907E-01-2.75122E-01-4.47996E-01 1.94588E+00
 -1      3689-3.33402E+00-7.87659E-01-2.98983E+00-3.33343E-01 6.57770E-01 1.20051E+00
 -1      3690-1.10447E-01 1.04340E-01 1.77368E-02 1.56948E-02 3.15710E-02 4.45385E-02
 -1      3691-1.87021E-01 9.52202E-02 1.23196E-02 2.98603E-02-1.89282E-02 9.21701E-02
 -1      3692-1.69855E-01 2.29155E-01 2.65960E-01 1.11803E-01 1.51952E-01 2.54139E-01
 -1      3693 8.90114E+00 7.22441E-01-8.55851E-01-1.49899E+00 4.35830E-01 1.65332E+00
 -1      3694 7.47700E-01-3.10853E-01-4.03532E+00-8.82613E-01 1.33819E+00-3.74218E-01
 -1      3695-2.81853E-02-8.56437E-02-1.58877E-02-3.15514E-02-9.36050E-02-3.54720E-02
 -1      3696-1.60092E-02-1.47969E-02-3.87997E-02-3.66971E-03-4.95247E-02-4.11118E-02
 -1      3697-4.02032E-02-6.19712E-02-1.65260E-02-3.32585E-02-7.97753E-02-3.42115E-02
 -1      3698-7.20110E-01-4.32809E-01-2.52336E+00 3.40437E-02 3.01119E-02-5.06796E-01
 -1      3699-9.81226E+00-1.42837E+00-5.36880E+00 1.22262E-01 2.47323E-01-4.18009E+00
 -1      3700-7.47582E+00-1.95808E+00-6.18379E+00-7.92266E-02 2.50202E-01-3.76000E+00
 -1      3701-9.93062E+00-1.84089E+00-6.60303E+00-2.26137E-01 1.01601E+00-4.84571E+00
 -1      3702-1.79593E+00 3.34186E-01-9.17955E-02-2.28622E-01 5.73829E-02-1.00562E+00
 -1      3703-1.31914E+00 2.89517E-01-2.30374E-01-1.37430E-01 5.95485E-02-6.01595E-01
 -1      3704-1.69785E+00 3.99456E-01-1.06414E-01-1.39153E-01-1.14716E-02-6.24285E-01
 -1      3705 7.71696E-01-2.44241E-01-1.01869E+00-2.01226E-01-6.38526E-02-2.95763E-01
 -1      3706 3.05450E-01-1.07305E-01-8.36164E-01-4.21539E-02-1.33034E-01-5.48066E-01
 -1      3707-9.56264E+00-4.31265E-01-1.16014E+00-5.61419E-01-4.56087E-01-3.73310E+00
 -1      3708-6.26974E-01-1.41056E-02-9.23051E-01 5.07248E-03-2.94832E-01-4.32580E+00
 -1      3709-3.04773E+00 1.92992E-01 1.63721E+00-4.60424E-01-2.51150E-01 1.30678E+00
 -1      3710-5.36594E+00-1.81316E-01-8.14633E+00-4.79117E-01-4.80198E-01-3.49374E+00
 -1      3711-9.17291E-02-4.44078E-02-6.82929E-03 4.65392E-02 2.39715E-02-9.19318E-04
 -1      3712-3.91024E-01 1.44225E-01-8.18560E-02-4.95088E-02 1.32321E-01-3.99157E-01
 -1      3713-4.97963E-01 1.91733E-01 6.48098E-03-5.97469E-02 6.15298E-02-2.76990E-01
 -1      3714-4.71828E-01 2.05919E-01-1.74986E-01-1.18294E-01 7.29103E-02-5.79378E-01
 -1      3715-5.27193E-02 2.65334E-01-1.60846E-02 4.67571E-02-1.14814E-01-1.59960E-02
 -1      3716-3.74488E-02 1.08542E-01-2.81814E-01 1.50185E-02-9.36994E-02-2.74425E-01
 -1      3717 2.51175E+00-6.45878E-01-1.52075E+00-2.59763E-01 1.73595E-02-1.02184E+00
 -1      3718-6.18986E-04 8.18832E-03 1.92712E-02-2.14967E-03 2.26898E-02-2.78214E-02
 -1      3719-3.94113E-03 2.67117E-03 1.40087E-02-1.80109E-03 2.53889E-02-2.64427E-02
 -1      3720 1.93927E-04 2.68901E-02 4.11825E-03-1.04599E-02 3.92311E-02-1.40636E-02
 -1      3721 4.02505E-04 2.30288E-02 4.87945E-04-1.02081E-02 3.01552E-02-1.46536E-02
 -1      3722-3.29070E-01-1.46276E+00-4.49360E+00-1.05420E-01-1.01175E+00-1.09188E+00
 -1      3723-2.05621E-02-1.82470E-02-2.05661E-02-1.65111E-02-3.29128E-02-2.66664E-02
 -1      3724-2.60577E-02-2.88745E-02-4.77995E-03-3.66933E-02-2.24082E-02-8.10195E-03
 -1      3725-3.96752E-02-5.50816E-02 2.91254E-03-4.13835E-02-5.37927E-02-1.85766E-02
 -1      3726-6.50343E-01-1.42512E-01-3.48691E-01 1.71331E-01 8.22452E-02-3.46996E-01
 -1      3727-5.43767E-01-7.09477E-02-7.27658E-02 1.59275E-02-5.86178E-02-3.06104E-02
 -1      3728 3.52412E-01 4.49413E-01 1.18710E+00 7.69521E-02 3.56671E-01 4.69888E-01
 -1      3729 1.55496E-01 1.86185E-01 1.68697E+00 1.83973E-01 3.56100E-01 6.16185E-01
 -1      3730 5.08358E-02 3.74947E-01 5.10475E-01 2.09945E-01 3.99089E-01 3.55828E-01
 -1      3731-1.47766E+00-5.88694E-01-1.40956E+00-6.94203E-02-2.12079E-02-1.06677E+00
 -1      3732-6.72854E-02-1.75033E-01-9.48037E-02-5.62307E-02-1.95888E-01-7.21760E-02
 -1      3733-2.73469E-02-2.40030E-01-2.17128E-03-9.58531E-02-1.02551E-01-2.72916E-02
 -1      3734-8.51484E-02-2.68967E-01-1.79635E-01-1.00144E-01-2.73617E-01-1.02221E-01
 -1      3735-1.50074E-01-2.09358E-01-1.62654E-01-1.03232E-01-2.29165E-01-1.08265E-01
 -1      3736-1.06565E-01-1.71645E-01-7.02509E-03-1.12802E-01-9.19118E-02-3.92941E-02
 -1      3737 1.02332E-01-5.28735E-01-1.37290E-01-9.14777E-03 2.11654E-01-3.18729E-02
 -1      3738-8.60518E-01 2.46303E-01 5.27860E-02-1.88164E-01 4.00591E-02-2.66769E-01
 -1      3739-2.61912E+00-2.44589E-01-5.03199E+00 1.15876E-01-7.67871E-01-8.57193E-01
 -1      3740 2.25615E+00-3.20676E-02-3.49295E+00 3.77369E-01-7.25161E-01 1.01532E-01
 -1      3741 3.68169E-01-2.60222E-01-4.03530E+00 9.02168E-01-1.24251E+00-5.69911E-01
 -1      3742 6.36520E+00-2.09945E-01-9.38996E-01-1.31915E-01 1.33448E-01 2.28894E+00
 -1      3743 6.33670E+00-7.28415E-02 1.60650E-01-2.66536E-01 2.24898E-02 2.11986E+00
 -1      3744-6.21433E-03 3.18552E-03 2.76774E-04 4.57538E-03-4.94242E-03-1.13601E-02
 -1      3745 2.69509E-05 1.61720E-02 1.77671E-03 6.09397E-03-1.40937E-02-3.21518E-03
 -1      3746 2.57190E-03 3.80360E-02 1.36106E-03 8.25986E-03-3.28411E-02-8.07832E-03
 -1      3747-6.45788E+00-1.07964E+00-8.58079E+00-2.12692E-01-2.33642E-01-3.23325E+00
 -1      3748-6.07485E+00-5.92289E-01-3.42396E+00-3.04889E-02 5.98562E-04 3.30263E-01
 -1      3749-6.07087E+00-1.11342E+00-8.84846E+00 4.29167E-01 2.40689E-01-4.21311E+00
 -1      3750-6.29800E+00-1.07010E+00-8.50331E+00 1.25401E-01 1.80250E-01-3.22523E+00
 -1      3751-5.65775E+00-4.48174E-01-8.67472E+00-2.97316E-01 2.11000E-01-4.84008E+00
 -1      3752-5.32142E+00-1.78435E-01-2.51963E+00 1.05455E-01 4.78047E-01-6.42194E-01
 -1      3753-2.70715E+00 6.03789E-02-1.55664E+00 7.91927E-01-8.34957E-01-9.11893E-01
 -1      3754-3.41239E+00-4.43883E-01 6.12274E-01-3.57812E-02 5.77686E-02 6.04347E-01
 -1      3755-3.20791E+00-6.43682E-01 4.60665E-01 4.02682E-01-1.72662E-01 5.42992E-01
 -1      3756-2.79868E+00-6.01817E-01-2.05111E-01 4.15732E-01-4.16214E-02-8.64207E-02
 -1      3757-2.85230E+00-6.17248E-01-2.17264E-01-4.15691E-01 4.20587E-02-1.19780E-01
 -1      3758-3.51359E-03 2.32944E-02-1.31703E-03-2.28196E-02 9.57040E-03-1.22893E-03
 -1      3759-6.61321E-01-3.80253E-01-1.20255E+00-7.12525E-02-1.85493E-01-4.80805E-01
 -1      3760 6.24183E-02 3.00163E-01 1.23057E+00-2.45549E-01-7.20247E-01 3.71724E-01
 -1      3761 3.30289E-01 3.82438E-01 1.22887E+00-1.01844E-01-3.98180E-01 5.52136E-01
 -1      3762 2.54382E-01 5.05452E-01 1.52836E+00-1.94472E-02-6.17709E-01 2.99390E-01
 -1      3763 3.09527E-02 3.92724E-01 5.44766E-01-1.09382E-01-4.05378E-01 1.71501E-01
 -1      3764 2.11028E-01 3.57542E-01 5.65244E-01-6.13527E-02-2.91127E-01 3.28890E-01
 -1      3765 9.20540E-02 3.44179E-01 4.41421E-01-2.04369E-01-2.75350E-01 3.97448E-01
 -1      3766 1.34873E+01 7.96011E-01-1.13778E+00 1.08000E+00-6.98501E-01 1.03424E-01
 -1      3767 1.17681E+01 6.03620E-01-1.44680E+00 1.24587E+00-9.32945E-01-3.27421E-01
 -1      3768-8.73302E-04 2.78988E-02 1.44526E-03 8.66289E-03-1.64362E-02-2.79593E-03
 -1      3769 9.56217E-02 2.95421E-01 2.65107E+00 1.70673E-01 2.38935E-01 1.64350E+00
 -1      3770-1.20728E+00 1.95036E-02 2.19941E+00-1.87730E-01 8.14960E-01-8.70619E-01
 -1      3771-1.51702E+00-1.02641E-01-9.83848E-01-1.53225E-01 6.02377E-01-2.48004E+00
 -1      3772-1.82388E+00-3.02382E-01-3.37834E+00-4.81226E-01 1.21047E+00-2.47450E+00
 -1      3773 2.24137E-01 7.74568E-01 2.46481E+00 3.90520E-03 6.55832E-03 1.44593E+00
 -1      3774-2.93014E-04 1.25263E-02 1.16187E-02 9.17460E-05-4.27303E-02-1.53240E-02
 -1      3775-3.67237E-01-3.10539E-01-8.15617E-01-3.25805E-01 7.60758E-01-1.56282E+00
 -1      3776 2.42130E-04 1.22806E-02 1.19820E-02-3.44962E-04 4.29974E-02-1.44016E-02
 -1      3777-3.68244E-01-6.19883E-02 2.42016E+00 4.12701E-02-8.22852E-02 3.39946E+00
 -1      3778-1.35365E-02-4.80345E-03-2.57424E-02 1.23685E-04-1.88424E-02-3.66917E-02
 -1      3779-1.49176E-02-4.28799E-03-2.65970E-02-2.16124E-03-2.72361E-02-4.11640E-02
 -1      3780-2.43130E-02-2.80448E-02-1.62237E-02-1.51575E-02-4.88137E-02-2.93706E-02
 -1      3781-2.24201E-02-1.53057E-02-1.69622E-02-1.44793E-02-2.76971E-02-2.70442E-02
 -1      3782-5.24007E-01 2.96365E-01-1.99163E-01-3.41595E-02 1.79216E-02-3.69421E-01
 -1      3783-1.00159E+00 3.79865E-01-1.37102E-01-7.32052E-02 3.77353E-03-5.44859E-01
 -1      3784-2.44543E-02-3.57763E-02-1.58943E-02-1.79297E-02-6.54204E-02-3.18723E-02
 -1      3785-2.26429E+00 4.81433E-01 5.12135E-01 2.32921E-01 1.94206E-02-1.06441E+00
 -1      3786 4.60277E-01-1.72945E-01-9.69975E-01-7.32737E-02-6.75532E-02-2.79453E-01
 -1      3787 3.83712E-01-2.62140E-01-9.14480E-01-1.28651E-01-7.57803E-02-3.42092E-01
 -1      3788-4.97495E+00-9.31751E-01-9.20006E+00-1.12731E-01 8.60614E-01-5.45570E+00
 -1      3789-4.72990E+00-6.11969E-01-1.74117E+00 2.94625E-02 6.13452E-01-8.42135E-01
 -1      3790-4.39637E+00 4.50502E-01-1.31634E+00-3.94049E-01 7.49437E-01-1.60060E+00
 -1      3791-6.03960E+00-9.01324E-02 1.41720E-01 2.14939E-01 1.49388E-01 2.04710E+00
 -1      3792-5.99033E+00-2.64959E-01-1.15278E+00 2.15436E-01 4.52782E-02 1.95125E+00
 -1      3793-9.87498E-02 4.99814E-02-4.28239E-01-5.84141E-03 2.31572E-01-5.49111E-01
 -1      3794-8.92275E-02 1.07848E-01 4.17600E-01 8.22140E-03 1.18246E-01 1.36754E-01
 -1      3795-2.63357E-01 2.75751E-02 1.75137E-01-1.38605E-02 5.44874E-02-1.58750E-02
 -1      3796-3.19003E-01-9.38007E-02-4.79452E+00-1.85078E-01 8.36225E-01-2.78396E+00
 -1      3797-2.14289E+00-7.91834E-02-4.05607E+00-1.43265E-01 8.58106E-01-2.94430E+00
 -1      3798-7.62879E-02-2.24977E-02-5.68612E-03 2.47176E-02-2.01630E-02 8.97837E-03
 -1      3799-8.74328E-02 3.57909E-02-2.05840E-02 6.97373E-02-2.24677E-02 5.31568E-02
 -1      3800-2.62765E-01-1.44249E+00-4.45818E+00 1.31981E-01 1.03192E+00-1.06735E+00
 -1      3801-5.10810E-01-1.48129E+00-6.04787E+00 1.74756E-01 1.95318E+00-1.49082E+00
 -1      3802-1.55331E-01-5.39144E-01-5.49591E+00-1.75683E-01 1.63919E+00-1.35779E+00
 -1      3803-5.78982E-01-1.49197E+00-6.04075E+00-1.30073E-01-1.92465E+00-1.49670E+00
 -1      3804-5.92232E-02-5.07766E-01-5.53332E+00 1.65993E-01-1.68005E+00-1.36505E+00
 -1      3805 1.40744E-01 2.44168E-01 2.41164E+00-3.18610E-01-1.63406E-01 1.07967E+00
 -1      3806-5.17518E-01 4.09095E-01-1.10394E-01-8.78972E-02 5.22475E-02-2.39659E-01
 -1      3807-3.52687E-01 1.64948E-01-2.51865E-01-5.11879E-02 4.86326E-02-7.43981E-01
 -1      3808 7.66504E+00 3.29610E-01 1.03841E+00-1.84811E-01-4.29003E-01 5.01383E+00
 -1      3809 1.05481E+00 9.84872E-02 8.39756E-01-2.11855E-01-5.81804E-02 4.27036E+00
 -1      3810 5.03180E+00 3.99695E-01 2.89838E-01 8.22177E-02-5.55395E-02 4.77587E+00
 -1      3811 6.24721E-02 6.77869E-03 2.81272E+00 7.76151E-02 3.79474E-01 4.87421E-01
 -1      3812 6.28161E-02-1.87991E-01 3.11941E+00 6.32292E-02 2.96500E-01 4.55243E-01
 -1      3813 6.29592E-02 3.09862E-01 1.66879E+00 9.39911E-02 5.95669E-01 3.41820E-01
 -1      3814-2.64177E-02 2.38114E-02 1.79729E+00 1.60492E-01 6.34826E-01 2.58959E-01
 -1      3815-1.51500E-01 8.48815E-02-8.33156E+00-9.33932E-02 1.16126E+00-1.69387E+00
 -1      3816-2.95109E-01 1.14505E-01-1.04589E+01 4.49206E-02 1.24586E+00-2.67788E+00
 -1      3817-1.43354E-01 9.18670E-03-8.51762E+00-2.09612E-01 1.49520E+00-2.21001E+00
 -1      3818-1.28189E-01-1.42941E-01-6.70896E+00-2.47994E-01 1.57129E+00-1.56753E+00
 -1      3819 4.35973E+00 5.13080E-03 1.47751E+00-2.14235E-02 3.75726E-03 2.85561E+00
 -1      3820 4.36460E+00 1.20825E-02 1.46227E+00 2.44028E-02-6.30859E-03 2.84044E+00
 -1      3821-2.60708E+00 6.51764E-01-7.91016E+00 1.40109E-01-2.67041E-01-2.32932E+00
 -1      3822-1.53736E+00 3.70294E-01-8.46867E+00 3.55084E-01-1.01273E+00-2.77388E+00
 -1      3823 9.88896E-03 2.26464E-01 2.56960E+00 1.85782E-01 2.36076E-01 1.40027E+00
 -1      3824 1.95925E+00-2.96991E-01-1.37070E+00-7.00801E-01-5.63847E-02-2.17946E-01
 -1      3825 1.99035E+00-9.91777E-02-9.64861E-01-4.68173E-01-1.37280E-01-1.03281E+00
 -1      3826-5.99294E-02-4.42879E-02-2.96762E-03-4.20646E-02-4.78656E-02-1.54874E-02
 -1      3827-5.53195E-02-3.48024E-02-2.20210E-02-3.33395E-02-6.03220E-02-3.03734E-02
 -1      3828-6.60631E-02-3.09200E-02-9.87948E-03-2.81857E-02-3.95280E-02-3.23575E-03
 -1      3829 5.93916E-02-2.52956E-01-9.23935E-01 4.80471E-02 1.29021E-01-4.48172E-02
 -1      3830 5.71255E-02-4.21197E-02-6.66015E-01-1.04965E-04 8.86016E-02-2.87612E-01
 -1      3831 1.33224E-01-2.86177E-01-8.04459E-01 3.79695E-02 2.77283E-02-2.48431E-01
 -1      3832 1.28279E-01-1.45115E-01-6.76527E-01 3.73970E-02 1.11318E-01-2.92202E-01
 -1      3833-5.06778E-02 1.84236E-02-5.82805E-01-1.20780E-02 1.94329E-01-2.78205E-01
 -1      3834 5.76359E-01-2.87091E-02 1.86663E+00 2.21152E-02 1.94789E-02 1.29919E+00
 -1      3835-5.10985E-01-5.61280E-01-2.24159E+00-2.34341E-02-1.78004E-01-4.65140E-01
 -1      3836-2.30732E-03-4.33408E-03-9.10356E-03-2.21468E-02-9.02098E-03-1.76009E-02
 -1      3837-1.30000E-02-5.15803E-02-2.25763E-02-2.75408E-02-5.38116E-02-2.84421E-02
 -1      3838-5.68718E+00 1.61504E-01-1.00274E-01 3.95591E-01-3.74455E-01 1.07540E+00
 -1      3839-4.91556E+00-2.80659E-01 3.48589E-01 1.75272E-01-4.27220E-01-1.71862E+00
 -1      3840 4.02958E-02 3.91515E-01 8.58025E-01-2.20856E-02-5.74916E-01 1.62918E-01
 -1      3841 1.35762E-01 2.73560E-01 2.29751E-01-2.47618E-02-2.00833E-01 2.02781E-01
 -1      3842-1.03986E-01-5.73530E-02-2.55664E-03 6.21145E-02 2.34691E-02 1.61661E-04
 -1      3843 1.93797E-01-2.57211E-02-5.67902E-01-7.07822E-03-1.04777E-01-9.62651E-01
 -1      3844-1.56666E-01-1.58857E-02-4.89818E-01-8.11288E-04-1.04405E-01-6.48358E-01
 -1      3845 1.70831E-03-8.08760E-03-1.13822E-02-2.10764E-02-8.04522E-03-1.65060E-02
 -1      3846-1.63874E-02-7.33162E-02-2.17025E-03-4.89175E-02-3.33609E-02-1.19241E-02
 -1      3847 5.65195E+00-2.70187E-01-9.21636E-01-6.38111E-01-4.48453E-01 1.16356E+00
 -1      3848 5.04693E+00-3.97139E-01-3.29497E-01-4.03701E-01-7.14678E-01 2.17625E+00
 -1      3849-2.28642E-01-5.42467E-02-1.12260E-02-8.57093E-03 2.90358E-02 2.00426E-02
 -1      3850-2.32220E-01-5.50442E-02-8.09676E-03 3.60245E-02 3.28449E-02 1.07579E-02
 -1      3851 4.99579E+00 3.49461E-01-1.29305E+00-3.86274E-01-4.59561E-01-1.46428E+00
 -1      3852 5.70806E-02-3.39452E-01 3.01784E+00-6.01305E-02-2.28135E-01 4.34333E-01
 -1      3853-1.97664E-02 2.83707E-02 2.15811E+00-1.30219E-01-5.61365E-01 3.89868E-01
 -1      3854 1.59669E-01 7.51392E-03 2.91427E+00-2.51117E-02-3.46785E-01 5.28945E-01
 -1      3855 3.17152E-03 3.39852E-02 6.27177E-03-1.09451E-02 4.21540E-02-1.15422E-02
 -1      3856 8.66054E-02-3.40126E-01-9.60898E-01-1.77376E-02-7.19811E-02-1.60059E-02
 -1      3857 7.58659E-02-2.96198E-01-9.72877E-01-5.01309E-02-1.01881E-01-1.97291E-02
 -1      3858 1.94249E-01-2.78518E-01-8.11370E-01-4.18226E-02-4.29133E-02-2.57759E-01
 -1      3859 6.40717E-02-8.31019E-02-7.23225E-01-2.70289E-02-9.40559E-02-2.55421E-01
 -1      3860 1.97115E-01-3.23002E-01-8.00096E-01-2.57840E-03-4.45442E-03-2.57354E-01
 -1      3861-2.93712E-01 1.53115E-02 2.77937E-02-7.00050E-02 2.56462E-03 7.49202E-02
 -1      3862-3.46377E-01-5.18570E-01-3.36434E+00 2.06819E-02-1.00509E-02-4.53939E-01
 -1      3863-9.65080E-02-1.26122E-01-5.70577E-02 7.64849E-02 1.37019E-01-6.78087E-02
 -1      3864-4.66017E-02-9.04675E-02-1.59459E-02 4.35560E-02 9.68014E-02-4.51425E-02
 -1      3865-4.84475E-02-1.16465E-01-4.47441E-02 4.35386E-02 1.39122E-01-5.86499E-02
 -1      3866-1.69563E-02-1.54261E-02-4.20138E-02-4.46533E-03-6.22716E-02-4.01554E-02
 -1      3867-2.90492E-02-9.36298E-02-1.98745E-02-3.22800E-02-1.11482E-01-3.39270E-02
 -1      3868 4.05630E+00-1.30313E-03 2.15285E+00 6.82688E-03 3.28790E-03 4.53007E+00
 -1      3869-2.20426E-01 1.25671E-01 2.59403E-01-3.32761E-01-3.65831E-01 7.95549E-02
 -1      3870-2.08671E-01 1.92329E-01 4.62799E-01-4.56565E-01-2.81811E-01 3.23810E-01
 -1      3871-1.44296E-01 1.61432E-01 5.63698E-02-3.42770E-01-4.32527E-02 8.44991E-02
 -1      3872-4.32562E-02-1.19989E-01-3.76103E-02-4.37217E-02-1.32789E-01-5.42644E-02
 -1      3873-1.17408E-01-1.50713E-01-6.88151E-02-9.55204E-02-1.55719E-01-7.66839E-02
 -1      3874-4.70025E-01-5.24468E-01-2.03312E+00-6.62818E-02-2.82541E-01-5.10088E-01
 -1      3875-6.11228E-01-3.65236E-01-1.99764E+00-8.78407E-02-2.44682E-01-6.21077E-01
 -1      3876-1.78254E-02-1.15176E-02-3.81708E-02-3.11497E-03-3.56671E-02-3.98487E-02
 -1      3877-1.03862E+01-1.84900E+00-5.86372E+00 2.67567E-01-3.49116E-01-4.86533E+00
 -1      3878-7.44670E+00-1.94453E+00-5.97326E+00 2.15522E-01-2.73435E-01-4.19213E+00
 -1      3879-9.98461E+00-1.97179E+00-6.51734E+00 1.28449E-01-1.09262E+00-4.78420E+00
 -1      3880 1.12340E-01-1.36091E-01-8.21661E-01-2.12901E-02-1.60876E-01-2.85629E-01
 -1      3881 2.51092E-01-3.23091E-01-8.86900E-01-6.79168E-02-7.79642E-02-2.61300E-01
 -1      3882 4.97017E-02-1.36293E-02-4.63534E-01-8.89938E-03-2.22711E-01-4.23735E-01
 -1      3883 1.25505E+01 8.87724E-01-1.28774E+00-1.03408E+00-6.58513E-02 1.35349E+00
 -1      3884 1.16868E+01 1.19141E+00-1.01218E+00-2.40435E+00 6.73969E-01 8.15830E-01
 -1      3885-1.84383E-01 9.30391E-02-2.44999E-01-2.32599E-02 1.85843E-01-5.95790E-01
 -1      3886-4.08022E-01 2.39458E-01-1.12058E-01-1.00348E-01 6.45840E-02-2.72994E-01
 -1      3887 1.62232E-01 8.56410E-02 2.32868E+00 4.70867E-02 3.20295E-02 9.59002E-01
 -1      3888 5.64654E-02 4.59469E-01 2.70132E+00 2.66287E-01 3.69655E-01 9.73910E-01
 -1      3889 1.37097E-01 6.00285E-02 2.25777E+00-3.28048E-02-5.84277E-02 9.14425E-01
 -1      3890 9.99239E+00 4.22142E-01-1.19128E+00 4.68454E-01-2.74204E-01 1.58754E+00
 -1      3891 9.85810E+00 5.25473E-01-1.17134E+00 4.32097E-01-2.70860E-01 1.09083E-01
 -1      3892 8.77720E+00 8.03378E-01-1.22282E+00 9.88581E-01-8.49894E-01 8.38752E-01
 -1      3893 9.13160E+00 9.12155E-01-1.05629E+00 1.03165E+00-8.68268E-01-3.36163E-01
 -1      3894 4.22866E-01 2.08991E-01 1.95636E+00-8.38390E-03-1.14122E-01 6.79166E-01
 -1      3895 3.10462E-01 1.98058E-01 1.59464E+00-2.08748E-03-8.55606E-02 6.53726E-01
 -1      3896-9.74573E+00-1.44939E+00-5.19023E+00-8.52257E-02-1.94153E-01-4.18946E+00
 -1      3897-3.70667E+00 2.05473E-01 4.56949E-01 9.15189E-02-7.15004E-01 1.25154E+00
 -1      3898-2.12194E+00 2.48402E-02 2.04913E+00 4.38177E-02-1.36445E+00 2.22318E+00
 -1      3899-2.24108E+00 3.37919E-02 1.40521E+00 7.33187E-01-1.52918E+00 1.20560E-01
 -1      3900-4.90661E+00 2.71302E-01-8.06108E-01 2.09651E-01-5.90007E-01 2.11080E+00
 -1      3901-2.15232E-01-6.83394E-02-1.30318E-01 1.02084E-01 1.18649E-01-1.27398E-01
 -1      3902-2.09546E-01-5.68722E-02-3.08801E-02 1.05791E-01 8.32694E-02-3.72776E-02
 -1      3903-1.36909E-01-4.97219E-02-7.28361E-02 5.44996E-02 8.84066E-02-6.45561E-02
 -1      3904-2.10395E-01 1.70667E-02-3.92456E-02 2.20774E-02 5.26506E-02-4.38831E-02
 -1      3905 1.61544E-01 3.04591E-01 7.23340E-01 1.12073E-01 3.09254E-01 3.70115E-01
 -1      3906 1.72856E-01 1.40933E-01 1.35133E+00 2.74273E-02 1.64590E-01 5.47933E-01
 -1      3907-6.63991E-02 1.01948E-01 1.32273E+00 1.20233E-01 1.96865E-01 5.57549E-01
 -1      3908 7.00249E-02 2.38612E-01 7.12600E-01 5.36691E-02 2.55356E-01 3.13888E-01
 -1      3909-7.94163E-02 2.65452E-01 5.47051E-01 1.74578E-01 3.56863E-01 3.30493E-01
 -1      3910-4.03659E-02-3.27988E-02-2.33527E-03-3.73552E-02-2.11916E-02-6.77046E-03
 -1      3911-6.73930E-02-4.18392E-02-2.20340E-03-4.68196E-02-2.54580E-02-3.39661E-03
 -1      3912-6.79175E-02-3.58108E-02-2.25720E-03-3.83212E-02-2.31533E-02-3.26720E-03
 -1      3913-1.67111E+00-8.15503E-02 1.84523E+00-1.62176E-02-3.55802E-02 1.73165E+00
 -1      3914-1.63745E+00-1.90662E-02 1.86328E+00 1.45056E-02 2.85613E-02 1.72632E+00
 -1      3915-2.00192E+00-3.49590E-01 1.16947E+00 3.00428E-03-8.90897E-04 1.36612E+00
 -1      3916 2.63667E-02-8.21504E-01-4.11240E-01-1.33415E-01-4.22549E-01-4.19760E-02
 -1      3917-4.62192E-02-6.74353E-01-4.58327E-01-9.93599E-02-5.02280E-01-7.63396E-02
 -1      3918-3.04544E-02-4.82463E-01 8.53859E-03-1.69764E-01-1.08086E-01-7.60732E-03
 -1      3919-2.04228E-02-5.26921E-01-4.40367E-01-2.30049E-01-3.42501E-01-1.79297E-01
 -1      3920-1.18432E-01-8.83303E-01-1.34679E+00-1.31254E-01-8.78491E-01-2.40561E-01
 -1      3921-5.13728E-03 1.96184E-02 3.91666E-04 1.19593E-02-1.26842E-02-1.39877E-02
 -1      3922-9.33163E-02-9.42564E-02-4.25294E-02 7.09807E-02 1.05942E-01-6.82894E-02
 -1      3923-1.40838E-02 4.29420E-01 7.90986E-01 1.58734E-01 6.90269E-01 1.73256E-01
 -1      3924-2.29495E+00-2.89691E-02 6.66217E-01-5.41382E-02 6.06833E-01-1.81541E+00
 -1      3925 1.74826E+00 8.09689E-01 2.38614E-01-4.82333E-01-9.03342E-01 3.46349E+00
 -1      3926 1.85311E+00 7.68295E-01 2.95521E-01 4.84747E-01 9.13330E-01 3.64768E+00
 -1      3927-1.89671E+00 4.04248E-01 1.10414E-01 1.26854E-01 7.91106E-01 2.80377E+00
 -1      3928-5.72803E-01 3.48624E-01-1.86410E-01-8.01655E-02 6.84077E-02-5.67948E-01
 -1      3929-5.57281E-03-9.26216E-03-3.80188E-02-3.76429E-03-6.37026E-02-3.87354E-02
 -1      3930 8.38147E+00 7.18087E-01 1.69639E-01-6.02564E-01-7.47710E-01 5.08684E+00
 -1      3931 1.05670E+01 5.32289E-01 1.48737E+00 8.40089E-02 1.34058E-01 5.15908E+00
 -1      3932 8.44534E+00 6.27729E-01-1.12286E-02 7.53365E-01 8.22085E-01 5.36201E+00
 -1      3933-9.68868E-02-3.26638E-02-3.66768E-02 3.96945E-02 8.73721E-02-4.91944E-02
 -1      3934-8.49051E-01 5.69332E-02 4.42530E+00 1.14059E-01 3.10107E-01-7.68121E-01
 -1      3935-6.58824E-02-2.35891E-01-1.58035E-02-1.29361E-01-4.76890E-02-9.46714E-03
 -1      3936-5.84655E-02-1.19788E-01-6.46836E-03-8.38734E-02-2.37059E-02-2.41647E-03
 -1      3937-1.27660E-01-1.43049E-01-9.81742E-03-1.28305E-01-3.47239E-02-5.68341E-03
 -1      3938-8.84585E-02-3.27981E-01-2.09427E-01-8.76277E-02-2.94512E-01-5.94869E-02
 -1      3939-1.00488E-02-5.41701E-01-5.82653E-01-3.46313E-02-5.91558E-01-4.30991E-02
 -1      3940-1.20043E-01-4.61955E-01-7.26012E-01-1.30214E-01-5.34307E-01-1.70893E-01
 -1      3941 2.52402E+00-9.69735E-02 1.84307E+00 3.61349E-02-2.85042E-01 4.58840E+00
 -1      3942 3.95268E-01-1.87305E-01 2.08197E+00 4.08552E-02-3.21763E-01 3.91113E+00
 -1      3943-1.42792E+00-1.17022E-01 3.54296E+00-5.02582E-01-5.72111E-01 1.37389E+00
 -1      3944-1.03449E+00 8.48029E-02 5.55611E+00-2.07120E-01-3.43079E-01 1.44204E+00
 -1      3945-1.24204E+00 8.38372E-02 2.94352E+00-6.39422E-02-8.32470E-01-4.40360E-01
 -1      3946 4.89288E-01 2.34406E-01 2.09586E+00 4.44403E-02 2.95852E-01 7.14009E-01
 -1      3947 3.76834E-01 4.77799E-01 1.09245E+00 6.68525E-02 4.32362E-01 4.69424E-01
 -1      3948-1.61446E-02-3.26832E-02-6.09064E-02-5.67968E-03-8.23723E-02-3.48524E-02
 -1      3949-1.24302E-02-2.39765E-02-7.47042E-02-1.70432E-03-9.27656E-02-2.99906E-02
 -1      3950-1.63841E-02-1.03145E-01-3.16607E-02-1.73291E-02-1.28882E-01-3.10069E-02
 -1      3951-4.77513E-03-4.88009E-02-5.69980E-02-7.93425E-03-6.58065E-02-2.65679E-02
 -1      3952-9.30258E-04-4.15338E-02-2.75744E-02-1.37451E-02-4.99737E-02-2.84152E-02
 -1      3953 1.49572E-01 1.09114E-01 1.28558E+00 3.44894E-02 1.08988E-01 4.99085E-01
 -1      3954 1.35463E-02 1.84689E-01 7.30297E-01 3.79339E-02 1.89658E-01 2.55295E-01
 -1      3955-1.03364E+01-1.87611E+00-5.96052E+00-1.51557E-01 3.20065E-01-5.12128E+00
 -1      3956 2.12079E-01-7.23383E-02-7.56062E-01-1.74065E-02-2.00250E-01-6.37116E-01
 -1      3957-2.46689E-02 8.60620E-02-1.23768E-02 1.70501E-02 3.87023E-02 6.53013E-02
 -1      3958-5.62740E+00-3.56276E-01-2.75381E+00 3.56951E-01 7.07327E-01-2.91738E+00
 -1      3959-1.35026E+01-1.03679E+00-3.42293E+00 4.97289E-01 7.45610E-01-3.77448E+00
 -1      3960-1.17954E+00 1.05728E-01-3.57327E+00-2.49691E-01 9.95394E-01-2.18430E+00
 -1      3961-8.23042E+00-9.63598E-01-2.79754E+00-1.00454E-01 9.05733E-01-2.83468E+00
 -1      3962 4.34358E+00 2.95486E-01-3.07122E+00-4.39360E-01 9.92578E-01-1.50119E+00
 -1      3963 1.09459E+01 1.05554E+00-1.11384E+00 1.15439E+00-9.27899E-01-4.02505E-01
 -1      3964 1.97940E-01 3.61725E-01 2.71499E+00 3.67323E-01 2.73413E-01 9.96776E-01
 -1      3965-4.51841E-01-5.37071E-01-2.22385E+00-6.53252E-02-3.91873E-01-4.48380E-01
 -1      3966-2.13972E-01-5.48274E-01-2.20592E+00-2.07766E-01-5.92227E-01-4.84411E-01
 -1      3967-3.81747E+00 1.01647E-01-6.57680E-01 4.40805E-01-5.71986E-01-8.99817E-02
 -1      3968-3.84861E+00 2.25183E-01-6.23490E-01-3.71470E-01 5.47912E-01-5.56916E-02
 -1      3969-2.75140E+00-2.31825E-01 1.76969E+00 3.99674E-01-2.87126E-01 1.50226E+00
 -1      3970-2.79281E+00-2.36689E-01 1.53188E+00-3.77986E-01 2.31346E-01 1.58837E+00
 -1      3971-2.74998E+00 2.54681E-01 2.12807E-01 3.39192E-02-6.67127E-02 8.00122E-01
 -1      3972-2.81839E-03 1.70931E-02 1.02673E-02-9.01948E-03 2.11378E-02-1.84753E-02
 -1      3973-4.52552E+00 3.37305E-02-4.35980E+00 2.65187E-01-3.90022E-01-2.00578E+00
 -1      3974-4.26051E+00 7.49001E-02-4.41119E+00-3.27540E-01 3.62370E-01-2.03893E+00
 -1      3975-1.59781E-02-1.79743E-02-3.81028E-02 5.23158E-03 6.23477E-02-3.88271E-02
 -1      3976-3.23143E-02-9.64522E-02-1.90204E-02 3.55625E-02 1.17812E-01-3.80483E-02
 -1      3977-1.18383E-02-5.37965E-03-8.49021E-03-1.90995E-02-7.63905E-03-1.68868E-02
 -1      3978-2.74721E-02-2.36781E-02-4.18356E-03-3.32332E-02-2.17912E-02-8.21531E-03
 -1      3979-1.78878E-02 1.62508E-02-2.27732E-02-4.21894E-03 3.76278E-03 1.48479E-02
 -1      3980-1.46741E-02-4.22923E-03-7.49102E-03-1.81499E-02-5.26831E-03-1.77777E-02
 -1      3981-3.89893E-04 4.45318E-03 1.58604E-02-4.73526E-04 1.93445E-02-3.19549E-02
 -1      3982-9.17396E+00-2.06236E+00-5.70583E+00-2.40338E-01 8.89703E-01-5.57361E+00
 -1      3983 3.12343E+00-3.36459E-01-1.23109E+00 8.28141E-01 6.34618E-01 4.42006E-01
 -1      3984 3.27930E+00-8.69437E-02-1.35335E+00 2.76079E-01 4.42796E-01-1.32676E+00
 -1      3985-1.30891E-02-3.56349E-03-6.10473E-03-1.52448E-02-4.41976E-03-1.75750E-02
 -1      3986 4.10444E+00 9.87629E-02-1.01441E+00 2.23582E-01-3.14993E-01-2.74094E+00
 -1      3987 2.28634E+01 2.32292E+00 7.80112E-02-1.61697E+00 5.75633E-02 1.06671E+00
 -1      3988 2.49112E+01 2.67546E+00 2.51410E-02-2.20814E+00 1.68515E-01 9.73844E-01
 -1      3989 1.41597E+01 7.89041E-01-1.54727E+00 8.55210E-02 1.47503E-01 1.35243E+00
 -1      3990 9.42083E-02 7.25037E-01 2.73276E+00-8.39973E-03-6.63969E-02 1.38827E+00
 -1      3991 9.56072E-02-3.09478E-01-9.16045E-01-9.36106E-05-1.97104E-03-8.76951E-03
 -1      3992 4.21130E-02-9.56478E-02-6.72301E-01-5.33443E-03 1.23253E-03-2.25098E-01
 -1      3993-8.51476E-03-4.68331E-01-3.29404E-02-8.27281E-02-9.73526E-02-2.10776E-02
 -1      3994-3.34127E-02-4.53682E-01-4.33331E-02-6.55781E-02-1.61748E-01-3.80578E-02
 -1      3995-8.14952E-04-3.63271E-03-9.94718E-03 2.22703E-02 6.17520E-03-1.71505E-02
 -1      3996-1.43168E-02-7.63944E-02 6.39695E-03 5.01913E-02 3.22444E-02-6.75313E-03
 -1      3997-8.06909E-03-8.98365E-03-3.31952E-02 5.82551E-03 6.39620E-02-4.01022E-02
 -1      3998-1.64533E-02-5.64712E-02-2.33791E-02 2.96146E-02 5.51999E-02-2.74810E-02
 -1      3999-1.81975E-01 1.91023E-01-9.66846E-02 4.82548E-02-1.55523E-01-1.67355E-01
 -1      4000 2.88552E-03-5.46054E-03-1.04864E-02 1.96602E-02 7.22942E-03-1.61890E-02
 -1      4001-1.42539E-01-6.56258E-01-1.18958E+00-5.89866E-03-7.43448E-01-4.85438E-02
 -1      4002-2.39578E-01-5.78438E-01-1.30459E+00-1.18546E-01-6.50083E-01-1.76526E-01
 -1      4003-1.98576E+00-3.43390E-01 2.10354E+00 1.50860E-01-4.76896E-01 2.87146E+00
 -1      4004-8.03131E+00-2.28535E+00-5.91748E+00 1.70143E-01-1.94341E-01-4.72694E+00
 -1      4005-8.42262E+00-1.90039E+00-2.30432E+00 2.20343E-01-3.80691E-01-1.87418E+00
 -1      4006-8.85564E-02 3.35234E-02-5.03346E-01 4.01147E-02-1.81927E-01-6.92123E-01
 -1      4007-1.48362E+00-4.00018E-02-8.70901E+00 2.81358E-01-1.49557E+00-2.61280E+00
 -1      4008 2.02934E-03 5.81323E-03 2.32763E-02-7.79091E-04 2.69819E-02-3.05501E-02
 -1      4009 2.21388E+00 7.89215E-02-5.85312E-01 1.37291E-01 3.86586E-01-2.53496E+00
 -1      4010 6.93798E-02-4.37554E-03-3.84076E-01 4.29461E-02 1.09960E-01-3.34527E+00
 -1      4011 3.48771E+00-1.31824E-01 1.43711E+00 4.66596E-02-2.41072E-01 5.04447E+00
 -1      4012 9.55254E+00 1.33058E-01 1.65206E+00 4.09123E-02 1.43721E-02 5.41870E+00
 -1      4013 9.36926E+00 1.38292E+00-7.59102E-01-2.72233E+00 5.58997E-01 2.57667E+00
 -1      4014-3.20196E+00 1.84773E-01-2.13231E+00 1.31459E-01 7.33060E-01-2.67605E+00
 -1      4015-6.13419E-02-9.72104E-02 2.23444E-03-7.86731E-02-1.97488E-02-1.23295E-03
 -1      4016-1.01083E-01-1.18204E-01-6.59630E-03-1.03307E-01-8.43999E-02-2.98895E-02
 -1      4017-1.07087E-01-1.96902E-02-7.17903E-01-1.63430E-01 1.59543E-01-3.72391E+00
 -1      4018 1.76625E-01 1.14884E-01 2.00130E+00-1.69482E-01-2.72620E-01 6.96818E-01
 -1      4019 3.60661E-01 3.28110E-01 1.35536E+00-8.42446E-02-2.91674E-01 5.49994E-01
 -1      4020 1.39885E-01 1.52279E-01 1.63533E+00-1.66633E-01-2.50690E-01 7.05423E-01
 -1      4021 1.70067E-01 1.17061E-01 1.33135E+00-2.21499E-02-7.17931E-02 5.10040E-01
 -1      4022-8.24940E-02 4.72632E-02 1.65575E+00 6.59764E-03 9.54854E-04 7.07118E-01
 -1      4023-5.12864E-02 1.05086E-01 1.17621E+00-1.63937E-01-2.46945E-01 5.39013E-01
 -1      4024-1.98247E+00 1.21863E-01-7.62056E+00-1.78431E-01 1.42210E+00-2.46252E+00
 -1      4025 2.58471E-01 2.05695E-01 1.50788E+00 1.59021E-03 1.13977E-02 5.90735E-01
 -1      4026 1.79393E-01 2.38605E-01 1.93460E+00-1.64582E-01-5.52893E-01 5.09434E-01
 -1      4027-8.57639E-01 1.30344E-01 5.56180E+00-2.01643E-01-4.44264E-01 2.64370E-01
 -1      4028 2.87371E-01 3.78912E-01 2.09321E+00-9.27536E-03 5.43027E-01 4.18011E-01
 -1      4029-6.46469E-01-3.67845E-01-1.87969E+00-2.08463E-02 1.15321E-01-2.13522E+00
 -1      4030 1.17573E-02 1.55855E-01-3.55158E-01-3.07574E-02 8.08642E-03-1.69940E+00
 -1      4031-2.57297E-01-3.04235E-01-1.40877E+00-2.17945E-01 5.96803E-01-1.62449E+00
 -1      4032-2.04644E-01-1.79460E-01-2.88884E+00-1.51390E-01 7.24354E-01-2.82080E+00
 -1      4033 5.38106E-02 1.93607E-01-2.30734E-01 4.12437E-02-1.77484E-02-1.68244E+00
 -1      4034-6.17326E-01-3.91906E-01-1.87434E+00 1.33242E-02-1.15207E-01-2.15645E+00
 -1      4035-2.78324E-01-1.79662E-01-2.68587E+00 1.61112E-01-7.37566E-01-2.79439E+00
 -1      4036-3.64269E-01-3.39790E-01-1.38595E+00 1.81944E-01-6.00433E-01-1.59862E+00
 -1      4037-5.86443E-01-7.47233E-01-2.88257E+00 4.27458E-02 3.60857E-01-3.26718E-01
 -1      4038-5.92568E-01-7.62885E-01-3.08318E+00-1.31777E-03 2.04407E-01-2.65814E-01
 -1      4039-1.95154E-02-3.46205E-01-1.55069E-01-1.73374E-02-2.85012E-01-3.79215E-02
 -1      4040 6.36693E+00-3.87775E-02 1.85322E+00 2.11440E-03 2.24426E-03 4.83600E+00
 -1      4041 8.22325E+00-4.60675E-02 1.41909E+00 5.28558E-02-5.71712E-03 4.03014E+00
 -1      4042-3.71518E-02 5.08933E-01 1.01477E+00 6.13268E-01 6.21791E-01 6.06628E-01
 -1      4043-1.63185E-01 4.60391E-01 1.06336E+00 5.64315E-01 5.27952E-01 6.03017E-01
 -1      4044-1.88314E-02-9.88271E-02-2.66190E-03-6.32270E-02-3.15214E-02-6.61848E-03
 -1      4045-3.47008E-02-2.35453E-01-2.18332E-02-1.01924E-01-4.76559E-02-1.30713E-02
 -1      4046-2.11113E+00-1.32584E-01 1.01898E-01-9.45178E-02 2.58957E-01-2.54493E+00
 -1      4047 1.76766E-01 1.46820E-01 1.34256E+00-3.10759E-02-1.50389E-01 5.39878E-01
 -1      4048 8.63936E-02 2.60116E-01 6.69587E-01-6.35985E-02-2.52518E-01 3.20721E-01
 -1      4049 2.29187E-01 2.69169E-01 9.84774E-01-1.02655E-01-3.31422E-01 4.32124E-01
 -1      4050 6.54025E-03 2.84873E-01 7.64283E-01-1.95400E-01-4.26198E-01 4.29674E-01
 -1      4051-4.42798E+00-4.19852E-01-1.10234E+01 4.20301E-01 5.35478E-01-5.45706E+00
 -1      4052-3.92062E+00 1.26134E-01-5.88202E+00 4.42864E-01 3.01483E-01-2.77542E+00
 -1      4053-3.53956E+00-2.76718E-01 3.76618E-01 1.02383E-01 3.92855E-01-6.52479E-01
 -1      4054-4.03796E+00-2.05728E-01-8.15176E+00 8.49174E-03 1.12602E+00-4.30679E+00
 -1      4055-8.26569E-02 5.31295E-01 9.55878E-01-5.93812E-01-5.48266E-01 5.76924E-01
 -1      4056 2.34375E-01 3.60225E-02 2.04777E+00-2.83732E-02-2.57522E-02 1.06885E+00
 -1      4057 2.83531E-01-1.57097E-02 2.07973E+00 1.98836E-02 2.98165E-02 1.09096E+00
 -1      4058-2.92640E-01 4.89149E-02 1.28663E-01-1.99863E-01-6.80940E-02 1.82166E-01
 -1      4059-4.18419E-01 3.40496E-03 7.02194E-02-1.40905E-01 1.73469E-02 1.04817E-01
 -1      4060-2.57864E+00-2.84647E-01-1.08687E+01 2.86186E-01 1.19456E+00-3.32338E+00
 -1      4061-8.51604E-02-3.25400E-01-4.65391E+00-6.83005E-03-8.57837E-02-3.13219E-01
 -1      4062 1.79829E+00-9.31594E-02-3.64861E+00-4.12288E-01 7.38504E-01-2.01992E-01
 -1      4063-3.11769E+00-2.42802E-01-5.08459E+00-1.45310E-01 7.58300E-01-1.06380E+00
 -1      4064-5.04797E-01-6.21753E-01-2.51947E+00-2.24124E-02 1.74040E-02-3.80560E-01
 -1      4065-3.96456E+00 1.60268E-01 2.76105E-01-3.61200E-01 3.62262E-01-2.42925E+00
 -1      4066-3.40801E+00 9.98805E-02 4.20555E-01-2.08391E-01 4.06837E-01-1.27441E+00
 -1      4067 1.51391E-01 2.96860E-01 5.70263E-01 5.72351E-02 3.20606E-01 3.10591E-01
 -1      4068 1.03142E-01 2.68682E-01 2.93024E-01 4.53372E-02 2.29137E-01 2.11168E-01
 -1      4069 6.74217E-02 1.89063E-01 1.60006E-01 3.03553E-02 1.54884E-01 1.86586E-01
 -1      4070 4.95971E-02 1.51626E-01 4.53580E-02 1.79520E-02 8.87381E-02 1.13089E-01
 -1      4071-1.36152E-02 2.51815E-01 1.55817E-01 1.25463E-01 1.31824E-01 2.31422E-01
 -1      4072-3.74624E+00 5.19491E-01 3.71619E-01-7.66564E-01 3.96744E-01 7.28605E-01
 -1      4073-6.75156E-01-2.99079E-02 3.69059E+00 6.52017E-02 1.08579E-01-1.20129E+00
 -1      4074 4.80291E-01 2.73686E-01 2.11024E+00-4.17140E-02-2.69627E-01 6.96095E-01
 -1      4075 3.21603E-01 3.54392E-01 2.16292E+00 4.33940E-02-5.10314E-01 4.45048E-01
 -1      4076-9.46590E-03-2.85389E-01-4.20806E-04-4.16151E-02-3.51093E-02-8.06724E-03
 -1      4077-3.31483E-02-2.44719E-01-2.84997E-02-8.51620E-02-2.52022E-02-9.39409E-03
 -1      4078 1.48068E+01 8.91185E-01-1.24906E+00-8.39286E-03-1.57313E-01 1.98140E+00
 -1      4079 1.51879E+01 1.09875E+00-7.82124E-01 6.64153E-03 1.65956E-02 2.56333E+00
 -1      4080 1.81798E+01 1.17449E+00 6.25492E-02-2.85930E-01-1.00727E-02 4.07131E+00
 -1      4081 8.04450E+00 8.41674E-01-1.08717E+00 8.56230E-02-5.46227E-02 3.31159E+00
 -1      4082 1.81519E+01 1.28895E+00-2.28449E-02 4.46673E-02-1.05721E-01 3.69764E+00
 -1      4083-2.92331E-02-8.96567E-02-3.32429E-03-6.27445E-02-3.08713E-02-8.30854E-03
 -1      4084-4.15954E-02-7.25390E-02-2.26001E-03-6.47403E-02-2.59328E-02-6.25282E-03
 -1      4085 1.11518E-01-2.69460E-01-8.94825E-01 1.63655E-02 8.50441E-02-4.27655E-02
 -1      4086-9.72256E-02-5.18826E-02-2.43631E-03-4.71137E-02-2.71921E-02-2.21535E-03
 -1      4087-2.17880E-01 2.97252E-01-2.18966E-01 4.17176E-03-1.67697E-02-2.87031E-01
 -1      4088-3.89424E+00 5.30061E-01 4.21276E-01 7.84542E-01-3.81062E-01 7.00840E-01
 -1      4089-3.64637E+00 6.32415E-02 3.38339E-01 1.71248E-01-3.89289E-01-1.39849E+00
 -1      4090-5.00795E-01-1.78916E-01-6.47663E-01-7.75289E-02-1.40626E-01-3.51754E-01
 -1      4091 3.75581E+00-6.40356E-01-1.39874E+00 8.31534E-01 4.26784E-01 6.11100E-01
 -1      4092-1.23917E+00 4.16310E-01-9.75739E+00 3.03836E-01-6.08282E-01-2.47092E+00
 -1      4093-2.60742E+00-2.29509E-01-4.26977E+00 6.15635E-01-9.14770E-01-2.54852E+00
 -1      4094-5.96149E-02-5.19295E-01-6.85960E-01-2.94901E-01-5.43406E-01-2.49071E-01
 -1      4095-2.10916E-01-1.53951E+00-2.81043E+00-2.44163E-01-1.60825E+00-3.05805E-01
 -1      4096-4.91134E-01-1.26227E+00-2.27414E+00-6.67830E-01-1.33756E+00-9.31726E-01
 -1      4097-1.73346E+00-9.25898E-02 1.92839E+00 5.89016E-03-1.53375E-02 3.57994E+00
 -1      4098-3.63177E-02-1.92232E-01-1.01869E-01-2.68161E-02-2.28319E-01-3.64754E-02
 -1      4099 1.49829E-02-2.55235E-01 2.93690E-02-1.73007E-02-1.05228E-01-1.71981E-02
 -1      4100-2.88078E-02-2.55798E-01 2.90803E-03-8.10082E-02-1.06042E-01-3.71343E-02
 -1      4101-1.09795E+01-2.59023E-01-9.91415E-01 6.91499E-01 4.46900E-01-3.48181E+00
 -1      4102-7.84167E-01-1.35083E-01-3.41729E-01 9.50460E-02-4.81682E-02-2.17204E-01
 -1      4103-1.02878E+00-5.95107E-01-2.40041E+00-2.44810E-01-4.42430E-01-9.15902E-01
 -1      4104 1.43670E-01 2.73846E-01 5.45187E-01 1.03446E-01 3.07439E-01 3.58918E-01
 -1      4105-6.57735E-02 2.13829E-01 1.26654E-01 1.26022E-01 1.12752E-01 2.55270E-01
 -1      4106 2.77019E-01 4.85467E-01 2.87688E+00-2.81799E-01-3.88537E-01 1.09960E+00
 -1      4107-8.92714E+00-2.19013E+00-5.33060E+00-4.01841E-01 3.27672E-01-5.57827E+00
 -1      4108 3.09181E-01-3.72936E-01-8.82071E-01-3.91277E-02-4.77009E-02-2.50090E-01
 -1      4109-1.91324E-02 5.65762E-01 1.14421E+00 7.14103E-01 6.78675E-01 6.11488E-01
 -1      4110 3.83344E-02 6.47982E-01 1.07992E+00 7.15080E-01 6.93805E-01 6.09794E-01
 -1      4111-3.13092E+00 2.71953E-01 2.39286E-01-7.50052E-01 5.41173E-01 5.14956E-01
 -1      4112 7.00195E+00 6.97235E-01-1.28789E+00 7.70154E-01-6.94611E-01 2.43725E+00
 -1      4113 2.85204E-02 9.42832E-03-5.17814E-01-4.98143E-03-1.15839E-01-2.74789E-01
 -1      4114 5.81139E-02-1.13213E+00-6.58878E-01-1.42072E-01-6.91166E-01-5.67261E-02
 -1      4115-4.88851E-01-2.44449E-01-7.37917E-01-3.15174E-04 6.55224E-03-2.96621E-01
 -1      4116-4.22783E-01-1.38569E-01-7.97851E-02 1.33326E-02 3.82440E-03-1.26739E-01
 -1      4117-1.25425E+00-1.20735E-01 2.25077E+00-3.06776E-02-3.59095E-01 2.96357E+00
 -1      4118-1.64004E+00-4.95937E-02 2.29482E+00-5.68716E-02 1.92284E-01 2.68780E+00
 -1      4119-2.24690E+00-5.26721E-01 1.13071E+00-1.82390E-01 5.53756E-01 3.05459E+00
 -1      4120 1.49410E-02-1.91744E-01 8.51841E-03 1.64496E-02 4.54603E-02-1.12376E-04
 -1      4121 4.59761E-03-5.59962E-02 3.46562E-03 1.83859E-02 9.78762E-03-2.50472E-03
 -1      4122 1.93212E-03-1.08377E-01 3.05604E-03 1.59388E-02 4.79557E-02-1.45022E-02
 -1      4123-2.96769E-04-7.09648E-02 2.52476E-03 3.06725E-02 2.05395E-02-1.73321E-02
 -1      4124-4.14668E-01-1.07973E-01-9.47818E-02-9.63627E-02-7.78752E-02-3.79564E-02
 -1      4125-2.71961E-01-4.36296E-02-2.35303E-02-2.10919E-02-3.70819E-02 2.32559E-02
 -1      4126 3.78149E+00 8.39412E-01-2.03503E-01-7.52489E-03-3.67565E-02 3.58322E+00
 -1      4127 7.75980E+00-3.34555E-02 1.56903E+00 3.37214E-02-3.84251E-02 5.13032E+00
 -1      4128 3.38392E-02 1.80270E-01 6.93290E-02-5.33123E-03 1.13169E-01 9.98360E-02
 -1      4129 8.26081E-02 3.26495E-01 2.37847E-01 1.21044E-01 1.67031E-01 2.39836E-01
 -1      4130-6.77368E-03 2.10513E-01-9.98581E-03 5.92913E-02 2.47531E-02 1.10094E-01
 -1      4131-4.62826E-02 2.72904E-02 3.30496E-03 6.02516E-02-1.57060E-02 2.11460E-02
 -1      4132-9.18524E-02 3.01901E-02-5.59124E-03 1.11569E-01-4.15815E-02 6.85884E-02
 -1      4133-1.68637E+00-6.61588E-02 2.37893E+00 3.45072E-02-8.46164E-02 2.71060E+00
 -1      4134 3.04584E-03-5.04088E-02 4.03116E-03-1.67369E-02-6.30190E-03-2.84202E-03
 -1      4135 1.33070E-02-1.85768E-01 1.90921E-02-2.01549E-02-4.15870E-02-8.88453E-03
 -1      4136-4.70474E-03-7.84822E-02-5.78891E-03-2.63287E-02-2.68621E-02-1.34507E-02
 -1      4137 1.83929E-03-1.05258E-01 2.19786E-03-1.81799E-02-4.88629E-02-1.31876E-02
 -1      4138-1.47037E-01 7.29461E-02-7.31260E-03 3.95846E-02-1.49848E-02 9.74998E-02
 -1      4139-9.22278E-02 2.28679E-02-2.80658E-02-1.70625E-02-2.11787E-02-3.07779E-03
 -1      4140-1.61230E-01 2.39085E-02-1.62640E-02-2.08293E-02-5.43280E-02 3.34510E-02
 -1      4141-7.47933E-02 2.38547E-01-7.17997E-02 2.03012E-02-3.28600E-02 3.39135E-03
 -1      4142-2.69435E-02 4.74596E-02-3.41727E-01 3.08254E-03-1.30337E-02-2.43991E-01
 -1      4143-1.13940E-01-3.02167E-02-8.01242E-03-1.52420E-02-2.68533E-02 1.25155E-02
 -1      4144-1.09319E-01-2.11984E-02-1.35149E-02-2.85089E-02-5.00801E-02 4.25416E-03
 -1      4145-7.39772E-02-3.45579E-02-7.03031E-03-2.21200E-02-1.93291E-02 3.90832E-03
 -1      4146-7.76575E-02 4.13525E-03-2.21523E-02-4.13454E-03-3.57924E-02 1.62737E-02
 -1      4147 2.06877E-01 5.53176E-01 1.58551E+00-7.15718E-01-7.07812E-01 8.71240E-01
 -1      4148-4.23355E-01 4.47291E-01-8.86463E-02-1.72604E-02 3.60685E-02-2.39491E-01
 -1      4149 4.06572E+00-1.91595E-01-8.04939E-01 3.85031E-01 4.80582E-01-2.35622E+00
 -1      4150 7.28371E-02-7.72704E-02-6.16468E-01-3.24061E-02-1.97651E-01-3.29306E-01
 -1      4151-4.31427E-01-1.18787E-01-3.50514E-02-1.48926E-02-1.51943E-02-1.10037E-01
 -1      4152-5.95533E-01-5.35742E-02 3.26714E-01 1.03211E-02 3.96025E-02 6.88255E-02
 -1      4153-2.54585E-02 1.71891E-01 1.74028E-01 3.08009E-02 1.12160E-01 1.36119E-01
 -1      4154-3.81390E-02 1.53830E-01 4.25530E-01 2.98075E-02 1.74828E-01 2.07566E-01
 -1      4155-3.91435E-04 3.11923E-02 6.02317E-04 6.71549E-03-1.12200E-02-1.40355E-03
 -1      4156 1.52747E-05 4.75415E-02 2.67240E-04 1.20622E-02-1.39151E-02-1.35147E-03
 -1      4157-3.94952E-01-1.84071E-01-2.17914E+00 1.34953E-01-6.21699E-01-2.71784E+00
 -1      4158-2.36470E-01-1.32146E-01 8.83247E-02 1.05762E-01-6.07548E-01-1.50839E+00
 -1      4159-8.64158E-02 6.92697E-02 2.22831E+00-4.40116E-03-9.90407E-02-1.74923E+00
 -1      4160-9.90468E-01-6.64354E-02-1.65650E+00 1.60930E-01-6.32973E-01-2.83253E+00
 -1      4161-7.85813E-01-3.61022E-02 9.06531E-01 1.82688E-01-6.65106E-01-1.47653E+00
 -1      4162-1.00601E+00-1.79344E-01-3.72092E+00 4.54068E-01-1.18229E+00-2.58790E+00
 -1      4163-3.68752E+00 3.85158E-01 4.94616E-01-1.35288E-02 7.37602E-01 1.23721E+00
 -1      4164 2.13873E+01 1.87922E+00-2.16504E-01 1.96470E+00 4.99692E-01 2.99016E+00
 -1      4165 1.37769E+01 1.33491E+00 1.51024E-02 1.63039E+00 5.13765E-01 4.51630E+00
 -1      4166 1.04446E+01 4.40189E-01 8.91391E-01-1.38551E-01-1.26926E-01 5.27224E+00
 -1      4167-2.03192E+00 1.81315E-01 2.94233E-01-1.56123E-01-7.51110E-01 2.83577E+00
 -1      4168-2.09614E+00 2.00438E-01 1.89650E+00 3.33548E-02 1.38186E+00 2.28360E+00
 -1      4169 2.70483E-02 1.60960E-01 1.18780E-03 8.05491E-03 3.55953E-02 6.12159E-02
 -1      4170-5.21524E-02 8.09599E-02 2.26026E-02 1.00390E-01-1.67959E-02 5.36928E-02
 -1      4171-5.92925E-03-6.30839E-02-2.12974E-03-3.51099E-02-3.33900E-02-1.17462E-02
 -1      4172-2.06202E-02-1.34138E-01 6.75427E-03-4.41334E-02-7.65856E-02-2.26814E-02
 -1      4173-1.93866E-01 5.67693E-02 1.41057E-02 1.17476E-01-1.26637E-02 8.25314E-02
 -1      4174-2.22691E-01 5.50612E-02-8.17750E-03 1.33694E-01-1.75281E-02 8.30989E-02
 -1      4175-2.46885E-01-2.94655E-02-1.19109E-02 4.62527E-02-4.31046E-02 2.01375E-02
 -1      4176 1.25154E-01 1.51475E-01 2.59905E+00-3.71882E-01-2.40521E-01 1.01060E+00
 -1      4177 4.72305E-01-1.54144E-01-1.01034E+00 6.44507E-02 7.15409E-02-2.78571E-01
 -1      4178 3.89817E+00-6.53059E-01-1.43009E+00-8.57868E-01-4.55243E-01 6.86030E-01
 -1      4179 3.60866E+00 2.81536E-02-1.19216E+00-2.63687E-01-4.69663E-01-1.41276E+00
 -1      4180-3.75930E-01 4.27455E-02 7.75076E-02-2.25181E-01-2.40140E-02 1.53691E-01
 -1      4181-2.21309E-01 1.39525E-01 7.99282E-02-3.32237E-01-4.47539E-02 1.43655E-01
 -1      4182-9.95442E+00-1.79788E+00-4.55554E+00 2.05250E-02 3.66485E-02-3.97699E+00
 -1      4183-7.15822E-01 9.05350E-01-6.85390E+00 2.57437E-01-3.98820E-01-1.16237E+00
 -1      4184-1.37543E+00 3.36543E-01-9.45532E+00 1.50725E-01-1.48532E-01-2.49888E+00
 -1      4185-1.30008E+00 4.05572E-01-9.78467E+00-3.23876E-01 6.49678E-01-2.53835E+00
 -1      4186-7.67116E-01 8.02378E-01-7.12495E+00-2.46794E-01 3.38838E-01-1.22789E+00
 -1      4187-2.94927E-02-1.34956E-01-3.30253E-03-4.10014E-02-1.87863E-02-1.16542E-02
 -1      4188-5.15649E-01 2.47843E-01 7.01401E-01 3.46241E-01 2.97575E-01 3.63236E-01
 -1      4189-7.68401E-01 2.60584E-02 2.19746E-01 1.83739E-01 6.95731E-02 1.29040E-01
 -1      4190-6.94143E-02 3.36641E-02-2.37769E-02-7.78379E-03-4.78273E-03 2.68483E-02
 -1      4191-7.72429E-02 1.10824E-01 2.60808E-02 2.25988E-02 5.19958E-02 8.60532E-02
 -1      4192-4.11225E-02 3.88629E-02-1.90471E-02 8.92701E-04 2.40799E-03 3.31513E-02
 -1      4193-8.55226E-02 6.38301E-02-3.04716E-02 3.43571E-02-2.79106E-02 6.88035E-02
 -1      4194-4.69159E-01-5.37750E-01-1.73567E+00 1.57497E-01 4.57977E-01-4.38546E-01
 -1      4195-2.83452E-01-4.97207E-01-2.34164E+00 2.05517E-01 5.33461E-01-5.41448E-01
 -1      4196-1.02015E-01 3.22377E-01-8.74838E-02 6.33858E-03-2.81883E-03-9.61859E-03
 -1      4197-8.91249E-02-4.63183E-01-3.96878E+00 1.00955E-02 1.04246E-01-2.70111E-01
 -1      4198-8.57372E-02-4.36368E-01-3.88234E+00-1.70038E-02-1.06096E-01-2.79771E-01
 -1      4199-5.56313E-02-8.12775E-02-3.35705E-02-4.31897E-02-1.13715E-01-5.18758E-02
 -1      4200-1.02834E+00-4.70358E-02 8.16028E-01-4.66526E-01 8.71652E-01-1.22450E+00
 -1      4201 6.31627E-03-9.74112E-03-5.23602E-03-2.02729E-02-1.09750E-03-1.17427E-02
 -1      4202 3.08547E-03-4.18432E-02-1.80080E-02-1.18455E-02-4.34360E-02-2.54745E-02
 -1      4203-2.00785E-02 8.74648E-02 1.04821E+00 3.96500E-03 5.95931E-02 3.63535E-01
 -1      4204-2.75967E-01 7.29020E-02 1.03456E+00 9.67534E-02 1.78670E-01 4.03550E-01
 -1      4205-4.15287E-02-2.13599E-01-9.09999E-02 1.64097E-02 2.58522E-01-1.60578E-02
 -1      4206 2.90202E-03-1.70157E-01 1.93311E-02 6.27866E-03 1.09947E-01-1.07192E-02
 -1      4207-5.24424E-02 1.36790E-01 6.28255E-01 2.77824E-02 1.25388E-01 1.62589E-01
 -1      4208-1.26013E-01 4.25425E-02 8.27411E-01-1.02900E-02-1.85522E-03 2.33103E-01
 -1      4209-4.26415E-01 2.31118E-02 7.96950E-01 4.69976E-02 8.34239E-02 2.77840E-01
 -1      4210-2.51090E-01 5.69689E-03 2.90952E-01-2.45069E-03 5.43203E-02-7.98250E-03
 -1      4211 6.78808E+00 5.94827E-01-1.23531E-01 7.25882E-01-1.37900E-01-1.83023E+00
 -1      4212 5.77364E-02-1.49129E-01-1.02005E+00 2.64605E-01-3.27926E-01-5.11133E+00
 -1      4213-1.20034E-02 3.76343E-03-6.63230E-01 1.18881E-01-8.73813E-02-3.71388E+00
 -1      4214-6.73172E+00-5.71630E-01-9.67731E-01-2.69274E-01-2.63062E-01-2.23406E+00
 -1      4215-2.45728E+00-5.43873E-02 1.73631E+00-6.72985E-01 1.76644E+00 7.04006E-01
 -1      4216-6.17578E-01-7.31436E-01-2.74312E+00-6.09606E-02-3.70859E-01-3.58330E-01
 -1      4217-6.22714E-01-7.56565E-01-2.98853E+00 1.42569E-02-2.20460E-01-3.08509E-01
 -1      4218 5.82740E-02 5.42494E-01 1.70794E+00-6.37783E-01-1.09248E+00 5.06248E-01
 -1      4219 1.40259E-01 8.26022E-02 3.17464E+00-4.33790E-01-5.79119E-01 6.65597E-01
 -1      4220-6.98966E-01 3.51789E-02 3.76678E+00-9.50259E-02-1.02315E-01-1.22370E+00
 -1      4221-1.49250E-01 7.50146E-02 2.98363E-02 2.72852E-01-5.94093E-03 9.29511E-02
 -1      4222-1.53368E-01 1.48114E-01 2.22081E-01 3.18551E-01 5.56011E-02 1.89962E-01
 -1      4223-1.33975E-01 8.61567E-02 1.18272E-02 2.85257E-01-2.70975E-02 8.75597E-02
 -1      4224 1.29267E-01 6.38925E-02 3.03067E+00 4.31163E-01 6.35921E-01 6.68640E-01
 -1      4225-1.72989E-01-5.33090E-02-6.38786E-02-5.43223E-02-9.68158E-02-5.61879E-02
 -1      4226-1.74948E-01-4.58653E-02-2.04907E-02-5.67424E-02-5.79714E-02-3.89673E-03
 -1      4227-8.55044E-02-5.68199E-02-4.30963E-02-4.59358E-02-9.35967E-02-5.39385E-02
 -1      4228-1.26388E-01-1.10784E-01-7.20289E-02-9.44483E-02-1.29246E-01-8.74200E-02
 -1      4229-1.28391E-01-9.94656E-02-1.68590E-02-9.66347E-02-7.76507E-02-2.89097E-02
 -1      4230-2.42889E-01-9.27693E-02-3.50114E-02-1.05863E-01-7.57083E-02-2.46879E-02
 -1      4231-7.13719E-02-6.16688E-03-3.35050E-02-1.24167E-02-4.70334E-02-1.03399E-02
 -1      4232-1.54787E-01-6.26502E-01-3.36227E+00 1.61786E-02 5.16714E-01-4.15769E-01
 -1      4233-3.14329E-01-1.09106E+00-3.81115E+00 2.53629E-01 9.32480E-01-7.79504E-01
 -1      4234-7.21135E-02-5.76253E-01-2.61721E+00 1.74989E-01 7.47990E-01-2.86352E-01
 -1      4235-4.96687E-01-1.12211E+00-2.23073E+00 5.88936E-01 1.22024E+00-9.13766E-01
 -1      4236-2.23610E-02-1.01575E-01-2.78512E-02 1.96938E-02 1.25563E-01-3.62871E-02
 -1      4237-4.29832E-03-5.05301E-02-2.66608E-02 1.51088E-02 4.99896E-02-2.83813E-02
 -1      4238-1.78341E-01-2.85215E-02-6.32567E-03 6.25370E-02-3.61885E-02 2.68409E-02
 -1      4239-7.32029E-02-3.11104E-02-3.41211E-02-3.83793E-02-6.22095E-02-3.98944E-02
 -1      4240-1.41050E-01-5.08213E-03-3.75779E-02-4.05957E-02-5.56257E-02-2.59114E-02
 -1      4241 9.72892E+00 5.29745E-01-1.09990E+00-5.70247E-01 2.76242E-01-3.13278E-02
 -1      4242 9.60398E+00 3.44543E-01-1.19572E+00-3.98997E-01 1.81844E-01 1.31121E+00
 -1      4243 9.34510E+00 8.74871E-01-1.32335E+00-1.02483E+00 9.25046E-01-2.42084E-01
 -1      4244 9.02859E+00 8.87117E-01-1.18382E+00-8.20794E-01 7.89175E-01 1.07223E+00
 -1      4245-4.58762E+00-4.84743E-01-8.89569E+00-1.52861E-03 3.27502E-02-3.59412E+00
 -1      4246-5.53377E+00-5.17115E-01-9.19500E+00 1.30772E-02 5.25096E-02-5.36345E+00
 -1      4247 4.31979E+00-1.17687E-01-6.84721E-01 5.92235E-01 2.69292E-01-2.07264E+00
 -1      4248 3.54105E-03 5.41570E-02-5.28929E-04 1.33449E-02-2.71938E-02-4.89188E-03
 -1      4249-4.22570E+00 1.87303E-01-3.21544E-01-3.69795E-01 1.03184E-01-2.21057E+00
 -1      4250-8.36030E-01 9.39886E-02 4.43987E+00-7.66416E-02-3.22700E-01-7.65047E-01
 -1      4251-8.60465E-01 8.48456E-02 1.92269E+00 1.62309E-01-7.63193E-01-1.20279E+00
 -1      4252-2.19639E-01 3.68862E-01-1.37552E-01-2.21485E-02 4.42206E-02-2.00244E-01
 -1      4253-2.38410E-02 4.63716E-01 1.12551E+00-6.81433E-01-6.11415E-01 6.80795E-01
 -1      4254-2.89492E-01 3.87996E-02 1.16985E-01 3.04009E-01 3.09275E-02 2.22541E-01
 -1      4255-2.99808E-01-9.31238E-02-2.01320E-01-1.12114E-01-1.47123E-01-1.85114E-01
 -1      4256-2.08174E-01-4.12054E-02-9.64682E-02-6.11445E-02-9.85750E-02-8.21050E-02
 -1      4257-7.95854E-02-1.98890E-02-5.69150E-01-9.48134E-03 8.79555E-02-2.10697E-01
 -1      4258-9.87709E-02 1.11454E-01-2.38955E-01-5.59702E-03 7.67950E-02-2.04098E-01
 -1      4259 1.25014E+01 1.03749E+00-1.27533E+00 1.57289E+00-1.46782E-02 1.40633E+00
 -1      4260 9.09297E+00 1.14367E+00-1.07539E+00 2.32299E+00-6.68700E-01 2.39417E+00
 -1      4261-1.73759E-01-1.20411E-01-1.23814E-01-1.08995E-01-1.33286E-01-1.29749E-01
 -1      4262-1.90241E-01-6.43821E-01-2.73849E+00-1.09310E-02 7.03493E-01-1.29463E-01
 -1      4263-5.14749E-01-6.56008E-01-1.95362E+00 1.47679E-01 6.31106E-01-3.26997E-01
 -1      4264-3.54872E-01-6.50280E-01-1.89228E+00 1.25266E-01 7.49051E-01-1.00978E-01
 -1      4265-3.28420E-03-6.34316E-02 2.90973E-03 3.43276E-02 2.55074E-02-1.01029E-02
 -1      4266-3.06741E+00 2.63796E-01 2.59425E-01 7.97295E-01-5.18294E-01 5.31005E-01
 -1      4267-1.16903E-01-2.02316E-02-1.18017E-02 2.63555E-03-2.71600E-02 1.31727E-02
 -1      4268-6.70507E-02-2.70957E-02-5.99348E-03-4.33483E-03-1.74024E-02 6.12959E-03
 -1      4269-1.42931E-01-1.07966E-01-1.49954E-02 9.49018E-02 3.38260E-02-1.83256E-04
 -1      4270-2.84573E+00 5.33880E-01-8.01907E+00-1.18978E-01 2.32574E-01-2.30358E+00
 -1      4271-2.37333E+00 3.19796E-01-8.12819E+00-3.13733E-01 8.84403E-01-2.81316E+00
 -1      4272-5.72181E-01-1.10062E-01-1.65441E-01-1.00501E-01-1.00879E-01-9.57177E-02
 -1      4273-6.45334E-01-4.77982E-02-2.78085E-01-9.72296E-03-2.52216E-02-2.49871E-01
 -1      4274 8.46920E-01 5.40208E-01 2.39989E+00-1.03278E+00-1.71372E+00 3.39667E+00
 -1      4275 1.76913E-01-1.54826E-01-6.19774E+00 3.39856E-02 1.18828E+00-1.69849E+00
 -1      4276-1.94792E-01-2.35599E-01-4.62790E+00-2.20153E-01 8.53792E-01-2.73607E+00
 -1      4277 8.30852E-01 6.02351E-01 2.31347E+00 1.04747E+00 1.66758E+00 3.34210E+00
 -1      4278 1.54817E-01-1.47524E-01-6.19604E+00-2.57876E-02-1.18017E+00-1.69333E+00
 -1      4279-1.11369E-01-2.15744E-01-4.57914E+00 1.83855E-01-8.68625E-01-2.74520E+00
 -1      4280-3.87939E-01-1.64234E+00-2.37655E+00 4.78341E-01 1.58139E+00-6.20238E-01
 -1      4281 5.78960E-04 5.01118E-02 1.41149E-03-1.08242E-02 1.42935E-02-9.35566E-04
 -1      4282-1.68584E-03 5.59137E-02 1.53468E-03-1.36493E-02 2.94663E-02-3.60923E-03
 -1      4283 2.90970E-01 5.16639E-02-3.33421E-01 9.02283E-02 4.07294E-02-4.16990E+00
 -1      4284-4.99457E-01 1.44537E-01-5.28108E-03 6.44370E-02-4.87965E-02-2.88343E-01
 -1      4285-8.76334E-01 2.11161E-01 2.80237E-02 1.89939E-01-4.43819E-02-2.86025E-01
 -1      4286-4.29540E-01 1.10660E-01-1.33670E-01 6.72446E-02-1.02219E-01-5.69461E-01
 -1      4287-4.94130E-01 2.40146E-01-7.54977E-02 1.28539E-01-5.09463E-02-3.34432E-01
 -1      4288 1.09799E+01 1.04232E+00-9.89340E-01 2.32205E+00-6.93128E-01 6.13970E-01
 -1      4289-8.47137E-03-1.38177E-01-1.73788E-02 3.27758E-03 1.79609E-01-6.97791E-03
 -1      4290-1.79690E-02-1.18827E-01-3.50973E-02 1.56842E-02 1.55268E-01-2.22126E-02
 -1      4291-3.42707E-01-1.04071E+00-3.84713E+00-2.33600E-01-7.82519E-01-8.49719E-01
 -1      4292-2.03444E-01-6.12693E-01-3.26704E+00-2.36337E-02-5.00898E-01-4.04414E-01
 -1      4293-1.53374E-02-1.24407E-01-3.08470E-02-2.62774E-02-1.49658E-01-4.24748E-02
 -1      4294-5.18759E-02-2.41519E-01-9.11065E-02-7.92138E-02-2.11361E-01-6.27980E-02
 -1      4295 8.31837E-03-7.12337E-03-5.16245E-03 1.92464E-02 9.56947E-04-1.04194E-02
 -1      4296 4.63017E-03-5.10478E-02-1.36169E-02 1.40208E-02 3.88256E-02-2.58577E-02
 -1      4297 4.64078E-02 2.31649E-01 3.30014E-01 8.68723E-02 2.23776E-01 2.68602E-01
 -1      4298 8.91420E-03 1.46875E-01 5.55112E-02 1.90011E-02 8.96551E-02 1.18859E-01
 -1      4299-3.16043E-02 1.87974E-01 5.94129E-02-7.91593E-02-4.03398E-02-3.44354E-03
 -1      4300-6.38090E-02 4.25908E-02 5.46846E-02-1.58477E-01 3.42928E-02 9.80972E-02
 -1      4301-1.97886E-02-2.55086E-02-9.94561E-02 2.90787E-03 9.34836E-02-2.85272E-02
 -1      4302-1.42483E-02-1.99032E-02-7.27633E-02 3.67346E-04 8.90932E-02-3.29547E-02
 -1      4303-1.57677E-02-1.05969E-01-3.04945E-02 1.71662E-02 1.33917E-01-2.95665E-02
 -1      4304-1.48357E-03-5.75995E-02-5.57361E-02 1.08876E-02 7.25371E-02-2.85391E-02
 -1      4305-1.23360E-02-9.04285E-02-3.59705E-02 1.10507E-02 1.28822E-01-2.26858E-02
 -1      4306-2.65377E-01 6.97263E-02 5.87138E+00-3.07751E-01-3.69149E-01 2.84910E+00
 -1      4307-4.52139E-01 2.79454E-01 4.42124E+00-4.85417E-01-4.31655E-01 2.96494E+00
 -1      4308 3.94750E-02 1.32395E-01 2.12144E-02 7.20745E-03 7.69293E-02 5.83889E-02
 -1      4309-2.78022E-01-6.63642E-03 3.80920E-01-1.40287E-02-1.11426E-02 2.30125E-02
 -1      4310-7.55109E-01 2.66164E-01-7.81371E-01-5.48973E-01 7.00803E-01-1.38452E+00
 -1      4311-3.17066E+00-1.52002E-01-3.90031E+00-6.89924E-01 8.76489E-01-2.44924E+00
 -1      4312 1.30254E-01 6.07864E-01 1.23492E+00 6.31111E-01 1.10906E+00 4.57505E-01
 -1      4313-5.95604E-01-7.72308E-01-3.12543E+00-8.94397E-03 9.09511E-02-2.29633E-01
 -1      4314-6.39078E-01-7.92178E-01-3.11197E+00 2.84911E-03-8.55312E-02-2.22279E-01
 -1      4315 7.33745E+00 6.45848E-01-5.74204E-01-7.73169E-01 5.25445E-01-1.70116E+00
 -1      4316-2.18365E-02-1.34446E-01-4.50649E-02-1.70363E-02-1.57093E-01-2.35336E-02
 -1      4317 6.81621E+00 6.69962E-01-1.19111E+00-8.62926E-01 5.14137E-01 2.38561E+00
 -1      4318 8.66049E-02 1.79994E-01 1.25974E+00 5.83236E-03 1.07615E-02 4.65651E-01
 -1      4319 9.96883E-03-3.23423E-03-5.04851E-03-1.17988E-02-4.32447E-04-1.60181E-02
 -1      4320-1.47755E-04-6.07554E-02-4.94555E-03-2.43190E-02-3.35590E-02-1.19589E-02
 -1      4321-1.49369E-01-3.20415E-02-9.34487E-03 3.28051E-03-3.29466E-02 2.10402E-02
 -1      4322-1.43894E-01-6.18644E-02-4.57453E-03-3.33566E-02-3.31855E-02 3.31884E-03
 -1      4323 6.12807E-02 4.98343E-01 2.93388E+00-3.43972E-01-2.67751E-01 8.37019E-01
 -1      4324 1.22988E-01 6.55687E-01 2.94391E+00 3.72536E-01 2.77576E-01 7.83860E-01
 -1      4325-1.06125E-02-7.83574E-02-2.04197E-03-4.88662E-02-2.82085E-02-7.57082E-03
 -1      4326-2.15796E-03-8.32059E-02-5.67126E-03-3.54250E-02-2.56794E-02-8.26415E-03
 -1      4327-1.89704E-02-1.87909E-01-7.39976E-03-7.90691E-02-3.96933E-02-1.19499E-02
 -1      4328 2.18207E+01 1.46978E+00-2.50944E-01-2.10360E+00-4.36371E-01 3.32262E+00
 -1      4329 2.14922E+01 2.51765E+00 3.04044E-01-2.76651E+00-7.58678E-01 2.96296E+00
 -1      4330 3.95157E-01 5.29368E-01 2.57140E+00-5.83739E-03 2.69881E-01 5.14759E-01
 -1      4331 2.52102E-01 2.66233E-01 2.69783E+00 9.94801E-03 1.60201E-02 4.49334E-01
 -1      4332 1.26219E-01-8.72268E-02 3.19874E+00 1.36160E-02 9.74409E-03 4.94615E-01
 -1      4333 5.39418E-01 3.57987E-01 2.36461E+00 4.29432E-03 1.56258E-02 7.65917E-01
 -1      4334-6.35226E-01 4.48408E-01-6.65708E+00-8.32283E-03-8.14946E-03-8.75957E-01
 -1      4335-5.02548E+00-8.23265E-02-7.96882E+00 4.60227E-01 3.95966E-01-3.39764E+00
 -1      4336-2.95123E+00 2.41731E-01 1.74288E+00 4.60654E-01 2.33064E-01 1.49305E+00
 -1      4337-7.32348E-02 1.30980E-01 4.77146E-01-2.93648E-02 8.48118E-03-1.81307E+00
 -1      4338-9.88313E-01-6.01190E-01-2.43216E+00 2.08314E-01 4.31301E-01-8.98816E-01
 -1      4339-2.23731E-01-4.01945E-02-1.65815E-02-1.89768E-02-3.64332E-02 1.65694E-02
 -1      4340-1.52140E-01-5.68189E-01-3.55150E+00-4.81557E-02-3.99276E-01-4.11555E-01
 -1      4341-5.05403E-01-8.02591E-01-3.17606E+00-3.49915E-02-4.90503E-01-9.69603E-02
 -1      4342-9.06046E-03-2.06401E-03-1.39243E-02 1.11593E-04 1.20033E-02-3.70768E-02
 -1      4343-1.94929E-02-1.70176E-02-1.33657E-02 9.78505E-03 2.62760E-02-2.53119E-02
 -1      4344-1.92953E-02-9.09328E-03-8.97015E-03 1.03233E-02 1.71652E-02-2.44248E-02
 -1      4345-2.15012E-02-1.72262E-02-3.10595E-02 8.91600E-03 3.08498E-02-3.26683E-02
 -1      4346-3.20289E-01 3.73217E-02 1.65967E-01-3.41365E-01-1.33687E-01 2.37516E-01
 -1      4347-1.29783E-01 1.23223E-01 9.19574E-02-3.48052E-01-1.86303E-03 1.50900E-01
 -1      4348-2.31436E+00-8.27971E-02 1.05437E+00-8.57702E-02-2.19287E-02 8.10504E-01
 -1      4349-2.18116E+00-1.12349E-01 1.60726E+00-9.91248E-02 8.57565E-02 1.71431E+00
 -1      4350-2.32280E+00-9.81573E-02 1.04665E+00 7.88539E-02 2.54201E-02 7.87862E-01
 -1      4351-2.17394E+00-8.52765E-02 1.71193E+00 1.23352E-01-9.99478E-02 1.70615E+00
 -1      4352-1.64708E+00-2.37874E-01 1.59218E-01 1.00278E+00-1.09098E+00-1.08574E+00
 -1      4353-1.67325E-02 4.41510E-01 3.26668E-01 1.72960E-02-3.66533E-01 6.67123E-02
 -1      4354 2.61968E-02 4.97178E-01 1.64602E-01-2.87614E-02-1.71201E-01 7.52847E-02
 -1      4355-2.30473E-01-8.48267E-02-2.17318E-02 1.16443E-01 5.20905E-02-1.17764E-02
 -1      4356-5.80868E-02 1.66226E-02-2.71646E-02-6.67928E-03-2.53085E-02 8.65467E-03
 -1      4357-3.31535E-02 3.50974E-04-2.52966E-02-8.78977E-03-1.91780E-02-3.81180E-03
 -1      4358-2.84914E-01-6.97410E-01-3.31370E+00-8.37099E-03 3.87645E-01-8.92941E-02
 -1      4359-4.58492E-01-7.96051E-01-3.22948E+00 2.68247E-02 4.81719E-01-1.00705E-01
 -1      4360-1.47261E-01-5.76669E-01-3.61051E+00 3.56623E-02 4.08784E-01-4.18943E-01
 -1      4361-2.78870E-01 9.49832E-02-1.94010E-01 3.86743E-02-1.54741E-01-7.38518E-01
 -1      4362-1.23797E-01-1.71007E-02-1.42764E-02 3.30204E-02-3.17616E-02 1.98778E-02
 -1      4363-2.52571E-01 1.60437E-01-6.49216E-02-5.53992E-02 1.70352E-01-2.48089E-01
 -1      4364-1.33039E-01 1.70926E-01-7.86455E-02-4.56203E-02 1.74268E-01-2.04975E-01
 -1      4365-1.48917E-01 7.84861E-02-2.36996E-01-4.92802E-03 2.36609E-01-4.12557E-01
 -1      4366-2.63918E-01 2.62192E-01-1.40427E-01-7.10765E-02 5.82982E-02-2.31861E-01
 -1      4367 1.36298E+01 1.25060E+00-6.91573E-02-1.66057E+00-4.47543E-01 4.52089E+00
 -1      4368-1.04072E+00 4.20917E-03-9.45597E+00-4.26807E-01 1.10496E+00-2.33772E+00
 -1      4369-3.18542E-01 2.00878E-01 4.34978E+00 4.82961E-01 4.05483E-01 2.93734E+00
 -1      4370-3.07107E-01 7.04211E-02 5.91023E+00 3.37493E-01 3.31329E-01 2.82949E+00
 -1      4371-9.80951E-01 1.92193E-02 3.91339E+00 2.70437E-01 7.65400E-01 1.13987E+00
 -1      4372-5.47447E-02-5.95194E-01-2.46772E+00-1.48267E-01-8.33527E-01-2.33033E-01
 -1      4373-4.71779E-01-6.17477E-01-2.61480E+00 2.29270E-02 4.58421E-01-3.75075E-01
 -1      4374-3.68232E-01-3.08630E-01-6.52878E-01 3.23407E-01-7.24773E-01-1.41454E+00
 -1      4375-7.55597E-01-1.39464E-01 2.28132E-01 4.35509E-01-7.49706E-01-1.50706E+00
 -1      4376-2.10437E-01 1.18618E-01 1.48483E-01 2.58417E-01 6.40745E-02 2.08288E-01
 -1      4377-3.06238E-01 1.40467E-01 2.07465E-01 2.25760E-01 9.18213E-02 1.86940E-01
 -1      4378 9.47784E-03-1.51354E-05-5.14234E-04-1.85449E-03-1.61810E-03-1.47898E-02
 -1      4379 9.71369E-03-1.66951E-03-3.82048E-03-9.70988E-03-2.83316E-03-1.65235E-02
 -1      4380 9.77381E-03-3.64361E-02-2.14729E-02-9.86748E-03-5.00410E-02-2.60161E-02
 -1      4381-3.63495E-03-6.16822E-02-5.40917E-03-1.59838E-02-3.35003E-02-1.28938E-02
 -1      4382-4.16999E-02 9.88783E-02-1.18637E-02 2.52131E-02 3.80547E-02 6.42222E-02
 -1      4383 2.23040E+00 1.80949E-01-2.76872E+00-3.56525E-01 6.68150E-01 1.87866E+00
 -1      4384-3.23722E-02-1.04302E-01-2.95934E-02-3.33683E-02-1.28261E-01-3.47401E-02
 -1      4385-3.38857E-02-1.20750E-01-3.57815E-02-4.07384E-02-1.49473E-01-4.14605E-02
 -1      4386-1.01029E-02-1.84580E-02-8.42907E-02 1.54738E-03-6.09316E-02-3.49023E-02
 -1      4387 3.97561E-03-1.10089E-02-5.44683E-02 1.16790E-03-6.75171E-02-2.89499E-02
 -1      4388-1.09680E-02-7.62789E-02-4.18147E-02-1.37167E-02-1.14419E-01-2.83725E-02
 -1      4389-1.07232E-02-9.18535E-02-3.44669E-02-1.08461E-02-1.23142E-01-2.21842E-02
 -1      4390 6.72948E-02 2.36623E-01 3.87421E-01 4.30647E-02 1.78329E-01 2.31784E-01
 -1      4391-7.13439E-04 2.28012E-02-4.84430E-03-1.48038E-02 2.39137E-02-1.12481E-02
 -1      4392-6.34574E-02 2.83284E-01 2.35953E-01 1.77787E-01 1.58745E-01 2.97344E-01
 -1      4393 9.70546E-03 5.29345E-05-4.97905E-03 1.18797E-02-2.47787E-04-1.47799E-02
 -1      4394 1.19637E-03-5.41307E-02 1.39975E-03 2.57284E-02 2.25161E-02-1.52645E-02
 -1      4395-8.52698E-02 9.19265E-03-3.81540E-02-1.31666E-02-4.20148E-02-9.66732E-03
 -1      4396 7.11360E-03-4.80213E-03-4.72141E-02 1.29079E-03 6.53402E-02-2.88897E-02
 -1      4397 4.86235E-03-4.87912E-02-2.12687E-02 7.07120E-03 5.03733E-02-2.83588E-02
 -1      4398-1.22072E-01-6.54443E-02 1.36948E-03-6.28063E-02-2.72517E-02 6.00084E-03
 -1      4399-2.20070E-01-6.45976E-02-2.07850E-02-5.51728E-02-2.95390E-02 1.18571E-02
 -1      4400 9.46915E+00 4.38829E-01-6.22189E-01 5.92531E-01-1.90132E-01 3.22691E+00
 -1      4401 2.39268E+00 1.40990E-01-2.83345E+00 4.03199E-01-6.77356E-01 1.92813E+00
 -1      4402 2.05079E-01 7.09141E-01 1.75100E+00-7.99654E-01-8.87297E-01 7.85716E-01
 -1      4403 9.44042E+00 3.64905E-01-5.77980E-01-5.11392E-01 1.37099E-01 3.15283E+00
 -1      4404-1.39594E-01 2.79948E-02-8.57251E-03 1.07147E-01-2.69805E-02 6.51183E-02
 -1      4405-8.13955E-02 1.81401E-01 6.95758E-03 7.73723E-02 1.19606E-02 1.43984E-01
 -1      4406-1.82628E-02-1.00730E-02-6.16420E-03 1.69532E-02 1.11919E-02-1.00366E-02
 -1      4407 2.34628E+01 2.40953E+00 1.69896E-01 2.21995E+00 1.30177E-02 1.23537E+00
 -1      4408 2.20625E+01 2.49931E+00-3.17755E-01 2.95860E+00-3.69204E-02 1.12495E+00
 -1      4409-2.78630E-03-7.56493E-02-4.60479E-03 3.57007E-02 1.65773E-02-1.07479E-02
 -1      4410-1.88652E-01 1.62433E-01 1.38789E-01 2.84018E-01 9.12908E-02 1.96237E-01
 -1      4411-1.24701E-01 3.97170E-02-1.20427E-02 1.55509E-01-4.72801E-02 7.05084E-02
 -1      4412 4.22233E-01 5.07016E-01 2.61640E+00 2.36983E-02-2.73260E-01 5.30080E-01
 -1      4413-1.18804E-01 3.36045E-01 1.40797E-01-3.15304E-01-1.89415E-01-3.17273E-02
 -1      4414-1.46018E-01-5.78216E-02-1.11605E-02 5.99673E-02 2.66222E-02 9.34003E-03
 -1      4415-7.05723E-01-8.23801E-02 2.50235E-02 1.31617E-01-1.45853E-02-2.69477E-03
 -1      4416-4.48010E+00 2.00327E-01-4.22603E-01 2.62400E-01-7.08463E-02-2.08509E+00
 -1      4417 1.27807E-01 2.80181E-01 4.49770E-01-4.16746E-02-1.89524E-01 2.82803E-01
 -1      4418 1.29868E-03 3.07003E-01 5.18390E-01-1.89456E-01-2.98099E-01 4.15704E-01
 -1      4419-4.55626E-02-4.54575E-02-3.28354E-03-4.52272E-02-2.24033E-02-5.73052E-03
 -1      4420-5.10768E-02-6.51303E-02 2.26111E-03-5.99601E-02-2.71005E-02-3.78546E-03
 -1      4421 4.26866E-03-1.74756E-01 2.43142E-02-9.44653E-03-1.06314E-01-8.79691E-03
 -1      4422 1.43750E-04-1.82397E-02 2.48782E-03 6.62551E-03 1.60419E-02-8.06712E-03
 -1      4423 8.65010E-04-3.55384E-02 4.89807E-03 9.99209E-03 6.83197E-03-3.96401E-03
 -1      4424-3.02501E-03-5.66726E-02-6.11565E-03 1.53751E-02 2.74887E-02-1.40482E-02
 -1      4425-6.63878E-04-7.97874E-02-2.59508E-03 1.06762E-02 7.18125E-02-2.06117E-02
 -1      4426-3.01469E-01-6.93430E-01-3.26944E+00 8.57438E-03-3.92562E-01-1.24664E-01
 -1      4427-2.15416E-01 8.64413E-02-1.07583E+01 3.02201E-02-1.24680E+00-2.65269E+00
 -1      4428-2.13410E+00-1.82986E-01-1.09763E+01-1.79531E-01-1.24665E+00-3.34363E+00
 -1      4429-1.51417E+00-2.19685E-02-4.30576E+00 2.19789E-01-8.39793E-01-3.15965E+00
 -1      4430-4.74286E-01-1.62910E-01-4.92309E+00 2.01090E-01-8.55468E-01-2.84367E+00
 -1      4431-3.03858E-01-7.94640E-02-7.26267E-02-1.17447E-01-6.09912E-02-3.73458E-02
 -1      4432-1.83207E-02-2.81467E-02-7.56833E-02 7.52351E-04 8.88170E-02-3.94118E-02
 -1      4433-4.97437E-02 2.75252E-01 1.02419E-01-9.34407E-02-1.11243E-01-7.20234E-03
 -1      4434 3.14655E+00-3.75971E-01-1.21810E+00-8.45497E-01-6.22817E-01 4.50644E-01
 -1      4435-1.47618E+00-5.68402E-01-1.38832E+00 9.44847E-02 4.47045E-02-1.06450E+00
 -1      4436 1.04631E-02 3.63805E-03 1.65497E-03 2.50578E-03 1.25759E-03-1.55618E-02
 -1      4437-1.76938E-01-1.18385E-01-6.01665E-03-1.09605E-01-3.64863E-02-7.34587E-03
 -1      4438-6.20518E-06-2.20364E-02 2.29087E-03-5.85576E-03-1.58866E-02-7.47848E-03
 -1      4439 2.23143E-03-7.29470E-02-3.99047E-03-1.36513E-02-7.18162E-02-1.85353E-02
 -1      4440-6.10517E-02 2.30179E-01-7.18755E-02-4.65434E-02 1.30813E-01-6.13143E-02
 -1      4441-7.18690E-02 2.45128E-01-8.56431E-02-2.57644E-02 3.87646E-02-1.15699E-02
 -1      4442-9.38786E-02 1.21921E-01-2.16726E-01-2.20490E-02 1.86445E-01-2.66858E-01
 -1      4443-1.91226E-01 3.04055E-01-1.31848E-01-5.15021E-02 6.30473E-02-2.00818E-01
 -1      4444-2.32699E-01 4.75648E-02-1.20820E-02 1.81149E-01-1.42651E-02 7.82312E-02
 -1      4445 9.42097E+00-2.05892E-02 1.31967E+00-6.88106E-02 1.43825E-02 4.16059E+00
 -1      4446 9.39745E+00-1.64050E-02 1.34990E+00 7.05777E-02-1.20360E-04 4.22372E+00
 -1      4447-7.02042E-02-5.33970E-02-1.94211E-03-5.72657E-02-2.52644E-02-1.13220E-03
 -1      4448-6.94378E+00-2.76518E-01-4.96273E+00 2.68977E-01-5.43376E-02-4.23519E+00
 -1      4449-8.02402E+00-4.23901E-01-6.63348E+00 1.36183E-01-1.04688E-02-5.00006E+00
 -1      4450-6.91058E+00-2.76097E-01-4.88569E+00-2.63505E-01 8.61049E-02-4.31443E+00
 -1      4451-7.85155E+00-4.25678E-01-6.57662E+00-1.56387E-01-1.32178E-03-5.05837E+00
 -1      4452-2.44482E-01-2.76623E-01-7.23455E+00 1.89946E-01-1.63399E+00-1.65031E+00
 -1      4453-1.08209E-01 1.42683E-01-8.26883E+00 3.68820E-03-1.09631E+00-1.77303E+00
 -1      4454-1.24029E+00 8.18532E-02-7.11707E+00 2.07671E-01-1.48775E+00-2.14634E+00
 -1      4455-1.69321E-01-6.11558E-01-2.69106E+00 9.59344E-03-7.13276E-01-1.09451E-01
 -1      4456-4.80365E-01-6.09291E-01-2.53503E+00-3.96847E-02-4.97607E-01-3.55721E-01
 -1      4457 4.27890E+00-1.84450E-01-7.52115E-01-5.71875E-01-2.00219E-01-2.09930E+00
 -1      4458-8.40852E-01 1.63670E-01-7.34040E-01 5.34423E-01-6.53373E-01-1.32606E+00
 -1      4459 1.09767E-04-3.66246E-02 6.85617E-03-9.69388E-03-4.94134E-03-3.83141E-03
 -1      4460 3.39028E-01-1.50985E-01-9.04777E-01-6.01425E-02-1.44466E-01-3.70563E-01
 -1      4461-8.39626E-02-5.54973E-01-3.83050E+00-5.14971E-02 2.92862E-01-2.96643E-01
 -1      4462 2.55323E+01 1.33375E+00 1.81983E-01-1.96774E+00 3.40934E-01 8.75776E-01
 -1      4463-1.84606E-01-8.22684E-02-9.27397E-02 9.80539E-02 1.24975E-01-1.05076E-01
 -1      4464-3.32973E-03-1.05942E-01-1.23723E-02 2.90705E-03-1.50648E-01-6.58412E-03
 -1      4465-3.47971E-03-4.17129E-02-3.33758E-02-2.40326E-03-1.08128E-01-2.02690E-02
 -1      4466-9.23560E-03-1.41169E-01-2.12928E-02-3.66027E-03-1.88635E-01-7.43939E-03
 -1      4467-3.39879E-01 3.19013E-01 9.17150E-01 4.34498E-01 4.28529E-01 4.66482E-01
 -1      4468-1.29784E+00 1.46547E-01-7.22491E+00 2.61424E-01-1.26216E+00-1.91355E+00
 -1      4469 7.47585E-02-2.00935E-01-9.30833E-01 2.60692E-02 1.72671E-01-1.66403E-01
 -1      4470-1.21952E+00 1.03377E-01 5.77154E+00 1.70028E-01 2.35284E-01 1.49086E+00
 -1      4471-1.20996E+00 1.90009E-01 3.83273E+00 5.78985E-02 7.94906E-01 1.31436E-02
 -1      4472 1.78683E+00 1.72566E-01 3.30509E+00-5.13279E-01-2.44178E-01 4.35655E+00
 -1      4473 3.54650E+00 2.74208E-01 1.91032E+00-6.81518E-01 3.17709E-01 4.31775E+00
 -1      4474 2.17871E-01-1.76566E-01-9.11209E-01-3.95012E-02-1.56484E-01-3.24908E-01
 -1      4475 2.94334E-01-2.56856E-01-8.78543E-01-8.49566E-02-7.69583E-02-2.89255E-01
 -1      4476-1.43857E-02-2.29430E-03-3.78175E-03 1.36787E-02 3.26087E-03-1.48382E-02
 -1      4477-2.23483E-02-1.08596E-02-3.35840E-03 2.73763E-02 1.42631E-02-7.39632E-03
 -1      4478-2.51241E-03-3.62487E-02-3.13359E-02 2.60775E-03 1.07418E-01-1.92888E-02
 -1      4479-2.35914E-01 1.08694E-01 5.56342E-02 2.43577E-01 2.40148E-02 1.30892E-01
 -1      4480 1.41314E-03 3.30773E-02 7.97853E-03 3.53321E-03-6.41200E-02-6.77021E-03
 -1      4481 4.97938E-03 5.67258E-02-3.62122E-03 1.17901E-02-4.34645E-02-4.03794E-03
 -1      4482 1.05961E-02 4.55228E-02 1.14760E-02 7.59780E-03-6.20186E-02-2.86531E-03
 -1      4483-3.26969E-03-2.52523E-04 6.99630E-03 2.73622E-04 7.88410E-03-3.23655E-02
 -1      4484-2.99014E-01 1.07006E-01 3.19869E-02 2.61054E-01 1.51721E-02 1.13352E-01
 -1      4485-6.92399E-02-6.97701E-02 5.21990E-03-5.86577E-02-5.65787E-02-1.60807E-02
 -1      4486-9.86591E-02-9.42777E-02-3.13248E-03-9.99411E-02-4.21523E-02-1.11898E-02
 -1      4487 5.73200E+00 4.21226E-01-2.03485E-01-5.77086E-01 5.79847E-01 3.57490E+00
 -1      4488 6.00702E-03 2.31213E-01 4.44789E-02 4.11492E-02 2.52253E-02 3.12900E-02
 -1      4489-8.86226E-04 1.28667E-01 1.77228E-02 4.96847E-02 5.30741E-03 3.43314E-02
 -1      4490-4.18510E-02 8.05861E-02 2.33705E-02 1.56477E-01-1.36940E-02 5.92337E-02
 -1      4491-4.56373E-01-8.92598E-01-3.69656E+00-4.81635E-03 1.85690E-01 4.86597E-02
 -1      4492-1.22705E-01-5.62792E-01-3.79334E+00 4.16684E-02-2.84149E-01-2.94756E-01
 -1      4493 8.48798E-02 9.11282E-02 2.85867E+00 2.18605E-03 2.19890E-03 5.57054E-01
 -1      4494 1.07397E+01-1.57270E-02 1.24338E+00 9.92010E-02-3.21292E-03 4.40220E+00
 -1      4495 1.07987E+01-8.02434E-02 1.29809E+00-4.37883E-02-5.41271E-05 4.30152E+00
 -1      4496-1.96892E-02-9.20261E-02 2.94801E-04 5.28183E-02 2.30862E-02-4.96412E-03
 -1      4497 3.33412E-03 1.73508E-01 1.32847E-01 3.25943E-02 1.24567E-01 1.61276E-01
 -1      4498 1.04329E-01 2.81972E-01 3.32002E-01-3.77049E-02-2.02523E-01 2.57639E-01
 -1      4499 1.88477E-01 2.84961E-01 8.27132E-01-8.90449E-02-3.60938E-01 3.97636E-01
 -1      4500-3.11365E-01-7.00465E-01-1.88050E+00-1.14907E-01-7.81801E-01-6.64856E-02
 -1      4501-4.65257E-01-7.08566E-01-1.90208E+00-1.51434E-01-6.91655E-01-2.78790E-01
 -1      4502-8.89519E-01 6.87252E-02 5.74000E+00 1.60249E-01 3.84522E-01 2.42155E-01
 -1      4503-1.98809E-02-1.68507E-02-1.12532E-01-2.05848E-03-7.39613E-02-3.31582E-02
 -1      4504-9.36634E-03-1.78897E-03-7.81462E-03 6.54247E-03 7.26633E-03-2.38212E-02
 -1      4505-9.60247E-03-5.93149E-03-9.96936E-03 6.21141E-03 1.44268E-02-2.35861E-02
 -1      4506 1.12886E-01 2.69854E-01 2.35738E-01 1.38386E-02 2.21027E-01 1.62679E-01
 -1      4507 1.94083E-01 3.76133E-01 5.69013E-01 5.74987E-02 3.65533E-01 2.84401E-01
 -1      4508-4.00976E-02-2.14688E-01-1.09047E-01-1.22664E-02-2.75884E-01-1.50901E-02
 -1      4509-9.53049E+00-2.06789E+00-5.82524E+00 3.12689E-02-9.89798E-01-5.51327E+00
 -1      4510-3.21504E-02-3.50356E-02-2.02356E-02-1.90961E-02-6.08916E-02-3.33220E-02
 -1      4511-4.71346E-02-6.26976E-02-2.10368E-02-3.66978E-02-7.66588E-02-3.84002E-02
 -1      4512 1.18583E-01-2.27022E-01-9.55864E-01-5.26229E-02-1.06842E-01-4.04946E-02
 -1      4513 1.81270E+00 1.52820E-01 3.23370E+00 4.82078E-01 2.16372E-01 4.24193E+00
 -1      4514 3.48378E+00 2.82358E-01 1.81126E+00 6.41298E-01-3.18471E-01 4.26726E+00
 -1      4515 1.24387E+01-1.07508E-02 1.06035E+00 9.99249E-02-9.91031E-02 4.50964E+00
 -1      4516 1.24459E+01-1.58663E-01 1.02699E+00-7.61317E-02 8.48873E-02 4.49369E+00
 -1      4517-2.08142E-01 1.89632E-01 1.22195E-01-3.73300E-01-5.87605E-02 1.31692E-01
 -1      4518-2.85933E-01 1.69383E-01 3.36351E-01-3.37638E-01-2.28830E-01 2.71517E-01
 -1      4519-1.13126E-02 6.72281E-02 2.26738E-03 1.45610E-02-6.24304E-05 1.37232E-02
 -1      4520 2.35859E-01 5.59428E-01 1.18521E+00 7.08907E-02 5.32650E-01 4.13126E-01
 -1      4521 6.00415E+00 4.31309E-01-4.20938E-02 5.31674E-01-5.75053E-01 3.63164E+00
 -1      4522 4.90195E-03 4.29002E-02 8.10932E-03-1.52888E-02 5.31161E-02-5.91461E-03
 -1      4523 1.92768E-02 8.39734E-02 1.57610E-02-1.25011E-02 6.49003E-02 7.54259E-03
 -1      4524 1.44423E-02 5.29491E-02-6.78771E-03-1.18209E-02 3.07329E-02 4.11278E-03
 -1      4525 5.66907E-03 6.15139E-02-6.93157E-03-2.05535E-02 2.40479E-02 6.21850E-03
 -1      4526 8.17892E+00 9.68368E-01-4.42590E-01-9.65914E-01 6.24280E-01 2.44251E+00
 -1      4527-9.91217E+00-7.94984E-02-3.86407E-01 7.68578E-01-8.01724E-02-2.82519E+00
 -1      4528-5.99464E+00 2.01602E-01-9.44631E-02 4.51273E-01 4.61474E-01-2.63504E+00
 -1      4529-1.98581E+00 6.66947E-03-1.02505E+00 1.59590E-01 4.24344E-01-3.96048E+00
 -1      4530-8.44040E+00-5.98776E-01-1.35642E+00 2.58009E-01 6.21440E-01-3.22522E+00
 -1      4531-5.04462E-01-9.07022E-01-3.65004E+00 6.53962E-03-1.80663E-01 4.90290E-02
 -1      4532-9.15752E-01 3.12835E-02-9.30794E+00 3.70539E-01-1.14986E+00-2.25057E+00
 -1      4533-1.18076E+01-2.07106E-01-2.32996E+00 6.97461E-01 4.01478E-01-2.99506E+00
 -1      4534 1.01517E-01 2.82649E-01 2.66137E-01-4.04347E-02-2.01819E-01 2.10081E-01
 -1      4535-9.06134E+00-1.81731E+00-2.58020E+00 1.74303E-01-9.88775E-01-2.71493E+00
 -1      4536-2.51085E-03 7.29718E-02 4.13608E-03 1.44197E-02-1.24095E-02 2.31133E-04
 -1      4537-1.47500E-01 3.50033E-01 2.16605E-01 2.90427E-01 1.97305E-01 7.35864E-03
 -1      4538-3.39743E-02 2.59798E-01 9.12410E-02 1.06473E-01 1.22960E-01-8.34588E-03
 -1      4539 2.12949E-02 5.51443E-01 4.29437E-01 8.66183E-02 3.33712E-01 1.77074E-01
 -1      4540 1.14631E-03 2.05213E-01 2.21995E-01 2.47389E-01 1.03521E-01 1.54077E-01
 -1      4541-2.23341E-01 1.64240E-01 3.67168E-01 4.08670E-01 1.51036E-01 2.10907E-01
 -1      4542 7.09870E-02 2.10507E-01 1.00718E-01 7.27509E-03 1.46771E-01 7.97575E-02
 -1      4543 3.06997E-02 1.20889E-01 4.20454E-02-1.46792E-02 1.04545E-01 3.37459E-02
 -1      4544-3.14012E-01-6.51027E-01-3.47872E+00-2.02922E-03-5.95077E-03-4.74012E-02
 -1      4545 8.82015E+00 1.08384E+00-6.76625E-01 1.01408E+00-7.16563E-01-6.19858E-01
 -1      4546-4.11825E-01 1.04118E-01-8.33353E-02 4.78183E-02-1.18435E-01-4.50767E-01
 -1      4547-2.67769E-01 1.10228E-01-1.00079E-01 4.94297E-02-1.87209E-01-4.01556E-01
 -1      4548-2.12196E-01 6.01900E-02-2.50161E-01 2.44082E-02-2.26616E-01-6.35905E-01
 -1      4549-9.39776E-04 7.34081E-02 2.44030E-03-1.15085E-02 1.25622E-02-1.47439E-04
 -1      4550 8.34753E+00 7.03269E-01-1.28147E+00 9.96099E-01-8.55517E-01-4.73996E-01
 -1      4551 7.15603E+00 6.01407E-01-5.24220E-01 9.40125E-01-4.85289E-01-1.64002E+00
 -1      4552 2.13602E+01 2.49882E+00-3.47296E-01-2.53956E+00 1.73439E-01 9.91752E-01
 -1      4553-6.98984E-03 1.80252E-01 7.13510E-03 1.23713E-02 3.47348E-02 1.02150E-03
 -1      4554 9.54300E-03 2.96995E-01 4.04125E-02 6.69304E-03 8.75573E-02 5.34907E-02
 -1      4555-3.04703E-01 1.45819E-01-8.44330E-02 5.36634E-02-1.04060E-01-3.04251E-01
 -1      4556 1.45271E-02 3.14822E-01 1.71985E-01 4.80647E-03-2.69230E-01 3.97175E-02
 -1      4557 1.18480E-03 3.83832E-01 1.64902E-01 2.76832E-02 1.91216E-01 7.26024E-02
 -1      4558-9.77963E-03-4.75070E-03-1.35954E-02 5.57135E-03 8.10114E-03-3.05307E-02
 -1      4559-2.18189E-01 1.56266E-01-1.35984E-01 2.58681E-02-1.77877E-01-3.33682E-01
 -1      4560-5.97034E-03 5.03251E-02-7.86321E-04-1.73434E-02 9.37486E-03 2.50831E-06
 -1      4561 1.14819E-01 3.24972E-01 3.15524E-01 2.95186E-04-2.63236E-01 1.51554E-01
 -1      4562-7.78228E+00-1.08087E-01-4.89840E-01-6.11927E-01-1.31196E-01-2.81491E+00
 -1      4563-5.50360E+00 2.62411E-01-1.92673E-01-6.21547E-01-3.06641E-01-2.70054E+00
 -1      4564-1.23696E-02-2.19087E-03-2.73168E-03 1.23505E-02 3.13673E-03-1.07602E-02
 -1      4565-1.42226E-03 5.78678E-02-3.17100E-04-1.34683E-02 4.42606E-02-4.21262E-03
 -1      4566-5.74693E-02-6.58857E-02-2.87217E-02-4.49195E-02-9.75469E-02-5.59681E-02
 -1      4567 6.43247E-02-2.89262E-02-5.30615E-01-3.81095E-03-2.27096E-01-5.82414E-01
 -1      4568 2.62166E+00 2.09005E-02-3.35813E-01 2.63428E-01-2.43518E-01-3.52276E+00
 -1      4569 9.79895E-03-1.21821E-03-3.38415E-03 6.10830E-03-2.13572E-03-1.58479E-02
 -1      4570-1.30068E+01-6.30294E-01-5.22329E+00-2.00177E-01-8.26285E-01-5.65803E+00
 -1      4571-2.36522E+00-8.91181E-02 1.61066E-01 8.68936E-02-2.82450E-01-2.37313E+00
 -1      4572-3.32900E-01 4.31659E-03-2.58704E-01 3.03284E-02-1.21270E-01-3.43893E+00
 -1      4573 1.42403E-01-1.65959E-01-9.23337E-01-4.49741E-02-1.77667E-01-2.02115E-01
 -1      4574 1.37167E-01-7.56994E-02-7.61749E-01-1.87859E-02-2.37356E-01-4.78252E-01
 -1      4575 3.55363E+00-1.95077E-01-7.31645E-01-3.65700E-01-4.77687E-01-2.55451E+00
 -1      4576-4.89156E-01-2.36710E-02-3.43437E-01-4.09215E-02-9.07564E-03-4.16051E+00
 -1      4577-7.59769E+00-1.57670E+00-2.37498E+00-8.41599E-02-7.54926E-01-1.76049E+00
 -1      4578 1.92885E+00 1.22989E-01-4.49725E-01-1.45429E-01-3.41430E-01-2.71076E+00
 -1      4579-2.43671E+00-3.23513E-01 5.52324E-01-1.03909E+00 1.19348E+00-6.28551E-01
 -1      4580 8.34334E+00 2.57340E-01 5.20971E-01-4.30337E-01 1.08986E-01 4.47200E+00
 -1      4581 5.26804E+00 3.26039E-01 1.32457E+00-3.74705E-01 2.84618E-01 4.49258E+00
 -1      4582-6.38920E+00 5.69959E-02-6.28107E-01-4.56747E-01 6.86086E-02-2.54008E+00
 -1      4583-1.73358E-02-4.03858E-03-4.54523E-03 2.31406E-02 7.06651E-03-7.46426E-03
 -1      4584 2.49924E+01 2.25506E+00 4.04016E-01 1.98665E+00-2.25518E-01 1.44256E+00
 -1      4585-7.42004E+00-1.92095E-01-7.17594E+00 3.84115E-01-5.58434E-01-4.56194E+00
 -1      4586-3.51459E+00-3.80152E-01-2.22450E+00 4.76185E-01-3.16040E-01 1.27617E+00
 -1      4587-7.45069E+00-2.15763E-01-7.18122E+00-3.87732E-01 5.47982E-01-4.58225E+00
 -1      4588-3.40578E+00-3.35699E-01-2.11992E+00-5.38570E-01 2.91887E-01 1.37285E+00
 -1      4589 1.06165E-01 3.86496E-02-7.78722E+00-5.39823E-02 1.16714E+00-1.85520E+00
 -1      4590 4.98511E-03-1.95387E-02-7.75990E+00 7.40106E-02-1.16750E+00-1.87552E+00
 -1      4591-1.96875E-02 2.65755E-02-2.64982E-03-7.90480E-03 5.37924E-03 4.51161E-03
 -1      4592 2.55479E-03 8.05710E-02-1.27204E-03-1.54172E-02 1.01457E-02 4.80652E-03
 -1      4593 2.70737E+00 2.36418E-01 2.63714E+00-5.16530E-01 2.92949E-03 4.60928E+00
 -1      4594-1.27125E+00 1.75235E-01-2.84933E+00-6.95107E-01 4.94781E-01 1.62307E+00
 -1      4595 1.43404E+01-1.01375E-01 7.47927E-01-3.94338E-02 3.43248E-02 4.49040E+00
 -1      4596 1.44155E+01 2.15809E-02 7.87651E-01 6.94060E-02-5.23985E-02 4.61613E+00
 -1      4597 1.58364E+01 5.97668E-01 7.73686E-01-1.91726E-02-7.14047E-02 4.31058E+00
 -1      4598-4.41451E+00 2.21992E-01 3.33448E-01 3.57752E-01-4.30452E-01-2.21322E+00
 -1      4599 8.27501E+00 2.82498E-01 6.58285E-01 4.59622E-01-2.60326E-02 4.50739E+00
 -1      4600 5.17212E+00 2.59506E-01 1.12730E+00 4.17487E-01-3.04899E-01 4.42765E+00
 -1      4601 9.26516E-01 1.96445E-01 4.61732E+00 3.28009E-01 1.88254E-01 4.19932E+00
 -1      4602 8.41508E-01 1.89936E-01 4.58595E+00-3.79068E-01-2.14650E-01 4.24908E+00
 -1      4603 4.01182E-04 1.06927E-01 2.65806E-05-1.18919E-02 2.51156E-02-1.03181E-04
 -1      4604 7.20830E-03 2.51094E-01 1.00931E-01-8.21397E-03 1.92893E-01 2.10504E-02
 -1      4605 9.70132E-02 2.95666E-01 3.02437E-01 1.02734E-02 2.63492E-01 1.33896E-01
 -1      4606 8.36183E+00 2.99737E-02-3.14821E-02-6.54624E-01-1.37376E-01-1.58541E+00
 -1      4607 2.93969E+00 1.76946E-02-8.05266E-01-2.82737E-01 3.85751E-01-3.22164E+00
 -1      4608 2.68975E+00 2.39743E-01 2.60984E+00 4.99902E-01-1.90314E-02 4.58622E+00
 -1      4609-7.35628E+00 2.42672E-01-3.73863E-01 6.22501E-01-1.32617E-01-2.11009E+00
 -1      4610 3.39229E-02 4.54479E-01 4.63496E-01 2.16399E-03 4.39021E-01 1.01972E-01
 -1      4611 7.65564E+00-7.30910E-02 2.51841E-02 5.87674E-01 2.02455E-01-1.75645E+00
 -1      4612-1.84276E-03 2.13122E-01 1.32101E-02-1.50890E-02 7.12648E-02 1.51932E-02
 -1      4613-1.99387E-03 9.07538E-02 1.02535E-04-1.38473E-02 4.27845E-02-1.12312E-03
 -1      4614 1.58457E-03 1.47204E-01 4.89278E-03-7.60550E-03 1.69840E-02 6.11193E-03
 -1      4615-2.44411E-01 9.41974E-02 2.42850E-01 2.83042E-01 4.00110E-01 4.07381E-02
 -1      4616-1.21783E+00 1.63427E-01-2.81109E+00 7.16587E-01-4.68257E-01 1.64291E+00
 -1      4617-1.36284E+01-7.49239E-01-4.85913E+00 3.06415E-01 8.68547E-01-5.93865E+00
 -1      4618-8.84596E-02 2.02888E-01-7.78990E-02-3.13131E-02 1.66953E-01-1.69451E-01
 -1      4619-6.19815E-02-4.85185E-02-2.45209E-02-3.44107E-02-7.22015E-02-3.53213E-02
 -1      4620-7.19859E+00-8.79236E-01-4.13546E-01-7.92256E-02-1.46379E-02-3.95094E+00
 -1      4621 1.07022E+01 1.11941E+00-1.21819E+00 1.27516E+00-9.83457E-01-5.40272E-01
 -1      4622 7.68673E-04 1.29966E-01-3.92806E-03-1.64700E-02 4.60182E-02 8.16114E-03
 -1      4623 1.11528E+01 4.10341E-01-5.25992E-01 5.60189E-01-1.48497E-01-2.66643E-01
 -1      4624 1.29165E-03 3.67246E-02 8.50303E-03-4.41711E-03 6.20990E-02-7.90604E-03
 -1      4625 7.02689E-03 5.01306E-02 1.67982E-02-7.08693E-03 7.75989E-02-2.56789E-03
 -1      4626 1.32915E-03 9.85036E-02 2.13482E-02-8.01403E-03 8.68542E-02-2.82191E-03
 -1      4627-1.56121E-04 2.89212E-02 6.71678E-03 1.92275E-03-5.60254E-02-1.07892E-02
 -1      4628 9.66163E+00 1.02473E-01-5.09917E-01-5.69323E-01 7.94218E-02-1.33460E+00
 -1      4629 1.09224E+01 6.08007E-01-3.31265E-01-6.06318E-01 2.27891E-01-6.80934E-01
 -1      4630 6.17127E+00 2.95512E-01-4.64897E-01-7.44480E-01 3.30350E-01-2.22190E+00
 -1      4631-1.93353E-03-1.00892E-01-1.32624E-02-2.45102E-03 1.49578E-01-4.93192E-03
 -1      4632-1.08882E+01-1.32392E+00-3.78277E+00-8.96706E-02-5.00037E-01-2.46391E+00
 -1      4633 2.91697E-02 1.28481E-01 7.43683E-02-1.01263E-02 1.23292E-01 2.81130E-02
 -1      4634-1.10630E+01-1.39363E+00-3.78460E+00 7.33934E-02 5.08475E-01-2.51334E+00
 -1      4635-1.70510E-01-3.26152E-02 9.61114E-01 3.77555E-02 4.04719E-02-1.78038E+00
 -1      4636-7.55217E-04 2.90710E-02 7.84022E-03-2.01027E-03 5.65562E-02-1.03615E-02
 -1      4637-3.57306E-03 2.98337E-03-3.32332E-04 8.20446E-03-6.12403E-04-1.06896E-02
 -1      4638-1.01784E+01-2.80577E-01-4.39770E+00 1.21519E-01 5.92509E-01-4.09880E+00
 -1      4639-2.69947E-02-9.68444E-03-1.75788E-03 2.55480E-02 1.01606E-02-6.74040E-03
 -1      4640-7.62171E+00-3.19610E-01-7.67053E+00-4.29189E-01 5.47491E-01-4.93864E+00
 -1      4641-1.00992E+01-2.22775E-01-4.40152E+00-1.42794E-01-6.40167E-01-4.05120E+00
 -1      4642 2.07654E+01 1.11409E+00-1.88901E-01-1.24428E+00-9.61651E-02 3.54561E+00
 -1      4643 2.10892E+01 5.20730E-01-1.69071E-01-1.15797E+00-2.43232E-02 3.31299E+00
 -1      4644 1.66954E+01 4.08081E-01 3.32483E-01-1.08162E-01-3.90141E-02 4.15672E+00
 -1      4645 1.71363E+01 5.96437E-01 3.61207E-01 1.32611E-01 4.75191E-02 4.23217E+00
 -1      4646-7.54847E+00-2.65295E-01-7.64135E+00 4.56092E-01-5.81838E-01-4.84843E+00
 -1      4647 1.11176E+01 1.37701E+00-1.40643E+00-1.35277E+00 1.01911E+00-3.08798E-01
 -1      4648 1.32597E+01 4.18840E-01 4.64654E-01 3.12362E-01 1.19352E-01 5.00211E+00
 -1      4649-1.05565E+01-2.75982E-01-4.15938E+00-1.88082E-01-4.15973E-01-3.76879E+00
 -1      4650-1.05762E+01-3.66817E-01-4.17187E+00 2.01472E-01 3.93227E-01-3.76610E+00
 -1      4651 1.75148E+01-8.53103E-02 4.55503E-01 1.03771E-01-1.17717E-02 4.15889E+00
 -1      4652 9.05339E+00 1.34528E-01-2.86186E-01 4.83635E-01-9.92317E-02-1.64959E+00
 -1      4653 6.11133E+00 2.50744E-01-4.65152E-01 6.85625E-01-2.23927E-01-2.18943E+00
 -1      4654 1.31778E+01 3.99938E-01 3.19256E-01-3.35742E-01-1.44065E-01 4.83464E+00
 -1      4655 1.87854E+01 1.32496E-01 3.63363E-01 6.85978E-02 2.42932E-02 4.15643E+00
 -1      4656 1.63627E+01 3.05307E-01 3.92034E-01-1.13644E-02 2.85952E-03 4.21142E+00
 -1      4657-4.39414E-03 1.99078E-03 1.85644E-03 1.19411E-02-1.33278E-03-1.08714E-02
 -1      4658 1.76500E+01 7.90880E-03 5.36962E-01-7.15488E-02 7.44127E-03 4.16783E+00
 -1      4659 2.07546E+01 9.36261E-01-4.57577E-01 1.16789E+00 5.35863E-02 3.32900E+00
 -1      4660 1.05161E+01 3.95749E-01-3.77238E-01-6.06337E-01 1.41676E-01-7.92644E-01
 -1      4661 2.08470E+01 7.01310E-01-2.10725E-02 9.71845E-01 7.74189E-02 3.43003E+00
 -1      4662 6.67937E-01-1.76591E-01-1.02196E+00 1.34939E-01 4.20875E-02-3.37039E-01
 -1      4663 1.92615E+01 1.00564E-01 2.73476E-01-1.86089E-01-6.47214E-03 4.06670E+00
 -1      4664-2.35696E+00 1.35314E+00 1.04294E-01 2.00404E-01 7.06468E-02 6.43893E-01
 -1      4665-2.45772E+00 1.14635E+00 2.75861E-01-5.60332E-02 5.40064E-02 8.11650E-01
 -1      4666 2.56393E+00-1.41573E+00-1.17796E+00 1.13459E-01 8.46380E-02 8.95557E-01
 -1      4667 2.59325E+00-1.65242E+00-1.20994E+00-2.20317E-01 6.18030E-02 7.00258E-01
 -1      4668-6.08234E-01 2.39760E-02 2.53628E+00 1.23523E-03-2.79288E-03 2.58422E+00
 -1      4669-8.67031E-03 3.20781E-03-4.08603E-03-1.40316E-02 6.79740E-03-1.07678E-02
 -1      4670-4.30245E-02-1.41786E-02-4.10833E-03 1.73053E-02 1.95425E-02-3.21974E-03
 -1      4671-2.56306E-01-8.97168E-03-9.81307E-02 2.15089E-02 3.55654E-02-9.90936E-02
 -1      4672-1.18964E-02 8.65715E-03-1.40408E-03-2.10260E-02 2.98546E-03 6.85449E-04
 -1      4673-2.27135E-02-1.74446E-02-9.76731E-03-1.85657E-02-2.41031E-02-1.71017E-02
 -1      4674 1.15486E+01 6.03840E-01-4.92769E-01 5.92155E-01-2.11020E-01-2.95858E-01
 -1      4675 5.31885E+00 2.60951E-01-1.72357E+00 5.37673E-01-8.06713E-01-1.33146E+00
 -1      4676 4.61899E+00 1.56298E-01-1.86386E+00-5.05481E-01 8.73040E-01-1.85169E+00
 -1      4677 8.48314E+00 5.82697E-01-1.48335E+00-1.12319E+00 9.01964E-01-5.01570E-01
 -1      4678-1.39731E+00-8.45935E-03 2.06567E+00 5.52247E-03-1.85631E-02 1.94501E+00
 -1      4679-1.19714E-02 2.10633E-02-4.15740E-03-2.51168E-03 7.24118E-03 5.55484E-04
 -1      4680 1.05280E+01 1.60779E-01-5.72251E-01 4.41513E-01-9.85938E-02-8.15056E-01
 -1      4681-2.32377E+00-3.49539E-01-2.62813E+00-8.50750E-02 7.92408E-01-3.05811E+00
 -3
    1PSTEP                         3           1           1          
  100CL  101 1.000000000        4681                     0    1           1
 -4  ERROR       1    1
 -5  STR(%)      1    1    0    0
 -1         1 1.78772E+01
 -1         2 8.49049E+00
 -1         3 2.57342E+01
 -1         4 2.70651E+01
 -1         5 8.97168E+00
 -1         6 1.86329E+01
 -1         7 2.47798E+01
 -1         8 2.47842E+01
 -1         9 1.51727E+01
 -1        10 2.27430E+01
 -1        11 2.04369E+01
 -1        12 2.94561E+01
 -1        13 2.08881E+01
 -1        14 1.45717E+01
 -1        15 2.97148E+01
 -1        16 1.98141E+01
 -1        17 2.88793E+01
 -1        18 2.89917E+01
 -1        19 2.96832E+01
 -1        20 1.50543E+01
 -1        21 1.50045E+01
 -1        22 2.78635E+01
 -1        23 1.87350E+01
 -1        24 2.76313E+01
 -1        25 2.77211E+01
 -1        26 1.91032E+01
 -1        27 2.33617E+01
 -1        28 1.36973E+01
 -1        29 1.81361E+01
 -1        30 9.99350E+00
 -1        31 2.27058E+01
 -1        32 1.71036E+01
 -1        33 1.36052E+01
 -1        34 1.02945E+01
 -1        35 3.15460E+01
 -1        36 3.62562E+01
 -1        37 2.38631E+01
 -1        38 1.28224E+01
 -1        39 1.80752E+01
 -1        40 2.26885E+01
 -1        41 1.46676E+01
 -1        42 1.19680E+01
 -1        43 1.51899E+01
 -1        44 1.03456E+01
 -1        45 9.19622E+00
 -1        46 1.66878E+01
 -1        47 1.78772E+01
 -1        48 1.78772E+01
 -1        49 1.31838E+01
 -1        50 2.57342E+01
 -1        51 1.71124E+01
 -1        52 2.57342E+01
 -1        53 2.70651E+01
 -1        54 2.70651E+01
 -1        55 2.63997E+01
 -1        56 2.70651E+01
 -1        57 2.24711E+01
 -1        58 2.70651E+01
 -1        59 1.86329E+01
 -1        60 1.38023E+01
 -1        61 1.86329E+01
 -1        62 2.47798E+01
 -1        63 2.17063E+01
 -1        64 2.47798E+01
 -1        65 2.47842E+01
 -1        66 2.47842E+01
 -1        67 2.47820E+01
 -1        68 2.47842E+01
 -1        69 1.68780E+01
 -1        70 2.47842E+01
 -1        71 2.14799E+01
 -1        72 1.83263E+01
 -1        73 2.21115E+01
 -1        74 2.83086E+01
 -1        75 2.55258E+01
 -1        76 2.43727E+01
 -1        77 2.83086E+01
 -1        78 2.88823E+01
 -1        79 2.43727E+01
 -1        80 2.94561E+01
 -1        81 2.23144E+01
 -1        82 2.94561E+01
 -1        83 2.02175E+01
 -1        84 2.05528E+01
 -1        85 1.73946E+01
 -1        86 2.97148E+01
 -1        87 2.21432E+01
 -1        88 2.97148E+01
 -1        89 2.87619E+01
 -1        90 2.42880E+01
 -1        91 2.92383E+01
 -1        92 2.87619E+01
 -1        93 2.48250E+01
 -1        94 2.42880E+01
 -1        95 1.51835E+01
 -1        96 1.59695E+01
 -1        97 1.53188E+01
 -1        98 1.68758E+01
 -1        99 1.78291E+01
 -1       100 1.94590E+01
 -1       101 1.65303E+01
 -1       102 1.55765E+01
 -1       103 1.56442E+01
 -1       104 1.60973E+01
 -1       105 1.73525E+01
 -1       106 1.86441E+01
 -1       107 2.11010E+01
 -1       108 1.28943E+01
 -1       109 1.68496E+01
 -1       110 1.02891E+01
 -1       111 6.24665E+00
 -1       112 6.24665E+00
 -1       113 5.94701E+00
 -1       114 5.81857E+00
 -1       115 1.03467E+01
 -1       116 1.62525E+01
 -1       117 1.32705E+01
 -1       118 1.37330E+01
 -1       119 1.48719E+01
 -1       120 1.35693E+01
 -1       121 8.26788E+00
 -1       122 6.24665E+00
 -1       123 6.09683E+00
 -1       124 5.88279E+00
 -1       125 8.08263E+00
 -1       126 1.32996E+01
 -1       127 1.47615E+01
 -1       128 1.42216E+01
 -1       129 1.65087E+01
 -1       130 1.31308E+01
 -1       131 1.47590E+01
 -1       132 1.72820E+01
 -1       133 1.77352E+01
 -1       134 1.71720E+01
 -1       135 1.75708E+01
 -1       136 1.48198E+01
 -1       137 1.39449E+01
 -1       138 1.60205E+01
 -1       139 1.75086E+01
 -1       140 1.74536E+01
 -1       141 1.90300E+01
 -1       142 1.03573E+01
 -1       143 1.69317E+01
 -1       144 1.88406E+01
 -1       145 1.55041E+01
 -1       146 1.43687E+01
 -1       147 1.36511E+01
 -1       148 1.61205E+01
 -1       149 1.80455E+01
 -1       150 1.50284E+01
 -1       151 1.54614E+01
 -1       152 9.66451E+00
 -1       153 1.36445E+01
 -1       154 1.78861E+01
 -1       155 1.71724E+01
 -1       156 1.49364E+01
 -1       157 1.40099E+01
 -1       158 1.48858E+01
 -1       159 1.70830E+01
 -1       160 1.65369E+01
 -1       161 1.52449E+01
 -1       162 1.19759E+01
 -1       163 2.03718E+01
 -1       164 1.47777E+01
 -1       165 1.67798E+01
 -1       166 1.99920E+01
 -1       167 2.01458E+01
 -1       168 1.70277E+01
 -1       169 2.37185E+01
 -1       170 1.75748E+01
 -1       171 1.57788E+01
 -1       172 1.83859E+01
 -1       173 2.00689E+01
 -1       174 1.85867E+01
 -1       175 1.87323E+01
 -1       176 1.81378E+01
 -1       177 1.44726E+01
 -1       178 1.71412E+01
 -1       179 2.25900E+01
 -1       180 2.71742E+01
 -1       181 2.71742E+01
 -1       182 2.14588E+01
 -1       183 1.63052E+01
 -1       184 1.58069E+01
 -1       185 1.98656E+01
 -1       186 2.48821E+01
 -1       187 2.71742E+01
 -1       188 2.34941E+01
 -1       189 2.99640E+01
 -1       190 2.99640E+01
 -1       191 2.40033E+01
 -1       192 1.65450E+01
 -1       193 2.94217E+01
 -1       194 2.99640E+01
 -1       195 2.69837E+01
 -1       196 2.02742E+01
 -1       197 2.11396E+01
 -1       198 1.63685E+01
 -1       199 2.35309E+01
 -1       200 2.93442E+01
 -1       201 2.93442E+01
 -1       202 2.05763E+01
 -1       203 1.99497E+01
 -1       204 2.64375E+01
 -1       205 2.93442E+01
 -1       206 2.91680E+01
 -1       207 1.11210E+01
 -1       208 2.00564E+01
 -1       209 2.00002E+01
 -1       210 2.96832E+01
 -1       211 2.61927E+01
 -1       212 2.96832E+01
 -1       213 2.79380E+01
 -1       214 2.78244E+01
 -1       215 6.72811E+00
 -1       216 1.82057E+01
 -1       217 1.08912E+01
 -1       218 2.24623E+01
 -1       219 2.15498E+01
 -1       220 2.15498E+01
 -1       221 2.16420E+01
 -1       222 1.87334E+01
 -1       223 2.20061E+01
 -1       224 2.15498E+01
 -1       225 2.15959E+01
 -1       226 1.83482E+01
 -1       227 6.46547E+00
 -1       228 1.71645E+01
 -1       229 1.07350E+01
 -1       230 2.74083E+01
 -1       231 2.78635E+01
 -1       232 2.85615E+01
 -1       233 2.76359E+01
 -1       234 2.78635E+01
 -1       235 2.83591E+01
 -1       236 2.80184E+01
 -1       237 2.88873E+01
 -1       238 2.46355E+01
 -1       239 2.20704E+01
 -1       240 2.86192E+01
 -1       241 2.81888E+01
 -1       242 2.84529E+01
 -1       243 2.67614E+01
 -1       244 2.33530E+01
 -1       245 2.04027E+01
 -1       246 2.39336E+01
 -1       247 2.13343E+01
 -1       248 2.57824E+01
 -1       249 2.51225E+01
 -1       250 2.63769E+01
 -1       251 2.74028E+01
 -1       252 2.59453E+01
 -1       253 2.68332E+01
 -1       254 2.69044E+01
 -1       255 2.41463E+01
 -1       256 2.59337E+01
 -1       257 2.16248E+01
 -1       258 2.61829E+01
 -1       259 2.93097E+01
 -1       260 2.89960E+01
 -1       261 3.07964E+01
 -1       262 2.35005E+01
 -1       263 2.75873E+01
 -1       264 2.77463E+01
 -1       265 2.91529E+01
 -1       266 2.98962E+01
 -1       267 2.71485E+01
 -1       268 2.13019E+01
 -1       269 2.52915E+01
 -1       270 2.43266E+01
 -1       271 1.94944E+01
 -1       272 2.42978E+01
 -1       273 2.14410E+01
 -1       274 2.69684E+01
 -1       275 2.32099E+01
 -1       276 2.38297E+01
 -1       277 2.28694E+01
 -1       278 2.42047E+01
 -1       279 2.50892E+01
 -1       280 2.06730E+01
 -1       281 1.39648E+01
 -1       282 1.60505E+01
 -1       283 1.19791E+01
 -1       284 1.32504E+01
 -1       285 2.52173E+01
 -1       286 2.23044E+01
 -1       287 1.11009E+01
 -1       288 1.34738E+01
 -1       289 1.92338E+01
 -1       290 2.37608E+01
 -1       291 1.67026E+01
 -1       292 1.05472E+01
 -1       293 2.61034E+01
 -1       294 2.16751E+01
 -1       295 2.74539E+01
 -1       296 2.63067E+01
 -1       297 2.44046E+01
 -1       298 2.38892E+01
 -1       299 2.45645E+01
 -1       300 2.68803E+01
 -1       301 2.17052E+01
 -1       302 2.06543E+01
 -1       303 1.71298E+01
 -1       304 2.16801E+01
 -1       305 1.37544E+01
 -1       306 2.50498E+01
 -1       307 2.24186E+01
 -1       308 1.19800E+01
 -1       309 1.36798E+01
 -1       310 1.94021E+01
 -1       311 2.37342E+01
 -1       312 1.71993E+01
 -1       313 1.11373E+01
 -1       314 1.42590E+01
 -1       315 1.22768E+01
 -1       316 1.56813E+01
 -1       317 2.47277E+01
 -1       318 2.17313E+01
 -1       319 2.40447E+01
 -1       320 2.76313E+01
 -1       321 2.76313E+01
 -1       322 2.06643E+01
 -1       323 2.49846E+01
 -1       324 2.20439E+01
 -1       325 2.38452E+01
 -1       326 2.77211E+01
 -1       327 2.77211E+01
 -1       328 2.06631E+01
 -1       329 2.89559E+01
 -1       330 1.80508E+01
 -1       331 1.17596E+01
 -1       332 1.68034E+01
 -1       333 2.59205E+01
 -1       334 2.59205E+01
 -1       335 2.23312E+01
 -1       336 2.23312E+01
 -1       337 2.43958E+01
 -1       338 2.43958E+01
 -1       339 1.51184E+01
 -1       340 1.20482E+01
 -1       341 1.73113E+01
 -1       342 3.15460E+01
 -1       343 3.02510E+01
 -1       344 2.35033E+01
 -1       345 1.49052E+01
 -1       346 1.42815E+01
 -1       347 2.13619E+01
 -1       348 2.59205E+01
 -1       349 2.41258E+01
 -1       350 2.23312E+01
 -1       351 2.33635E+01
 -1       352 2.43958E+01
 -1       353 1.97571E+01
 -1       354 1.35833E+01
 -1       355 1.46798E+01
 -1       356 2.44287E+01
 -1       357 3.15460E+01
 -1       358 3.43953E+01
 -1       359 1.76267E+01
 -1       360 1.23196E+01
 -1       361 1.21189E+01
 -1       362 4.66439E+00
 -1       363 2.45601E+00
 -1       364 2.34715E+00
 -1       365 2.34715E+00
 -1       366 2.23858E+00
 -1       367 4.12689E+00
 -1       368 1.22719E+01
 -1       369 1.29904E+01
 -1       370 1.79875E+01
 -1       371 3.62562E+01
 -1       372 3.53258E+01
 -1       373 2.60110E+01
 -1       374 1.49731E+01
 -1       375 1.22192E+01
 -1       376 8.39166E+00
 -1       377 3.56020E+00
 -1       378 2.40158E+00
 -1       379 2.34715E+00
 -1       380 2.29287E+00
 -1       381 3.18274E+00
 -1       382 8.19939E+00
 -1       383 1.26311E+01
 -1       384 1.54889E+01
 -1       385 2.71218E+01
 -1       386 3.62562E+01
 -1       387 3.15460E+01
 -1       388 3.15460E+01
 -1       389 2.77046E+01
 -1       390 1.31605E+01
 -1       391 2.06437E+01
 -1       392 2.31987E+01
 -1       393 1.29915E+01
 -1       394 1.69021E+01
 -1       395 2.19212E+01
 -1       396 2.35309E+01
 -1       397 1.80752E+01
 -1       398 1.54488E+01
 -1       399 1.80752E+01
 -1       400 1.35132E+01
 -1       401 2.02156E+01
 -1       402 2.25480E+01
 -1       403 1.57942E+01
 -1       404 1.68644E+01
 -1       405 2.13818E+01
 -1       406 2.26182E+01
 -1       407 3.62562E+01
 -1       408 2.94723E+01
 -1       409 3.62562E+01
 -1       410 2.53189E+01
 -1       411 2.02546E+01
 -1       412 1.42616E+01
 -1       413 2.40037E+01
 -1       414 2.27867E+01
 -1       415 1.72581E+01
 -1       416 1.44646E+01
 -1       417 1.46676E+01
 -1       418 1.33178E+01
 -1       419 1.46676E+01
 -1       420 2.48844E+01
 -1       421 2.00458E+01
 -1       422 1.35383E+01
 -1       423 2.43737E+01
 -1       424 2.24651E+01
 -1       425 1.67921E+01
 -1       426 1.27532E+01
 -1       427 2.87100E+00
 -1       428 5.88779E+00
 -1       429 7.02778E+00
 -1       430 6.71979E+00
 -1       431 5.18412E+00
 -1       432 4.81647E+00
 -1       433 4.11729E+00
 -1       434 4.28045E+00
 -1       435 5.02149E+00
 -1       436 6.18376E+00
 -1       437 1.68875E+01
 -1       438 9.98731E+00
 -1       439 4.37940E+00
 -1       440 6.45779E+00
 -1       441 6.87379E+00
 -1       442 5.95196E+00
 -1       443 5.00030E+00
 -1       444 4.46688E+00
 -1       445 4.19887E+00
 -1       446 4.65097E+00
 -1       447 5.60263E+00
 -1       448 1.15356E+01
 -1       449 2.29396E+01
 -1       450 2.94953E+00
 -1       451 6.62971E+00
 -1       452 7.20019E+00
 -1       453 6.67588E+00
 -1       454 5.12542E+00
 -1       455 4.56076E+00
 -1       456 4.13385E+00
 -1       457 4.29434E+00
 -1       458 5.25013E+00
 -1       459 6.00000E+00
 -1       460 1.70731E+01
 -1       461 1.05428E+01
 -1       462 4.78962E+00
 -1       463 6.91495E+00
 -1       464 6.93804E+00
 -1       465 5.90065E+00
 -1       466 4.84309E+00
 -1       467 4.34730E+00
 -1       468 4.21410E+00
 -1       469 4.77224E+00
 -1       470 5.62506E+00
 -1       471 1.15366E+01
 -1       472 2.29762E+01
 -1       473 2.29892E+01
 -1       474 2.29892E+01
 -1       475 1.89969E+01
 -1       476 2.29892E+01
 -1       477 1.90896E+01
 -1       478 1.35383E+01
 -1       479 1.25461E+01
 -1       480 1.43641E+01
 -1       481 1.30422E+01
 -1       482 1.22571E+01
 -1       483 1.37007E+01
 -1       484 1.23591E+01
 -1       485 1.20232E+01
 -1       486 1.30299E+01
 -1       487 1.35134E+01
 -1       488 7.05662E+00
 -1       489 8.70113E+00
 -1       490 8.67557E+00
 -1       491 6.27415E+00
 -1       492 7.73519E+00
 -1       493 8.13382E+00
 -1       494 1.35132E+01
 -1       495 1.20745E+01
 -1       496 1.13547E+01
 -1       497 1.27938E+01
 -1       498 1.50749E+01
 -1       499 1.31605E+01
 -1       500 1.23041E+01
 -1       501 1.49242E+01
 -1       502 1.27323E+01
 -1       503 1.25632E+01
 -1       504 2.29859E+01
 -1       505 2.29859E+01
 -1       506 1.90201E+01
 -1       507 2.29859E+01
 -1       508 1.98369E+01
 -1       509 1.83328E+01
 -1       510 2.26885E+01
 -1       511 2.26885E+01
 -1       512 1.81361E+01
 -1       513 1.43392E+01
 -1       514 2.05106E+01
 -1       515 2.26885E+01
 -1       516 2.04123E+01
 -1       517 1.36662E+01
 -1       518 2.30242E+01
 -1       519 2.63044E+01
 -1       520 2.43152E+01
 -1       521 2.27086E+01
 -1       522 1.91070E+01
 -1       523 2.46643E+01
 -1       524 2.53098E+01
 -1       525 2.35119E+01
 -1       526 1.96982E+01
 -1       527 2.24711E+01
 -1       528 2.18057E+01
 -1       529 2.63997E+01
 -1       530 2.70651E+01
 -1       531 2.63997E+01
 -1       532 2.17086E+01
 -1       533 2.17063E+01
 -1       534 2.47820E+01
 -1       535 2.47842E+01
 -1       536 2.47820E+01
 -1       537 2.54680E+01
 -1       538 2.48943E+01
 -1       539 2.83086E+01
 -1       540 2.88823E+01
 -1       541 2.88823E+01
 -1       542 2.44897E+01
 -1       543 2.49661E+01
 -1       544 2.92383E+01
 -1       545 2.87619E+01
 -1       546 2.92383E+01
 -1       547 1.53188E+01
 -1       548 1.72820E+01
 -1       549 7.90605E+00
 -1       550 1.43687E+01
 -1       551 2.00233E+01
 -1       552 8.12834E+00
 -1       553 1.55824E+01
 -1       554 1.53387E+01
 -1       555 2.60624E+01
 -1       556 1.79191E+01
 -1       557 1.94590E+01
 -1       558 2.08091E+01
 -1       559 1.77352E+01
 -1       560 1.72569E+01
 -1       561 1.06956E+01
 -1       562 8.39519E+00
 -1       563 2.08870E+01
 -1       564 1.78772E+01
 -1       565 1.67939E+01
 -1       566 1.67939E+01
 -1       567 1.46548E+01
 -1       568 1.46548E+01
 -1       569 1.70865E+01
 -1       570 2.01106E+01
 -1       571 2.84595E+01
 -1       572 2.84595E+01
 -1       573 2.84595E+01
 -1       574 2.64838E+01
 -1       575 1.68012E+01
 -1       576 2.92957E+01
 -1       577 1.35765E+01
 -1       578 2.92957E+01
 -1       579 2.39670E+01
 -1       580 2.62604E+01
 -1       581 2.92957E+01
 -1       582 2.62604E+01
 -1       583 1.78620E+01
 -1       584 1.42770E+01
 -1       585 1.80513E+01
 -1       586 2.88546E+01
 -1       587 1.35674E+01
 -1       588 1.65506E+01
 -1       589 1.28016E+01
 -1       590 2.11790E+01
 -1       591 1.14834E+01
 -1       592 2.71638E+01
 -1       593 1.19384E+01
 -1       594 9.05442E+00
 -1       595 9.91043E+00
 -1       596 1.83878E+01
 -1       597 2.86172E+01
 -1       598 2.88546E+01
 -1       599 1.35285E+01
 -1       600 2.74770E+01
 -1       601 1.07798E+01
 -1       602 1.38214E+01
 -1       603 1.24048E+01
 -1       604 1.36793E+01
 -1       605 2.86172E+01
 -1       606 7.41069E+00
 -1       607 1.16926E+01
 -1       608 8.08972E+00
 -1       609 1.25779E+01
 -1       610 1.00685E+01
 -1       611 2.14033E+01
 -1       612 1.72176E+01
 -1       613 1.79821E+01
 -1       614 1.43687E+01
 -1       615 1.06350E+01
 -1       616 2.21992E+01
 -1       617 1.59695E+01
 -1       618 1.68758E+01
 -1       619 2.69247E+01
 -1       620 1.52458E+01
 -1       621 1.09275E+01
 -1       622 1.44799E+01
 -1       623 1.59994E+01
 -1       624 8.83035E+00
 -1       625 1.58506E+01
 -1       626 1.49269E+01
 -1       627 1.91098E+01
 -1       628 2.27941E+01
 -1       629 1.65087E+01
 -1       630 1.47308E+01
 -1       631 2.64838E+01
 -1       632 2.91631E+01
 -1       633 7.70915E+00
 -1       634 1.04105E+01
 -1       635 1.47590E+01
 -1       636 2.91073E+01
 -1       637 1.47737E+01
 -1       638 1.86329E+01
 -1       639 2.27430E+01
 -1       640 7.16301E+00
 -1       641 8.64548E+00
 -1       642 8.94907E+00
 -1       643 1.51226E+01
 -1       644 2.11790E+01
 -1       645 1.25820E+01
 -1       646 1.68518E+01
 -1       647 7.32283E+00
 -1       648 1.84267E+01
 -1       649 1.76821E+01
 -1       650 2.08881E+01
 -1       651 2.91073E+01
 -1       652 7.93280E+00
 -1       653 9.45562E+00
 -1       654 1.22106E+01
 -1       655 1.78772E+01
 -1       656 1.78772E+01
 -1       657 1.64328E+01
 -1       658 1.77796E+01
 -1       659 1.77796E+01
 -1       660 1.31838E+01
 -1       661 8.71978E+00
 -1       662 1.22052E+01
 -1       663 1.34131E+01
 -1       664 1.38023E+01
 -1       665 1.86329E+01
 -1       666 1.05265E+01
 -1       667 9.83364E+00
 -1       668 1.46643E+01
 -1       669 1.86329E+01
 -1       670 1.75708E+01
 -1       671 1.65087E+01
 -1       672 1.75708E+01
 -1       673 1.89579E+01
 -1       674 2.21115E+01
 -1       675 1.08329E+01
 -1       676 1.17840E+01
 -1       677 1.55691E+01
 -1       678 2.27430E+01
 -1       679 1.87369E+01
 -1       680 1.70949E+01
 -1       681 1.87369E+01
 -1       682 2.08875E+01
 -1       683 2.05522E+01
 -1       684 1.90300E+01
 -1       685 2.08881E+01
 -1       686 2.08875E+01
 -1       687 1.77293E+01
 -1       688 1.16086E+01
 -1       689 1.07699E+01
 -1       690 1.47662E+01
 -1       691 1.66132E+01
 -1       692 1.62202E+01
 -1       693 1.81834E+01
 -1       694 1.71467E+01
 -1       695 1.83960E+01
 -1       696 1.56442E+01
 -1       697 1.59695E+01
 -1       698 1.66132E+01
 -1       699 1.60973E+01
 -1       700 1.53188E+01
 -1       701 1.56442E+01
 -1       702 1.73525E+01
 -1       703 1.68758E+01
 -1       704 1.60973E+01
 -1       705 1.94590E+01
 -1       706 1.86441E+01
 -1       707 1.81674E+01
 -1       708 1.70949E+01
 -1       709 1.54067E+01
 -1       710 1.73843E+01
 -1       711 1.32823E+01
 -1       712 1.47158E+01
 -1       713 1.14355E+01
 -1       714 1.52505E+01
 -1       715 9.20872E+00
 -1       716 7.18749E+00
 -1       717 1.03551E+01
 -1       718 8.15758E+00
 -1       719 8.15758E+00
 -1       720 9.09843E+00
 -1       721 7.16818E+00
 -1       722 7.01836E+00
 -1       723 9.07912E+00
 -1       724 6.92653E+00
 -1       725 6.86231E+00
 -1       726 7.99788E+00
 -1       727 6.61463E+00
 -1       728 8.87869E+00
 -1       729 7.65837E+00
 -1       730 1.28427E+01
 -1       731 1.57956E+01
 -1       732 1.13747E+01
 -1       733 1.65232E+01
 -1       734 1.50322E+01
 -1       735 1.60663E+01
 -1       736 1.25946E+01
 -1       737 1.86589E+01
 -1       738 1.69700E+01
 -1       739 1.86589E+01
 -1       740 1.39449E+01
 -1       741 1.47590E+01
 -1       742 1.77840E+01
 -1       743 1.60205E+01
 -1       744 1.72820E+01
 -1       745 1.60205E+01
 -1       746 1.62639E+01
 -1       747 1.64905E+01
 -1       748 1.62639E+01
 -1       749 1.77352E+01
 -1       750 1.74536E+01
 -1       751 1.64905E+01
 -1       752 1.67929E+01
 -1       753 1.65113E+01
 -1       754 1.83693E+01
 -1       755 1.52301E+01
 -1       756 1.19429E+01
 -1       757 1.21121E+01
 -1       758 1.72115E+01
 -1       759 1.62570E+01
 -1       760 1.45555E+01
 -1       761 1.63609E+01
 -1       762 1.80291E+01
 -1       763 1.64000E+01
 -1       764 1.43687E+01
 -1       765 1.49364E+01
 -1       766 1.57931E+01
 -1       767 1.40099E+01
 -1       768 1.43687E+01
 -1       769 1.43687E+01
 -1       770 1.70513E+01
 -1       771 1.58166E+01
 -1       772 1.61754E+01
 -1       773 1.90344E+01
 -1       774 1.80719E+01
 -1       775 1.90027E+01
 -1       776 2.18228E+01
 -1       777 2.33314E+01
 -1       778 2.43203E+01
 -1       779 2.07619E+01
 -1       780 2.05454E+01
 -1       781 2.73398E+01
 -1       782 1.75057E+01
 -1       783 1.37647E+01
 -1       784 1.40901E+01
 -1       785 1.68638E+01
 -1       786 1.60853E+01
 -1       787 1.48994E+01
 -1       788 1.56659E+01
 -1       789 1.33453E+01
 -1       790 1.22225E+01
 -1       791 1.12044E+01
 -1       792 1.21073E+01
 -1       793 1.33688E+01
 -1       794 8.30931E+00
 -1       795 8.90824E+00
 -1       796 8.66056E+00
 -1       797 9.79934E+00
 -1       798 1.08015E+01
 -1       799 9.89118E+00
 -1       800 1.77738E+01
 -1       801 1.91983E+01
 -1       802 1.25018E+01
 -1       803 1.25018E+01
 -1       804 1.59070E+01
 -1       805 2.44389E+01
 -1       806 2.87359E+01
 -1       807 2.24270E+01
 -1       808 1.80113E+01
 -1       809 1.69908E+01
 -1       810 1.32581E+01
 -1       811 1.54849E+01
 -1       812 1.31603E+01
 -1       813 8.03057E+00
 -1       814 9.00066E+00
 -1       815 2.15297E+01
 -1       816 2.05028E+01
 -1       817 1.70045E+01
 -1       818 2.29518E+01
 -1       819 1.78221E+01
 -1       820 1.60663E+01
 -1       821 1.67939E+01
 -1       822 1.49967E+01
 -1       823 1.57244E+01
 -1       824 1.10327E+01
 -1       825 2.73398E+01
 -1       826 2.86172E+01
 -1       827 2.44283E+01
 -1       828 2.57057E+01
 -1       829 1.58716E+01
 -1       830 1.81534E+01
 -1       831 1.65208E+01
 -1       832 1.67552E+01
 -1       833 1.64230E+01
 -1       834 1.17862E+01
 -1       835 1.50247E+01
 -1       836 1.42567E+01
 -1       837 1.29651E+01
 -1       838 1.35841E+01
 -1       839 8.38179E+00
 -1       840 1.12200E+01
 -1       841 1.66069E+01
 -1       842 2.49861E+01
 -1       843 2.07839E+01
 -1       844 1.35819E+01
 -1       845 2.28359E+01
 -1       846 1.42575E+01
 -1       847 1.30128E+01
 -1       848 1.28534E+01
 -1       849 1.63311E+01
 -1       850 1.53888E+01
 -1       851 1.16462E+01
 -1       852 1.22899E+01
 -1       853 2.00255E+01
 -1       854 2.09520E+01
 -1       855 1.50585E+01
 -1       856 2.13458E+01
 -1       857 1.99293E+01
 -1       858 1.36022E+01
 -1       859 1.22516E+01
 -1       860 8.05217E+00
 -1       861 1.15630E+01
 -1       862 1.83688E+01
 -1       863 1.22480E+01
 -1       864 1.84935E+01
 -1       865 1.40295E+01
 -1       866 1.22516E+01
 -1       867 1.46548E+01
 -1       868 1.57244E+01
 -1       869 1.18546E+01
 -1       870 1.29242E+01
 -1       871 1.58706E+01
 -1       872 1.58706E+01
 -1       873 1.22826E+01
 -1       874 1.34985E+01
 -1       875 1.85986E+01
 -1       876 1.73827E+01
 -1       877 1.68950E+01
 -1       878 1.41670E+01
 -1       879 1.13669E+01
 -1       880 2.27730E+01
 -1       881 2.42851E+01
 -1       882 1.92449E+01
 -1       883 2.49314E+01
 -1       884 1.56569E+01
 -1       885 2.84595E+01
 -1       886 2.42851E+01
 -1       887 2.32554E+01
 -1       888 1.90810E+01
 -1       889 1.58653E+01
 -1       890 2.84595E+01
 -1       891 2.84595E+01
 -1       892 2.74716E+01
 -1       893 2.74716E+01
 -1       894 2.39435E+01
 -1       895 2.76921E+01
 -1       896 2.76921E+01
 -1       897 2.86570E+01
 -1       898 2.34530E+01
 -1       899 2.78896E+01
 -1       900 2.16425E+01
 -1       901 2.26304E+01
 -1       902 1.51843E+01
 -1       903 2.10135E+01
 -1       904 2.02461E+01
 -1       905 2.78897E+01
 -1       906 2.30485E+01
 -1       907 2.64838E+01
 -1       908 2.78897E+01
 -1       909 2.39435E+01
 -1       910 2.14361E+01
 -1       911 1.51889E+01
 -1       912 1.19935E+01
 -1       913 1.36059E+01
 -1       914 1.19890E+01
 -1       915 2.92957E+01
 -1       916 2.14361E+01
 -1       917 2.92957E+01
 -1       918 2.92957E+01
 -1       919 2.78897E+01
 -1       920 2.66313E+01
 -1       921 1.87717E+01
 -1       922 1.93703E+01
 -1       923 1.41751E+01
 -1       924 1.25921E+01
 -1       925 2.77780E+01
 -1       926 2.51137E+01
 -1       927 2.57475E+01
 -1       928 2.42298E+01
 -1       929 2.57475E+01
 -1       930 2.62604E+01
 -1       931 2.51137E+01
 -1       932 2.37197E+01
 -1       933 2.25730E+01
 -1       934 1.79763E+01
 -1       935 2.20612E+01
 -1       936 2.20612E+01
 -1       937 2.02687E+01
 -1       938 1.60695E+01
 -1       939 1.82381E+01
 -1       940 2.09368E+01
 -1       941 1.17527E+01
 -1       942 2.01116E+01
 -1       943 1.95308E+01
 -1       944 1.65634E+01
 -1       945 1.72063E+01
 -1       946 2.14055E+01
 -1       947 2.28289E+01
 -1       948 2.76838E+01
 -1       949 2.51431E+01
 -1       950 1.35393E+01
 -1       951 1.53318E+01
 -1       952 1.58417E+01
 -1       953 1.51860E+01
 -1       954 1.33115E+01
 -1       955 1.28802E+01
 -1       956 1.21425E+01
 -1       957 1.31077E+01
 -1       958 1.17109E+01
 -1       959 1.70688E+01
 -1       960 2.80092E+01
 -1       961 2.26075E+01
 -1       962 2.08219E+01
 -1       963 1.62656E+01
 -1       964 1.40796E+01
 -1       965 2.87359E+01
 -1       966 2.78905E+01
 -1       967 2.88546E+01
 -1       968 2.87359E+01
 -1       969 2.78896E+01
 -1       970 1.47834E+01
 -1       971 2.14620E+01
 -1       972 1.11989E+01
 -1       973 1.24149E+01
 -1       974 9.62043E+00
 -1       975 1.31131E+01
 -1       976 1.44777E+01
 -1       977 2.07560E+01
 -1       978 2.28289E+01
 -1       979 2.91073E+01
 -1       980 1.11316E+01
 -1       981 1.17907E+01
 -1       982 8.97141E+00
 -1       983 9.98229E+00
 -1       984 1.04922E+01
 -1       985 2.37670E+01
 -1       986 1.98028E+01
 -1       987 2.11790E+01
 -1       988 1.79763E+01
 -1       989 1.98028E+01
 -1       990 1.51631E+01
 -1       991 1.49356E+01
 -1       992 1.33030E+01
 -1       993 1.29512E+01
 -1       994 1.79700E+01
 -1       995 1.72433E+01
 -1       996 1.96872E+01
 -1       997 9.76673E+00
 -1       998 9.93563E+00
 -1       999 1.14330E+01
 -1      1000 9.43014E+00
 -1      1001 1.52655E+01
 -1      1002 1.29531E+01
 -1      1003 1.65480E+01
 -1      1004 2.83200E+01
 -1      1005 2.82921E+01
 -1      1006 2.91352E+01
 -1      1007 2.82921E+01
 -1      1008 1.16385E+01
 -1      1009 1.09302E+01
 -1      1010 1.03338E+01
 -1      1011 1.21353E+01
 -1      1012 1.90882E+01
 -1      1013 1.13232E+01
 -1      1014 1.04980E+01
 -1      1015 1.34062E+01
 -1      1016 1.15995E+01
 -1      1017 9.73268E+00
 -1      1018 1.05228E+01
 -1      1019 1.27044E+01
 -1      1020 2.01458E+01
 -1      1021 1.59695E+01
 -1      1022 2.01458E+01
 -1      1023 2.18437E+01
 -1      1024 1.68758E+01
 -1      1025 2.27401E+01
 -1      1026 2.18437E+01
 -1      1027 2.27430E+01
 -1      1028 2.05156E+01
 -1      1029 2.44544E+01
 -1      1030 1.98604E+01
 -1      1031 1.85136E+01
 -1      1032 2.37903E+01
 -1      1033 2.37903E+01
 -1      1034 2.04437E+01
 -1      1035 2.27430E+01
 -1      1036 2.55258E+01
 -1      1037 2.11010E+01
 -1      1038 2.55244E+01
 -1      1039 2.15885E+01
 -1      1040 1.98839E+01
 -1      1041 2.11796E+01
 -1      1042 2.27416E+01
 -1      1043 1.85136E+01
 -1      1044 1.89066E+01
 -1      1045 2.18437E+01
 -1      1046 1.59695E+01
 -1      1047 1.56442E+01
 -1      1048 1.89066E+01
 -1      1049 1.60973E+01
 -1      1050 1.68758E+01
 -1      1051 1.64227E+01
 -1      1052 1.85108E+01
 -1      1053 1.89875E+01
 -1      1054 1.85108E+01
 -1      1055 1.89875E+01
 -1      1056 1.98024E+01
 -1      1057 2.01458E+01
 -1      1058 2.14444E+01
 -1      1059 1.83107E+01
 -1      1060 2.11077E+01
 -1      1061 2.11796E+01
 -1      1062 1.63747E+01
 -1      1063 1.53736E+01
 -1      1064 1.84339E+01
 -1      1065 1.68278E+01
 -1      1066 2.01458E+01
 -1      1067 2.00689E+01
 -1      1068 1.85867E+01
 -1      1069 2.01458E+01
 -1      1070 2.14430E+01
 -1      1071 2.71742E+01
 -1      1072 1.72820E+01
 -1      1073 1.58178E+01
 -1      1074 2.25900E+01
 -1      1075 1.47590E+01
 -1      1076 2.46502E+01
 -1      1077 1.81378E+01
 -1      1078 2.08881E+01
 -1      1079 1.81378E+01
 -1      1080 1.83854E+01
 -1      1081 2.14588E+01
 -1      1082 1.73233E+01
 -1      1083 2.14588E+01
 -1      1084 2.14588E+01
 -1      1085 1.81378E+01
 -1      1086 2.48250E+01
 -1      1087 2.08881E+01
 -1      1088 1.90300E+01
 -1      1089 2.22322E+01
 -1      1090 2.67061E+01
 -1      1091 2.59122E+01
 -1      1092 1.81378E+01
 -1      1093 2.27692E+01
 -1      1094 1.44743E+01
 -1      1095 1.61633E+01
 -1      1096 1.69778E+01
 -1      1097 1.47590E+01
 -1      1098 1.39449E+01
 -1      1099 1.52884E+01
 -1      1100 1.72820E+01
 -1      1101 1.60205E+01
 -1      1102 1.60205E+01
 -1      1103 2.01626E+01
 -1      1104 1.99360E+01
 -1      1105 1.99360E+01
 -1      1106 2.21731E+01
 -1      1107 2.24547E+01
 -1      1108 2.48821E+01
 -1      1109 2.40311E+01
 -1      1110 1.69778E+01
 -1      1111 1.51452E+01
 -1      1112 1.69778E+01
 -1      1113 1.46158E+01
 -1      1114 1.59501E+01
 -1      1115 1.72116E+01
 -1      1116 1.99360E+01
 -1      1117 2.25900E+01
 -1      1118 2.48821E+01
 -1      1119 2.71742E+01
 -1      1120 2.71742E+01
 -1      1121 2.59122E+01
 -1      1122 8.54332E+00
 -1      1123 2.89917E+01
 -1      1124 1.69317E+01
 -1      1125 2.19621E+01
 -1      1126 2.99640E+01
 -1      1127 2.35309E+01
 -1      1128 2.88793E+01
 -1      1129 2.48219E+01
 -1      1130 2.93442E+01
 -1      1131 1.28320E+01
 -1      1132 1.36511E+01
 -1      1133 1.31908E+01
 -1      1134 1.59354E+01
 -1      1135 1.35563E+01
 -1      1136 1.43687E+01
 -1      1137 1.84927E+01
 -1      1138 1.63685E+01
 -1      1139 1.22129E+01
 -1      1140 2.08348E+01
 -1      1141 1.56984E+01
 -1      1142 2.21134E+01
 -1      1143 2.21134E+01
 -1      1144 1.75188E+01
 -1      1145 1.89875E+01
 -1      1146 1.10813E+01
 -1      1147 1.17741E+01
 -1      1148 2.05763E+01
 -1      1149 2.05763E+01
 -1      1150 1.63685E+01
 -1      1151 2.94217E+01
 -1      1152 2.88793E+01
 -1      1153 1.87113E+01
 -1      1154 9.83217E+00
 -1      1155 1.87113E+01
 -1      1156 2.89917E+01
 -1      1157 2.91680E+01
 -1      1158 1.19765E+01
 -1      1159 2.09119E+01
 -1      1160 2.09119E+01
 -1      1161 1.72140E+01
 -1      1162 1.47796E+01
 -1      1163 1.36445E+01
 -1      1164 1.69317E+01
 -1      1165 1.50613E+01
 -1      1166 2.02313E+01
 -1      1167 2.11857E+01
 -1      1168 2.02313E+01
 -1      1169 2.40924E+01
 -1      1170 2.24242E+01
 -1      1171 2.64375E+01
 -1      1172 1.49364E+01
 -1      1173 1.43687E+01
 -1      1174 2.91680E+01
 -1      1175 2.22479E+01
 -1      1176 2.16802E+01
 -1      1177 1.40099E+01
 -1      1178 1.36511E+01
 -1      1179 1.40099E+01
 -1      1180 1.36037E+01
 -1      1181 1.48384E+01
 -1      1182 1.36037E+01
 -1      1183 2.30423E+01
 -1      1184 2.40047E+01
 -1      1185 2.24999E+01
 -1      1186 2.94217E+01
 -1      1187 2.12178E+01
 -1      1188 2.14337E+01
 -1      1189 1.99252E+01
 -1      1190 2.73930E+01
 -1      1191 1.84953E+01
 -1      1192 1.87118E+01
 -1      1193 2.33920E+01
 -1      1194 1.89487E+01
 -1      1195 2.99640E+01
 -1      1196 2.99640E+01
 -1      1197 2.44126E+01
 -1      1198 2.73930E+01
 -1      1199 1.92536E+01
 -1      1200 2.29827E+01
 -1      1201 2.02274E+01
 -1      1202 2.02313E+01
 -1      1203 1.66501E+01
 -1      1204 1.66501E+01
 -1      1205 2.64375E+01
 -1      1206 2.35309E+01
 -1      1207 2.93442E+01
 -1      1208 2.93442E+01
 -1      1209 1.06877E+01
 -1      1210 1.10498E+01
 -1      1211 1.10972E+01
 -1      1212 1.32415E+01
 -1      1213 1.36003E+01
 -1      1214 1.32634E+01
 -1      1215 5.95422E+00
 -1      1216 6.36609E+00
 -1      1217 9.45393E+00
 -1      1218 9.58308E+00
 -1      1219 2.96832E+01
 -1      1220 2.78635E+01
 -1      1221 1.34056E+01
 -1      1222 1.22071E+01
 -1      1223 2.74083E+01
 -1      1224 2.80358E+01
 -1      1225 6.06435E+00
 -1      1226 8.26415E+00
 -1      1227 7.52374E+00
 -1      1228 1.41275E+01
 -1      1229 1.32634E+01
 -1      1230 8.05118E+00
 -1      1231 8.34314E+00
 -1      1232 1.64812E+01
 -1      1233 1.52845E+01
 -1      1234 1.14435E+01
 -1      1235 1.45791E+01
 -1      1236 2.97148E+01
 -1      1237 2.94561E+01
 -1      1238 2.23703E+01
 -1      1239 1.52286E+01
 -1      1240 1.42775E+01
 -1      1241 2.94561E+01
 -1      1242 2.94561E+01
 -1      1243 2.78244E+01
 -1      1244 1.55265E+01
 -1      1245 2.30980E+01
 -1      1246 1.46878E+01
 -1      1247 2.97148E+01
 -1      1248 2.97148E+01
 -1      1249 2.85615E+01
 -1      1250 2.96832E+01
 -1      1251 2.96832E+01
 -1      1252 8.15560E+00
 -1      1253 1.96332E+01
 -1      1254 8.81713E+00
 -1      1255 1.88672E+01
 -1      1256 2.15444E+01
 -1      1257 2.15444E+01
 -1      1258 1.07284E+01
 -1      1259 1.48167E+01
 -1      1260 1.06536E+01
 -1      1261 1.81106E+01
 -1      1262 1.32240E+01
 -1      1263 1.69529E+01
 -1      1264 8.95448E+00
 -1      1265 1.86587E+01
 -1      1266 7.95970E+00
 -1      1267 2.78635E+01
 -1      1268 2.78635E+01
 -1      1269 1.81033E+01
 -1      1270 8.89853E+00
 -1      1271 2.00353E+01
 -1      1272 2.00353E+01
 -1      1273 1.02751E+01
 -1      1274 2.23703E+01
 -1      1275 2.30980E+01
 -1      1276 2.21289E+01
 -1      1277 2.01513E+01
 -1      1278 2.19447E+01
 -1      1279 1.90763E+01
 -1      1280 2.23565E+01
 -1      1281 2.76359E+01
 -1      1282 9.22690E+00
 -1      1283 1.12481E+01
 -1      1284 6.30637E+00
 -1      1285 6.30637E+00
 -1      1286 9.28662E+00
 -1      1287 6.00568E+00
 -1      1288 6.15550E+00
 -1      1289 6.21522E+00
 -1      1290 5.88640E+00
 -1      1291 5.95062E+00
 -1      1292 6.00929E+00
 -1      1293 1.18761E+01
 -1      1294 9.61206E+00
 -1      1295 9.67989E+00
 -1      1296 2.29678E+01
 -1      1297 2.00150E+01
 -1      1298 2.06532E+01
 -1      1299 2.21441E+01
 -1      1300 2.88595E+01
 -1      1301 2.16601E+01
 -1      1302 2.88595E+01
 -1      1303 2.71143E+01
 -1      1304 2.87459E+01
 -1      1305 1.20811E+01
 -1      1306 1.78629E+01
 -1      1307 1.74066E+01
 -1      1308 1.23535E+01
 -1      1309 1.74066E+01
 -1      1310 1.74066E+01
 -1      1311 1.32634E+01
 -1      1312 1.78387E+01
 -1      1313 1.78848E+01
 -1      1314 1.36955E+01
 -1      1315 1.43533E+01
 -1      1316 1.04487E+01
 -1      1317 2.74083E+01
 -1      1318 2.76359E+01
 -1      1319 2.85615E+01
 -1      1320 1.07638E+01
 -1      1321 7.89394E+00
 -1      1322 1.03936E+01
 -1      1323 1.07638E+01
 -1      1324 1.08256E+01
 -1      1325 7.00270E+00
 -1      1326 6.73898E+00
 -1      1327 6.79404E+00
 -1      1328 7.78746E+00
 -1      1329 7.35461E+00
 -1      1330 7.16425E+00
 -1      1331 7.31512E+00
 -1      1332 8.30365E+00
 -1      1333 1.13587E+01
 -1      1334 1.08033E+01
 -1      1335 1.18553E+01
 -1      1336 1.10893E+01
 -1      1337 1.43893E+01
 -1      1338 2.64232E+01
 -1      1339 2.93766E+01
 -1      1340 1.99920E+01
 -1      1341 1.70329E+01
 -1      1342 2.39131E+01
 -1      1343 2.81895E+01
 -1      1344 2.27746E+01
 -1      1345 2.56403E+01
 -1      1346 2.83591E+01
 -1      1347 1.70518E+01
 -1      1348 1.70518E+01
 -1      1349 1.82323E+01
 -1      1350 1.56384E+01
 -1      1351 1.09755E+01
 -1      1352 2.17881E+01
 -1      1353 2.18210E+01
 -1      1354 2.88873E+01
 -1      1355 1.92555E+01
 -1      1356 1.67798E+01
 -1      1357 2.57609E+01
 -1      1358 2.57609E+01
 -1      1359 2.86172E+01
 -1      1360 2.71638E+01
 -1      1361 2.81895E+01
 -1      1362 1.55882E+01
 -1      1363 2.36126E+01
 -1      1364 2.99640E+01
 -1      1365 2.42058E+01
 -1      1366 2.93766E+01
 -1      1367 2.05156E+01
 -1      1368 1.91995E+01
 -1      1369 2.51008E+01
 -1      1370 1.86097E+01
 -1      1371 1.47468E+01
 -1      1372 2.96832E+01
 -1      1373 2.70651E+01
 -1      1374 2.94561E+01
 -1      1375 2.51008E+01
 -1      1376 2.88793E+01
 -1      1377 1.09755E+01
 -1      1378 2.88546E+01
 -1      1379 2.27746E+01
 -1      1380 2.04961E+01
 -1      1381 1.23461E+01
 -1      1382 2.63997E+01
 -1      1383 2.70651E+01
 -1      1384 1.67890E+01
 -1      1385 2.13836E+01
 -1      1386 2.20490E+01
 -1      1387 2.70651E+01
 -1      1388 2.37903E+01
 -1      1389 2.04437E+01
 -1      1390 2.37903E+01
 -1      1391 2.49465E+01
 -1      1392 2.88823E+01
 -1      1393 2.04704E+01
 -1      1394 2.21750E+01
 -1      1395 2.66846E+01
 -1      1396 2.94561E+01
 -1      1397 2.72784E+01
 -1      1398 2.56468E+01
 -1      1399 2.72784E+01
 -1      1400 2.88793E+01
 -1      1401 2.94217E+01
 -1      1402 2.86192E+01
 -1      1403 2.96832E+01
 -1      1404 2.96832E+01
 -1      1405 2.74028E+01
 -1      1406 2.07548E+01
 -1      1407 2.24225E+01
 -1      1408 2.33541E+01
 -1      1409 2.52030E+01
 -1      1410 2.33541E+01
 -1      1411 2.86573E+01
 -1      1412 2.66358E+01
 -1      1413 2.42075E+01
 -1      1414 2.79104E+01
 -1      1415 2.69149E+01
 -1      1416 2.89364E+01
 -1      1417 1.97856E+01
 -1      1418 1.69886E+01
 -1      1419 1.98575E+01
 -1      1420 1.45835E+01
 -1      1421 1.55845E+01
 -1      1422 1.67944E+01
 -1      1423 1.67798E+01
 -1      1424 1.83859E+01
 -1      1425 1.55845E+01
 -1      1426 1.99920E+01
 -1      1427 2.00689E+01
 -1      1428 1.83859E+01
 -1      1429 2.09834E+01
 -1      1430 1.94243E+01
 -1      1431 2.09065E+01
 -1      1432 2.28670E+01
 -1      1433 2.99640E+01
 -1      1434 2.99640E+01
 -1      1435 2.94217E+01
 -1      1436 2.81936E+01
 -1      1437 2.52133E+01
 -1      1438 2.81936E+01
 -1      1439 2.48821E+01
 -1      1440 2.11529E+01
 -1      1441 2.60921E+01
 -1      1442 2.13969E+01
 -1      1443 2.71911E+01
 -1      1444 2.89364E+01
 -1      1445 2.89364E+01
 -1      1446 2.66451E+01
 -1      1447 2.81888E+01
 -1      1448 2.83591E+01
 -1      1449 2.86192E+01
 -1      1450 2.88873E+01
 -1      1451 2.84529E+01
 -1      1452 2.86232E+01
 -1      1453 2.70060E+01
 -1      1454 2.91319E+01
 -1      1455 2.91319E+01
 -1      1456 2.31381E+01
 -1      1457 2.44206E+01
 -1      1458 2.67912E+01
 -1      1459 2.34902E+01
 -1      1460 2.27746E+01
 -1      1461 1.45680E+01
 -1      1462 1.57633E+01
 -1      1463 2.31816E+01
 -1      1464 2.07765E+01
 -1      1465 2.09553E+01
 -1      1466 2.75202E+01
 -1      1467 2.71891E+01
 -1      1468 2.34597E+01
 -1      1469 2.45567E+01
 -1      1470 2.52301E+01
 -1      1471 2.93766E+01
 -1      1472 2.91319E+01
 -1      1473 1.82759E+01
 -1      1474 2.08613E+01
 -1      1475 2.08613E+01
 -1      1476 1.93008E+01
 -1      1477 2.02153E+01
 -1      1478 1.38777E+01
 -1      1479 1.54837E+01
 -1      1480 1.70989E+01
 -1      1481 1.77901E+01
 -1      1482 1.32818E+01
 -1      1483 2.57609E+01
 -1      1484 2.13969E+01
 -1      1485 2.31382E+01
 -1      1486 1.87742E+01
 -1      1487 2.34609E+01
 -1      1488 2.45069E+01
 -1      1489 2.45069E+01
 -1      1490 2.51008E+01
 -1      1491 2.59010E+01
 -1      1492 2.59010E+01
 -1      1493 2.81895E+01
 -1      1494 2.66451E+01
 -1      1495 2.43567E+01
 -1      1496 2.13460E+01
 -1      1497 1.99132E+01
 -1      1498 2.06288E+01
 -1      1499 2.34902E+01
 -1      1500 2.13460E+01
 -1      1501 1.70518E+01
 -1      1502 2.19363E+01
 -1      1503 1.76420E+01
 -1      1504 2.32109E+01
 -1      1505 2.40714E+01
 -1      1506 2.38073E+01
 -1      1507 1.98758E+01
 -1      1508 2.44276E+01
 -1      1509 2.91616E+01
 -1      1510 1.63451E+01
 -1      1511 1.63451E+01
 -1      1512 1.39923E+01
 -1      1513 1.46989E+01
 -1      1514 1.69102E+01
 -1      1515 1.63200E+01
 -1      1516 1.40136E+01
 -1      1517 1.33070E+01
 -1      1518 1.32818E+01
 -1      1519 2.09224E+01
 -1      1520 1.84210E+01
 -1      1521 2.11111E+01
 -1      1522 1.63818E+01
 -1      1523 1.87133E+01
 -1      1524 2.55823E+01
 -1      1525 2.25075E+01
 -1      1526 1.28611E+01
 -1      1527 1.82674E+01
 -1      1528 1.09755E+01
 -1      1529 1.28611E+01
 -1      1530 2.44759E+01
 -1      1531 2.80092E+01
 -1      1532 2.53213E+01
 -1      1533 2.91156E+01
 -1      1534 2.27168E+01
 -1      1535 2.43160E+01
 -1      1536 2.40550E+01
 -1      1537 2.46753E+01
 -1      1538 2.71891E+01
 -1      1539 2.78905E+01
 -1      1540 2.64623E+01
 -1      1541 2.24802E+01
 -1      1542 2.87359E+01
 -1      1543 1.43036E+01
 -1      1544 2.54198E+01
 -1      1545 3.10200E+01
 -1      1546 2.25900E+01
 -1      1547 1.63685E+01
 -1      1548 2.33677E+01
 -1      1549 2.74083E+01
 -1      1550 2.32085E+01
 -1      1551 2.51302E+01
 -1      1552 2.93097E+01
 -1      1553 1.93521E+01
 -1      1554 1.93521E+01
 -1      1555 2.30814E+01
 -1      1556 1.42023E+01
 -1      1557 1.10655E+01
 -1      1558 1.60402E+01
 -1      1559 2.71742E+01
 -1      1560 2.93097E+01
 -1      1561 2.55358E+01
 -1      1562 1.71412E+01
 -1      1563 2.54198E+01
 -1      1564 2.24172E+01
 -1      1565 2.91631E+01
 -1      1566 2.38353E+01
 -1      1567 2.69732E+01
 -1      1568 1.46721E+01
 -1      1569 2.56821E+01
 -1      1570 2.93442E+01
 -1      1571 3.07964E+01
 -1      1572 1.51149E+01
 -1      1573 1.81378E+01
 -1      1574 2.08091E+01
 -1      1575 2.33677E+01
 -1      1576 1.77064E+01
 -1      1577 1.20714E+01
 -1      1578 2.72114E+01
 -1      1579 2.97148E+01
 -1      1580 2.47842E+01
 -1      1581 2.89917E+01
 -1      1582 2.26238E+01
 -1      1583 1.60402E+01
 -1      1584 9.28091E+00
 -1      1585 2.30694E+01
 -1      1586 2.46714E+01
 -1      1587 3.10200E+01
 -1      1588 2.78635E+01
 -1      1589 2.47820E+01
 -1      1590 2.47842E+01
 -1      1591 1.81378E+01
 -1      1592 2.14588E+01
 -1      1593 2.14610E+01
 -1      1594 2.47842E+01
 -1      1595 2.05763E+01
 -1      1596 1.63685E+01
 -1      1597 2.05763E+01
 -1      1598 2.97148E+01
 -1      1599 2.92383E+01
 -1      1600 2.53880E+01
 -1      1601 2.65412E+01
 -1      1602 2.65412E+01
 -1      1603 2.47644E+01
 -1      1604 2.15909E+01
 -1      1605 2.52709E+01
 -1      1606 2.65412E+01
 -1      1607 2.91680E+01
 -1      1608 2.89917E+01
 -1      1609 2.75873E+01
 -1      1610 2.78635E+01
 -1      1611 2.78635E+01
 -1      1612 2.69044E+01
 -1      1613 2.74663E+01
 -1      1614 2.65783E+01
 -1      1615 2.36774E+01
 -1      1616 2.54648E+01
 -1      1617 2.41694E+01
 -1      1618 2.64257E+01
 -1      1619 2.60517E+01
 -1      1620 2.73471E+01
 -1      1621 2.70923E+01
 -1      1622 2.10863E+01
 -1      1623 2.36079E+01
 -1      1624 2.32850E+01
 -1      1625 1.76409E+01
 -1      1626 1.94735E+01
 -1      1627 1.94735E+01
 -1      1628 1.57224E+01
 -1      1629 1.43881E+01
 -1      1630 1.75564E+01
 -1      1631 1.98656E+01
 -1      1632 1.71412E+01
 -1      1633 1.57224E+01
 -1      1634 2.48821E+01
 -1      1635 2.25900E+01
 -1      1636 1.98656E+01
 -1      1637 2.71742E+01
 -1      1638 2.71742E+01
 -1      1639 2.48821E+01
 -1      1640 2.52709E+01
 -1      1641 2.08941E+01
 -1      1642 2.44753E+01
 -1      1643 2.08941E+01
 -1      1644 2.44753E+01
 -1      1645 2.73820E+01
 -1      1646 2.54198E+01
 -1      1647 2.93442E+01
 -1      1648 2.93442E+01
 -1      1649 2.73820E+01
 -1      1650 2.91680E+01
 -1      1651 2.76359E+01
 -1      1652 2.74083E+01
 -1      1653 2.53880E+01
 -1      1654 2.75375E+01
 -1      1655 2.73098E+01
 -1      1656 2.75375E+01
 -1      1657 2.31390E+01
 -1      1658 2.77463E+01
 -1      1659 2.93097E+01
 -1      1660 2.91507E+01
 -1      1661 2.93097E+01
 -1      1662 2.91529E+01
 -1      1663 2.93097E+01
 -1      1664 3.00080E+01
 -1      1665 3.09082E+01
 -1      1666 3.01649E+01
 -1      1667 3.07964E+01
 -1      1668 2.71485E+01
 -1      1669 3.09082E+01
 -1      1670 2.69329E+01
 -1      1671 1.46063E+01
 -1      1672 1.31875E+01
 -1      1673 2.23222E+01
 -1      1674 1.90695E+01
 -1      1675 1.79534E+01
 -1      1676 2.72914E+01
 -1      1677 2.72914E+01
 -1      1678 2.69172E+01
 -1      1679 2.50456E+01
 -1      1680 2.70078E+01
 -1      1681 2.22123E+01
 -1      1682 2.30675E+01
 -1      1683 3.10200E+01
 -1      1684 3.09082E+01
 -1      1685 2.30675E+01
 -1      1686 2.24403E+01
 -1      1687 2.01482E+01
 -1      1688 1.86310E+01
 -1      1689 1.59066E+01
 -1      1690 1.61892E+01
 -1      1691 1.93928E+01
 -1      1692 2.39185E+01
 -1      1693 1.72531E+01
 -1      1694 2.02775E+01
 -1      1695 2.29957E+01
 -1      1696 2.48990E+01
 -1      1697 2.33677E+01
 -1      1698 2.29957E+01
 -1      1699 2.63276E+01
 -1      1700 2.65452E+01
 -1      1701 2.71907E+01
 -1      1702 2.41530E+01
 -1      1703 2.50160E+01
 -1      1704 2.12803E+01
 -1      1705 2.22412E+01
 -1      1706 2.70025E+01
 -1      1707 2.50743E+01
 -1      1708 1.93521E+01
 -1      1709 2.22412E+01
 -1      1710 2.12168E+01
 -1      1711 2.41058E+01
 -1      1712 2.50273E+01
 -1      1713 2.74228E+01
 -1      1714 2.74228E+01
 -1      1715 2.69906E+01
 -1      1716 2.51036E+01
 -1      1717 2.93270E+01
 -1      1718 1.67772E+01
 -1      1719 1.67772E+01
 -1      1720 2.51861E+01
 -1      1721 2.26112E+01
 -1      1722 1.70121E+01
 -1      1723 1.88767E+01
 -1      1724 1.26339E+01
 -1      1725 1.52088E+01
 -1      1726 1.28688E+01
 -1      1727 2.43817E+01
 -1      1728 2.03939E+01
 -1      1729 2.16942E+01
 -1      1730 1.51213E+01
 -1      1731 1.35528E+01
 -1      1732 1.46586E+01
 -1      1733 1.55775E+01
 -1      1734 1.40558E+01
 -1      1735 1.15684E+01
 -1      1736 1.01732E+01
 -1      1737 1.19765E+01
 -1      1738 1.06762E+01
 -1      1739 1.99378E+01
 -1      1740 1.60402E+01
 -1      1741 1.99378E+01
 -1      1742 1.55775E+01
 -1      1743 2.64281E+01
 -1      1744 2.03254E+01
 -1      1745 2.07880E+01
 -1      1746 2.03558E+01
 -1      1747 1.32110E+01
 -1      1748 2.57901E+01
 -1      1749 2.31262E+01
 -1      1750 2.64992E+01
 -1      1751 2.16131E+01
 -1      1752 2.26016E+01
 -1      1753 2.77463E+01
 -1      1754 1.84571E+01
 -1      1755 2.58044E+01
 -1      1756 2.29789E+01
 -1      1757 2.30883E+01
 -1      1758 2.32250E+01
 -1      1759 2.41899E+01
 -1      1760 2.36931E+01
 -1      1761 1.83928E+01
 -1      1762 1.81694E+01
 -1      1763 2.05575E+01
 -1      1764 2.30944E+01
 -1      1765 1.84718E+01
 -1      1766 1.64862E+01
 -1      1767 1.70399E+01
 -1      1768 2.36227E+01
 -1      1769 2.50511E+01
 -1      1770 2.44464E+01
 -1      1771 2.73573E+01
 -1      1772 2.45937E+01
 -1      1773 2.67753E+01
 -1      1774 2.08335E+01
 -1      1775 2.27128E+01
 -1      1776 2.31017E+01
 -1      1777 2.07180E+01
 -1      1778 1.95274E+01
 -1      1779 2.55108E+01
 -1      1780 2.64818E+01
 -1      1781 2.50253E+01
 -1      1782 2.03807E+01
 -1      1783 1.47790E+01
 -1      1784 2.78137E+01
 -1      1785 1.87181E+01
 -1      1786 2.63067E+01
 -1      1787 2.30128E+01
 -1      1788 2.62652E+01
 -1      1789 2.44855E+01
 -1      1790 2.61843E+01
 -1      1791 2.34598E+01
 -1      1792 2.46597E+01
 -1      1793 2.00582E+01
 -1      1794 1.86359E+01
 -1      1795 1.99352E+01
 -1      1796 2.00098E+01
 -1      1797 1.66537E+01
 -1      1798 1.74964E+01
 -1      1799 2.24107E+01
 -1      1800 2.01966E+01
 -1      1801 2.24917E+01
 -1      1802 2.47444E+01
 -1      1803 2.76338E+01
 -1      1804 2.32659E+01
 -1      1805 2.68803E+01
 -1      1806 2.63067E+01
 -1      1807 2.70602E+01
 -1      1808 2.46597E+01
 -1      1809 2.18839E+01
 -1      1810 1.62363E+01
 -1      1811 2.51162E+01
 -1      1812 2.64318E+01
 -1      1813 1.91434E+01
 -1      1814 2.43627E+01
 -1      1815 2.68248E+01
 -1      1816 2.74874E+01
 -1      1817 2.76313E+01
 -1      1818 2.74874E+01
 -1      1819 2.27799E+01
 -1      1820 2.53792E+01
 -1      1821 2.57763E+01
 -1      1822 2.57824E+01
 -1      1823 2.76313E+01
 -1      1824 2.76313E+01
 -1      1825 2.63895E+01
 -1      1826 2.54245E+01
 -1      1827 2.61076E+01
 -1      1828 2.05923E+01
 -1      1829 2.63895E+01
 -1      1830 2.75593E+01
 -1      1831 2.72281E+01
 -1      1832 2.74874E+01
 -1      1833 2.71561E+01
 -1      1834 2.75593E+01
 -1      1835 2.75593E+01
 -1      1836 2.70410E+01
 -1      1837 2.86875E+01
 -1      1838 2.86875E+01
 -1      1839 2.86875E+01
 -1      1840 2.82043E+01
 -1      1841 2.64169E+01
 -1      1842 2.82043E+01
 -1      1843 2.55937E+01
 -1      1844 2.30721E+01
 -1      1845 2.60128E+01
 -1      1846 2.56966E+01
 -1      1847 2.46709E+01
 -1      1848 2.68360E+01
 -1      1849 2.46709E+01
 -1      1850 2.11463E+01
 -1      1851 2.82043E+01
 -1      1852 2.78642E+01
 -1      1853 2.86875E+01
 -1      1854 2.78642E+01
 -1      1855 2.86875E+01
 -1      1856 2.86875E+01
 -1      1857 2.20768E+01
 -1      1858 2.59205E+01
 -1      1859 2.43958E+01
 -1      1860 2.12443E+01
 -1      1861 1.23678E+01
 -1      1862 1.23304E+01
 -1      1863 2.23312E+01
 -1      1864 2.89559E+01
 -1      1865 1.37257E+01
 -1      1866 1.14213E+01
 -1      1867 1.27578E+01
 -1      1868 1.63317E+01
 -1      1869 1.03117E+01
 -1      1870 2.16941E+01
 -1      1871 1.68034E+01
 -1      1872 1.89080E+01
 -1      1873 1.31234E+01
 -1      1874 2.04773E+01
 -1      1875 2.04773E+01
 -1      1876 3.15460E+01
 -1      1877 1.25021E+01
 -1      1878 1.16116E+01
 -1      1879 2.89559E+01
 -1      1880 3.02510E+01
 -1      1881 3.15460E+01
 -1      1882 3.15460E+01
 -1      1883 3.02510E+01
 -1      1884 1.96476E+01
 -1      1885 2.51001E+01
 -1      1886 2.51001E+01
 -1      1887 1.24415E+01
 -1      1888 1.55871E+01
 -1      1889 1.71838E+01
 -1      1890 1.45669E+01
 -1      1891 1.20450E+01
 -1      1892 1.27269E+01
 -1      1893 2.13619E+01
 -1      1894 1.68034E+01
 -1      1895 1.45669E+01
 -1      1896 2.59205E+01
 -1      1897 2.59205E+01
 -1      1898 2.13619E+01
 -1      1899 2.20126E+01
 -1      1900 2.38073E+01
 -1      1901 2.38073E+01
 -1      1902 2.23312E+01
 -1      1903 2.23312E+01
 -1      1904 2.20126E+01
 -1      1905 2.24365E+01
 -1      1906 2.14042E+01
 -1      1907 2.14042E+01
 -1      1908 2.43958E+01
 -1      1909 2.43958E+01
 -1      1910 2.24365E+01
 -1      1911 1.70132E+01
 -1      1912 2.16519E+01
 -1      1913 2.16519E+01
 -1      1914 1.22080E+01
 -1      1915 1.37431E+01
 -1      1916 1.56379E+01
 -1      1917 1.49067E+01
 -1      1918 1.22752E+01
 -1      1919 1.24349E+01
 -1      1920 2.68114E+01
 -1      1921 1.96941E+01
 -1      1922 1.72895E+01
 -1      1923 2.68114E+01
 -1      1924 1.79013E+01
 -1      1925 1.20187E+01
 -1      1926 1.61943E+01
 -1      1927 2.26359E+01
 -1      1928 1.14069E+01
 -1      1929 2.11261E+01
 -1      1930 1.90129E+01
 -1      1931 1.65675E+01
 -1      1932 1.52598E+01
 -1      1933 1.80037E+01
 -1      1934 2.24365E+01
 -1      1935 2.04773E+01
 -1      1936 1.60445E+01
 -1      1937 1.74850E+01
 -1      1938 2.13408E+01
 -1      1939 1.63328E+01
 -1      1940 1.25735E+01
 -1      1941 1.22723E+01
 -1      1942 1.13397E+01
 -1      1943 1.09616E+01
 -1      1944 1.19897E+01
 -1      1945 1.18759E+01
 -1      1946 1.43310E+01
 -1      1947 1.38765E+01
 -1      1948 1.93314E+01
 -1      1949 2.14042E+01
 -1      1950 1.84045E+01
 -1      1951 1.20896E+01
 -1      1952 1.32418E+01
 -1      1953 1.15347E+01
 -1      1954 1.45447E+01
 -1      1955 1.66175E+01
 -1      1956 1.21847E+01
 -1      1957 2.16248E+01
 -1      1958 7.77509E+00
 -1      1959 4.00351E+00
 -1      1960 2.02156E+01
 -1      1961 1.51148E+01
 -1      1962 6.87719E+00
 -1      1963 1.43690E+01
 -1      1964 3.43953E+01
 -1      1965 1.69561E+01
 -1      1966 1.66994E+01
 -1      1967 1.79912E+01
 -1      1968 1.79912E+01
 -1      1969 1.63018E+01
 -1      1970 7.77509E+00
 -1      1971 1.79912E+01
 -1      1972 4.80264E+00
 -1      1973 4.51796E+00
 -1      1974 1.29904E+01
 -1      1975 1.23196E+01
 -1      1976 5.77314E+00
 -1      1977 3.62562E+01
 -1      1978 1.40280E+01
 -1      1979 3.53258E+01
 -1      1980 3.43953E+01
 -1      1981 3.62562E+01
 -1      1982 3.62562E+01
 -1      1983 3.53258E+01
 -1      1984 2.73055E+01
 -1      1985 1.89212E+01
 -1      1986 2.73055E+01
 -1      1987 1.49731E+01
 -1      1988 1.23196E+01
 -1      1989 1.62676E+01
 -1      1990 1.33443E+01
 -1      1991 1.32440E+01
 -1      1992 1.33443E+01
 -1      1993 8.31844E+00
 -1      1994 4.59118E+00
 -1      1995 9.44348E+00
 -1      1996 6.21974E+00
 -1      1997 5.11555E+00
 -1      1998 6.14653E+00
 -1      1999 5.11555E+00
 -1      2000 5.06112E+00
 -1      2001 7.77509E+00
 -1      2002 4.61217E+00
 -1      2003 4.61217E+00
 -1      2004 7.32614E+00
 -1      2005 3.57489E+00
 -1      2006 3.52061E+00
 -1      2007 5.83991E+00
 -1      2008 3.12104E+00
 -1      2009 4.06520E+00
 -1      2010 4.40307E+00
 -1      2011 4.95002E+00
 -1      2012 9.02251E+00
 -1      2013 4.88832E+00
 -1      2014 1.36934E+01
 -1      2015 1.40526E+01
 -1      2016 1.04440E+01
 -1      2017 1.29904E+01
 -1      2018 1.54889E+01
 -1      2019 1.40526E+01
 -1      2020 1.98061E+01
 -1      2021 2.89405E+01
 -1      2022 1.73076E+01
 -1      2023 2.89405E+01
 -1      2024 1.91621E+01
 -1      2025 1.68278E+01
 -1      2026 1.92905E+01
 -1      2027 2.66062E+01
 -1      2028 1.48449E+01
 -1      2029 1.28831E+01
 -1      2030 1.28831E+01
 -1      2031 1.09016E+01
 -1      2032 1.60096E+01
 -1      2033 9.27300E+00
 -1      2034 1.13969E+01
 -1      2035 1.09973E+01
 -1      2036 1.18822E+01
 -1      2037 2.56757E+01
 -1      2038 1.85859E+01
 -1      2039 1.66290E+01
 -1      2040 1.82587E+01
 -1      2041 1.43107E+01
 -1      2042 1.65530E+01
 -1      2043 1.73453E+01
 -1      2044 1.59071E+01
 -1      2045 1.24342E+01
 -1      2046 1.79912E+01
 -1      2047 1.24342E+01
 -1      2048 1.53354E+01
 -1      2049 1.51649E+01
 -1      2050 1.41985E+01
 -1      2051 1.73453E+01
 -1      2052 1.74737E+01
 -1      2053 1.71465E+01
 -1      2054 1.79912E+01
 -1      2055 1.79912E+01
 -1      2056 1.60096E+01
 -1      2057 8.45594E+00
 -1      2058 6.63153E+00
 -1      2059 2.23312E+01
 -1      2060 1.64884E+01
 -1      2061 1.46584E+01
 -1      2062 7.33201E+00
 -1      2063 6.91362E+00
 -1      2064 2.43958E+01
 -1      2065 2.59205E+01
 -1      2066 1.37042E+01
 -1      2067 1.51000E+01
 -1      2068 1.49701E+01
 -1      2069 2.16941E+01
 -1      2070 7.33201E+00
 -1      2071 4.51796E+00
 -1      2072 7.46272E+00
 -1      2073 1.99765E+01
 -1      2074 7.18759E+00
 -1      2075 1.51184E+01
 -1      2076 1.68034E+01
 -1      2077 1.89080E+01
 -1      2078 4.66439E+00
 -1      2079 3.02510E+01
 -1      2080 3.15460E+01
 -1      2081 3.53258E+01
 -1      2082 3.62562E+01
 -1      2083 2.73724E+01
 -1      2084 2.82152E+01
 -1      2085 1.22910E+01
 -1      2086 1.48129E+01
 -1      2087 1.24600E+01
 -1      2088 1.48129E+01
 -1      2089 1.68034E+01
 -1      2090 1.72818E+01
 -1      2091 1.46554E+01
 -1      2092 1.66459E+01
 -1      2093 1.50971E+01
 -1      2094 1.51974E+01
 -1      2095 1.29164E+01
 -1      2096 8.31844E+00
 -1      2097 1.12966E+01
 -1      2098 1.24944E+01
 -1      2099 1.24944E+01
 -1      2100 5.71579E+00
 -1      2101 2.94021E+01
 -1      2102 3.07875E+01
 -1      2103 1.38290E+01
 -1      2104 1.34698E+01
 -1      2105 1.09998E+01
 -1      2106 9.80195E+00
 -1      2107 1.36260E+01
 -1      2108 1.09998E+01
 -1      2109 1.20081E+01
 -1      2110 1.35432E+01
 -1      2111 1.51184E+01
 -1      2112 1.35432E+01
 -1      2113 1.27933E+01
 -1      2114 1.33132E+01
 -1      2115 1.46630E+01
 -1      2116 1.48884E+01
 -1      2117 2.47998E+01
 -1      2118 1.93473E+01
 -1      2119 2.60773E+01
 -1      2120 1.56057E+01
 -1      2121 2.13619E+01
 -1      2122 2.59205E+01
 -1      2123 2.59205E+01
 -1      2124 2.12044E+01
 -1      2125 2.12044E+01
 -1      2126 2.38073E+01
 -1      2127 2.20126E+01
 -1      2128 2.38073E+01
 -1      2129 2.23312E+01
 -1      2130 2.23312E+01
 -1      2131 2.20126E+01
 -1      2132 2.11539E+01
 -1      2133 2.21862E+01
 -1      2134 2.11539E+01
 -1      2135 2.43958E+01
 -1      2136 2.43958E+01
 -1      2137 2.21862E+01
 -1      2138 1.97571E+01
 -1      2139 1.95271E+01
 -1      2140 2.16519E+01
 -1      2141 1.67832E+01
 -1      2142 2.16519E+01
 -1      2143 1.54248E+01
 -1      2144 1.86786E+01
 -1      2145 2.57959E+01
 -1      2146 2.82152E+01
 -1      2147 1.89212E+01
 -1      2148 2.73055E+01
 -1      2149 2.84717E+01
 -1      2150 1.55700E+01
 -1      2151 4.59118E+00
 -1      2152 4.54377E+00
 -1      2153 5.64796E+00
 -1      2154 5.64796E+00
 -1      2155 4.66439E+00
 -1      2156 4.59118E+00
 -1      2157 8.72357E+00
 -1      2158 8.77799E+00
 -1      2159 1.08658E+01
 -1      2160 8.02569E+00
 -1      2161 8.02569E+00
 -1      2162 1.44021E+01
 -1      2163 4.71309E+00
 -1      2164 4.76737E+00
 -1      2165 1.04459E+01
 -1      2166 6.29142E+00
 -1      2167 5.34726E+00
 -1      2168 7.82176E+00
 -1      2169 5.72945E+00
 -1      2170 5.72945E+00
 -1      2171 7.89398E+00
 -1      2172 7.33201E+00
 -1      2173 1.61246E+01
 -1      2174 2.82554E+01
 -1      2175 1.91210E+01
 -1      2176 3.07875E+01
 -1      2177 1.17010E+01
 -1      2178 1.09952E+01
 -1      2179 1.09998E+01
 -1      2180 1.31200E+01
 -1      2181 1.36820E+01
 -1      2182 1.96830E+01
 -1      2183 1.17130E+01
 -1      2184 1.64259E+01
 -1      2185 1.10788E+01
 -1      2186 2.05102E+01
 -1      2187 1.62760E+01
 -1      2188 1.66916E+01
 -1      2189 7.04713E+00
 -1      2190 6.06356E+00
 -1      2191 1.87156E+01
 -1      2192 1.80177E+01
 -1      2193 1.43372E+01
 -1      2194 1.86506E+01
 -1      2195 1.83970E+01
 -1      2196 1.74733E+01
 -1      2197 7.18817E+00
 -1      2198 1.19755E+01
 -1      2199 5.78901E+00
 -1      2200 4.92958E+00
 -1      2201 4.28045E+00
 -1      2202 1.13108E+01
 -1      2203 1.10024E+01
 -1      2204 7.25752E+00
 -1      2205 9.16232E+00
 -1      2206 7.62117E+00
 -1      2207 8.27112E+00
 -1      2208 3.75660E+00
 -1      2209 8.91687E+00
 -1      2210 1.28362E+01
 -1      2211 5.09393E+00
 -1      2212 8.28127E+00
 -1      2213 3.99989E+00
 -1      2214 5.02149E+00
 -1      2215 9.48898E+00
 -1      2216 8.52106E+00
 -1      2217 1.15426E+01
 -1      2218 3.70016E+00
 -1      2219 1.36490E+01
 -1      2220 9.22606E+00
 -1      2221 3.71403E+00
 -1      2222 8.60100E+00
 -1      2223 2.15352E+01
 -1      2224 1.63761E+01
 -1      2225 1.85748E+01
 -1      2226 1.93168E+01
 -1      2227 1.85529E+01
 -1      2228 1.68541E+01
 -1      2229 1.77710E+01
 -1      2230 1.89104E+01
 -1      2231 1.19193E+01
 -1      2232 1.45889E+01
 -1      2233 1.82836E+01
 -1      2234 1.67202E+01
 -1      2235 1.77045E+01
 -1      2236 1.30568E+01
 -1      2237 8.24179E+00
 -1      2238 1.89565E+01
 -1      2239 1.91133E+01
 -1      2240 8.08720E+00
 -1      2241 1.92088E+01
 -1      2242 1.83086E+01
 -1      2243 8.26902E+00
 -1      2244 1.74057E+01
 -1      2245 2.10536E+01
 -1      2246 9.46598E+00
 -1      2247 1.24799E+01
 -1      2248 1.66089E+01
 -1      2249 1.88230E+01
 -1      2250 1.73122E+01
 -1      2251 9.76173E+00
 -1      2252 8.84169E+00
 -1      2253 1.76329E+01
 -1      2254 1.03525E+01
 -1      2255 1.80274E+01
 -1      2256 1.51380E+01
 -1      2257 1.00718E+01
 -1      2258 1.60972E+01
 -1      2259 1.66708E+01
 -1      2260 7.24440E+00
 -1      2261 1.32426E+01
 -1      2262 7.81439E+00
 -1      2263 9.13122E+00
 -1      2264 9.28521E+00
 -1      2265 7.17322E+00
 -1      2266 7.94105E+00
 -1      2267 4.95520E+00
 -1      2268 5.13903E+00
 -1      2269 7.12812E+00
 -1      2270 4.52344E+00
 -1      2271 4.87303E+00
 -1      2272 5.01176E+00
 -1      2273 4.14017E+00
 -1      2274 4.05859E+00
 -1      2275 4.46474E+00
 -1      2276 4.65097E+00
 -1      2277 4.28045E+00
 -1      2278 4.14017E+00
 -1      2279 5.60263E+00
 -1      2280 5.02149E+00
 -1      2281 4.65097E+00
 -1      2282 7.70491E+00
 -1      2283 7.12378E+00
 -1      2284 6.60542E+00
 -1      2285 6.68760E+00
 -1      2286 4.31487E+00
 -1      2287 5.99072E+00
 -1      2288 3.85003E+00
 -1      2289 3.87825E+00
 -1      2290 4.01852E+00
 -1      2291 3.99724E+00
 -1      2292 3.73532E+00
 -1      2293 4.36776E+00
 -1      2294 9.79095E+00
 -1      2295 7.94614E+00
 -1      2296 1.03999E+01
 -1      2297 8.88005E+00
 -1      2298 1.11626E+01
 -1      2299 1.20735E+01
 -1      2300 1.02457E+01
 -1      2301 8.88512E+00
 -1      2302 9.64184E+00
 -1      2303 8.40116E+00
 -1      2304 6.31545E+00
 -1      2305 5.48578E+00
 -1      2306 6.13951E+00
 -1      2307 6.80750E+00
 -1      2308 6.01386E+00
 -1      2309 5.68889E+00
 -1      2310 6.33674E+00
 -1      2311 5.98564E+00
 -1      2312 3.72838E+00
 -1      2313 8.27619E+00
 -1      2314 4.56076E+00
 -1      2315 4.29434E+00
 -1      2316 1.69369E+01
 -1      2317 1.45626E+01
 -1      2318 9.55561E+00
 -1      2319 1.15426E+01
 -1      2320 1.11666E+01
 -1      2321 7.40543E+00
 -1      2322 3.34698E+00
 -1      2323 8.91687E+00
 -1      2324 1.27243E+01
 -1      2325 5.48695E+00
 -1      2326 8.06635E+00
 -1      2327 3.99529E+00
 -1      2328 5.25013E+00
 -1      2329 1.04902E+01
 -1      2330 9.67163E+00
 -1      2331 1.52565E+01
 -1      2332 4.31566E+00
 -1      2333 1.49989E+01
 -1      2334 1.09385E+01
 -1      2335 2.36204E+00
 -1      2336 8.69198E+00
 -1      2337 2.27161E+01
 -1      2338 1.85347E+01
 -1      2339 1.68669E+01
 -1      2340 1.98633E+01
 -1      2341 1.89622E+01
 -1      2342 1.94302E+01
 -1      2343 1.87260E+01
 -1      2344 1.80430E+01
 -1      2345 1.36435E+01
 -1      2346 1.30797E+01
 -1      2347 1.89574E+01
 -1      2348 1.87870E+01
 -1      2349 1.40058E+01
 -1      2350 1.96488E+01
 -1      2351 1.02471E+01
 -1      2352 1.84676E+01
 -1      2353 1.89021E+01
 -1      2354 9.23624E+00
 -1      2355 2.00270E+01
 -1      2356 1.79010E+01
 -1      2357 1.00417E+01
 -1      2358 2.07862E+01
 -1      2359 1.95037E+01
 -1      2360 1.40518E+01
 -1      2361 1.59679E+01
 -1      2362 1.97771E+01
 -1      2363 1.83487E+01
 -1      2364 1.21171E+01
 -1      2365 1.69847E+01
 -1      2366 1.79202E+01
 -1      2367 1.06071E+01
 -1      2368 1.33996E+01
 -1      2369 1.50665E+01
 -1      2370 1.78302E+01
 -1      2371 1.19742E+01
 -1      2372 1.67991E+01
 -1      2373 1.49198E+01
 -1      2374 7.66084E+00
 -1      2375 1.38616E+01
 -1      2376 7.94608E+00
 -1      2377 1.12283E+01
 -1      2378 1.09662E+01
 -1      2379 9.10927E+00
 -1      2380 8.33403E+00
 -1      2381 5.30618E+00
 -1      2382 5.02386E+00
 -1      2383 8.51480E+00
 -1      2384 4.56076E+00
 -1      2385 4.34730E+00
 -1      2386 5.02386E+00
 -1      2387 4.06457E+00
 -1      2388 4.14482E+00
 -1      2389 4.27803E+00
 -1      2390 4.29434E+00
 -1      2391 4.77224E+00
 -1      2392 4.14482E+00
 -1      2393 5.25013E+00
 -1      2394 5.62506E+00
 -1      2395 4.77224E+00
 -1      2396 8.46926E+00
 -1      2397 8.09433E+00
 -1      2398 6.77665E+00
 -1      2399 6.31356E+00
 -1      2400 6.19101E+00
 -1      2401 4.43821E+00
 -1      2402 4.15548E+00
 -1      2403 3.82066E+00
 -1      2404 3.67114E+00
 -1      2405 2.85451E+00
 -1      2406 3.32819E+00
 -1      2407 3.80608E+00
 -1      2408 9.28602E+00
 -1      2409 1.21712E+01
 -1      2410 8.94781E+00
 -1      2411 1.37135E+01
 -1      2412 1.48306E+01
 -1      2413 1.16073E+01
 -1      2414 1.25264E+01
 -1      2415 1.13145E+01
 -1      2416 9.27828E+00
 -1      2417 8.86899E+00
 -1      2418 5.95883E+00
 -1      2419 5.63946E+00
 -1      2420 7.40287E+00
 -1      2421 7.57929E+00
 -1      2422 7.25679E+00
 -1      2423 5.37621E+00
 -1      2424 6.13193E+00
 -1      2425 3.83132E+00
 -1      2426 5.86055E+00
 -1      2427 7.73589E+00
 -1      2428 1.76865E+01
 -1      2429 2.54704E+01
 -1      2430 2.78137E+01
 -1      2431 2.30128E+01
 -1      2432 2.24623E+01
 -1      2433 1.37007E+01
 -1      2434 2.24186E+01
 -1      2435 1.96832E+01
 -1      2436 2.62652E+01
 -1      2437 2.36480E+01
 -1      2438 1.46676E+01
 -1      2439 2.12931E+01
 -1      2440 2.77211E+01
 -1      2441 1.29194E+01
 -1      2442 9.45393E+00
 -1      2443 1.37349E+01
 -1      2444 1.39619E+01
 -1      2445 9.69242E+00
 -1      2446 2.27258E+01
 -1      2447 1.87334E+01
 -1      2448 1.76909E+01
 -1      2449 7.95970E+00
 -1      2450 1.86587E+01
 -1      2451 1.76996E+01
 -1      2452 2.68332E+01
 -1      2453 2.77211E+01
 -1      2454 2.77211E+01
 -1      2455 1.86266E+01
 -1      2456 1.87012E+01
 -1      2457 2.65958E+01
 -1      2458 1.95378E+01
 -1      2459 2.45592E+01
 -1      2460 1.74964E+01
 -1      2461 1.66537E+01
 -1      2462 1.39905E+01
 -1      2463 1.23716E+01
 -1      2464 2.03496E+01
 -1      2465 1.46676E+01
 -1      2466 1.46676E+01
 -1      2467 1.35134E+01
 -1      2468 1.42013E+01
 -1      2469 1.28515E+01
 -1      2470 1.31405E+01
 -1      2471 1.82415E+01
 -1      2472 2.21412E+01
 -1      2473 1.66108E+01
 -1      2474 1.74366E+01
 -1      2475 2.04882E+01
 -1      2476 1.40161E+01
 -1      2477 1.56936E+01
 -1      2478 1.11867E+01
 -1      2479 1.85875E+01
 -1      2480 2.00098E+01
 -1      2481 2.56575E+01
 -1      2482 2.49566E+01
 -1      2483 2.64318E+01
 -1      2484 2.51162E+01
 -1      2485 2.70395E+01
 -1      2486 2.24186E+01
 -1      2487 1.71993E+01
 -1      2488 2.51162E+01
 -1      2489 2.27157E+01
 -1      2490 2.65958E+01
 -1      2491 1.42013E+01
 -1      2492 2.54015E+01
 -1      2493 2.54015E+01
 -1      2494 2.46272E+01
 -1      2495 2.43638E+01
 -1      2496 2.45534E+01
 -1      2497 1.31234E+01
 -1      2498 1.36195E+01
 -1      2499 1.66920E+01
 -1      2500 1.37178E+01
 -1      2501 1.37007E+01
 -1      2502 1.30299E+01
 -1      2503 1.56936E+01
 -1      2504 1.41842E+01
 -1      2505 2.13480E+01
 -1      2506 1.86849E+01
 -1      2507 1.91949E+01
 -1      2508 1.82837E+01
 -1      2509 1.74622E+01
 -1      2510 2.18559E+01
 -1      2511 2.21530E+01
 -1      2512 2.30552E+01
 -1      2513 1.93696E+01
 -1      2514 2.37439E+01
 -1      2515 2.27198E+01
 -1      2516 2.77463E+01
 -1      2517 2.16420E+01
 -1      2518 1.35132E+01
 -1      2519 1.60780E+01
 -1      2520 2.23044E+01
 -1      2521 2.59392E+01
 -1      2522 1.28224E+01
 -1      2523 2.30883E+01
 -1      2524 2.27086E+01
 -1      2525 1.42484E+01
 -1      2526 2.76313E+01
 -1      2527 1.45791E+01
 -1      2528 9.58308E+00
 -1      2529 1.80752E+01
 -1      2530 1.96332E+01
 -1      2531 8.15560E+00
 -1      2532 1.73528E+01
 -1      2533 1.06536E+01
 -1      2534 1.48167E+01
 -1      2535 1.83482E+01
 -1      2536 2.23140E+01
 -1      2537 1.81106E+01
 -1      2538 2.76313E+01
 -1      2539 2.63769E+01
 -1      2540 2.76313E+01
 -1      2541 1.81694E+01
 -1      2542 1.83928E+01
 -1      2543 1.87206E+01
 -1      2544 2.56876E+01
 -1      2545 2.34161E+01
 -1      2546 1.63567E+01
 -1      2547 1.69103E+01
 -1      2548 1.11761E+01
 -1      2549 1.30357E+01
 -1      2550 1.93989E+01
 -1      2551 1.28224E+01
 -1      2552 1.54488E+01
 -1      2553 1.25632E+01
 -1      2554 1.80752E+01
 -1      2555 1.80752E+01
 -1      2556 1.50749E+01
 -1      2557 1.26371E+01
 -1      2558 1.38808E+01
 -1      2559 1.17223E+01
 -1      2560 1.51632E+01
 -1      2561 1.80287E+01
 -1      2562 1.62651E+01
 -1      2563 2.28472E+01
 -1      2564 1.96982E+01
 -1      2565 2.10391E+01
 -1      2566 1.20811E+01
 -1      2567 1.86072E+01
 -1      2568 2.55783E+01
 -1      2569 1.95948E+01
 -1      2570 2.45138E+01
 -1      2571 2.50253E+01
 -1      2572 2.64818E+01
 -1      2573 2.68428E+01
 -1      2574 1.67026E+01
 -1      2575 2.23044E+01
 -1      2576 2.50253E+01
 -1      2577 2.25121E+01
 -1      2578 2.56876E+01
 -1      2579 1.54488E+01
 -1      2580 1.27938E+01
 -1      2581 1.35132E+01
 -1      2582 1.38808E+01
 -1      2583 1.57942E+01
 -1      2584 1.33369E+01
 -1      2585 1.29086E+01
 -1      2586 1.64414E+01
 -1      2587 1.31678E+01
 -1      2588 2.53661E+01
 -1      2589 2.53661E+01
 -1      2590 2.44626E+01
 -1      2591 2.37906E+01
 -1      2592 2.52274E+01
 -1      2593 2.10447E+01
 -1      2594 1.77238E+01
 -1      2595 2.27142E+01
 -1      2596 1.68090E+01
 -1      2597 1.88337E+01
 -1      2598 1.91615E+01
 -1      2599 1.66635E+01
 -1      2600 2.25065E+01
 -1      2601 2.23652E+01
 -1      2602 6.78948E+00
 -1      2603 4.29434E+00
 -1      2604 1.48604E+01
 -1      2605 1.70731E+01
 -1      2606 4.24116E+00
 -1      2607 1.98785E+01
 -1      2608 4.81647E+00
 -1      2609 3.99989E+00
 -1      2610 9.47563E+00
 -1      2611 7.20019E+00
 -1      2612 5.56767E+00
 -1      2613 6.24148E+00
 -1      2614 6.92492E+00
 -1      2615 1.50564E+01
 -1      2616 4.89222E+00
 -1      2617 3.19197E+00
 -1      2618 8.60100E+00
 -1      2619 1.46155E+01
 -1      2620 8.69198E+00
 -1      2621 1.71357E+01
 -1      2622 1.78053E+01
 -1      2623 1.40971E+01
 -1      2624 2.29762E+01
 -1      2625 1.70731E+01
 -1      2626 2.30324E+01
 -1      2627 1.69803E+01
 -1      2628 1.60505E+01
 -1      2629 1.81361E+01
 -1      2630 1.03774E+01
 -1      2631 1.79707E+01
 -1      2632 2.04123E+01
 -1      2633 2.02469E+01
 -1      2634 1.01195E+01
 -1      2635 1.77182E+01
 -1      2636 1.62959E+01
 -1      2637 1.98960E+01
 -1      2638 1.27797E+01
 -1      2639 1.06578E+01
 -1      2640 1.23023E+01
 -1      2641 1.15805E+01
 -1      2642 8.74326E+00
 -1      2643 1.02517E+01
 -1      2644 2.12835E+01
 -1      2645 1.13748E+01
 -1      2646 1.74675E+01
 -1      2647 8.96371E+00
 -1      2648 1.48360E+01
 -1      2649 7.24440E+00
 -1      2650 7.81439E+00
 -1      2651 1.16083E+01
 -1      2652 6.97635E+00
 -1      2653 6.82236E+00
 -1      2654 7.11399E+00
 -1      2655 7.06256E+00
 -1      2656 7.90060E+00
 -1      2657 6.75463E+00
 -1      2658 5.98680E+00
 -1      2659 6.85720E+00
 -1      2660 5.00030E+00
 -1      2661 4.81647E+00
 -1      2662 5.84085E+00
 -1      2663 5.03817E+00
 -1      2664 4.85434E+00
 -1      2665 4.52882E+00
 -1      2666 4.17923E+00
 -1      2667 4.52882E+00
 -1      2668 4.05859E+00
 -1      2669 4.14017E+00
 -1      2670 3.71656E+00
 -1      2671 3.65463E+00
 -1      2672 3.59593E+00
 -1      2673 4.28740E+00
 -1      2674 4.65792E+00
 -1      2675 4.14712E+00
 -1      2676 5.29458E+00
 -1      2677 5.87571E+00
 -1      2678 4.93100E+00
 -1      2679 6.21262E+00
 -1      2680 1.15645E+01
 -1      2681 5.90457E+00
 -1      2682 1.16573E+01
 -1      2683 1.07450E+01
 -1      2684 8.90494E+00
 -1      2685 1.59980E+01
 -1      2686 1.00426E+01
 -1      2687 1.74705E+01
 -1      2688 7.94608E+00
 -1      2689 7.66084E+00
 -1      2690 8.05267E+00
 -1      2691 1.21680E+01
 -1      2692 9.08380E+00
 -1      2693 6.93804E+00
 -1      2694 7.20019E+00
 -1      2695 7.94608E+00
 -1      2696 5.95745E+00
 -1      2697 6.73268E+00
 -1      2698 6.80040E+00
 -1      2699 4.68861E+00
 -1      2700 4.97094E+00
 -1      2701 5.00882E+00
 -1      2702 4.18750E+00
 -1      2703 4.40096E+00
 -1      2704 4.14712E+00
 -1      2705 4.06687E+00
 -1      2706 3.66291E+00
 -1      2707 4.77224E+00
 -1      2708 4.29434E+00
 -1      2709 5.78383E+00
 -1      2710 5.40890E+00
 -1      2711 1.16573E+01
 -1      2712 6.12074E+00
 -1      2713 2.12835E+01
 -1      2714 1.88419E+01
 -1      2715 1.20456E+01
 -1      2716 1.47379E+01
 -1      2717 1.49584E+01
 -1      2718 1.60961E+01
 -1      2719 1.85071E+01
 -1      2720 9.03831E+00
 -1      2721 8.64649E+00
 -1      2722 1.96832E+01
 -1      2723 2.06240E+01
 -1      2724 2.40892E+01
 -1      2725 2.37570E+01
 -1      2726 2.50837E+01
 -1      2727 2.55944E+01
 -1      2728 1.27323E+01
 -1      2729 1.30422E+01
 -1      2730 1.74366E+01
 -1      2731 1.66108E+01
 -1      2732 2.13537E+01
 -1      2733 1.68923E+01
 -1      2734 1.86559E+01
 -1      2735 2.16663E+01
 -1      2736 1.69021E+01
 -1      2737 1.31605E+01
 -1      2738 2.19114E+01
 -1      2739 2.06339E+01
 -1      2740 2.29537E+01
 -1      2741 1.98645E+01
 -1      2742 2.22838E+01
 -1      2743 2.39543E+01
 -1      2744 1.67921E+01
 -1      2745 1.35383E+01
 -1      2746 1.68660E+01
 -1      2747 1.70151E+01
 -1      2748 1.27938E+01
 -1      2749 2.26182E+01
 -1      2750 2.26885E+01
 -1      2751 2.26885E+01
 -1      2752 2.40037E+01
 -1      2753 1.33104E+01
 -1      2754 1.52834E+01
 -1      2755 1.36058E+01
 -1      2756 1.75994E+01
 -1      2757 1.31057E+01
 -1      2758 1.52641E+01
 -1      2759 1.75756E+01
 -1      2760 1.35132E+01
 -1      2761 1.68644E+01
 -1      2762 1.86154E+01
 -1      2763 1.97816E+01
 -1      2764 2.03421E+01
 -1      2765 2.10924E+01
 -1      2766 1.85603E+01
 -1      2767 2.18258E+01
 -1      2768 1.69777E+01
 -1      2769 1.39812E+01
 -1      2770 2.60402E+01
 -1      2771 2.59392E+01
 -1      2772 2.63044E+01
 -1      2773 2.61152E+01
 -1      2774 2.57423E+01
 -1      2775 2.57423E+01
 -1      2776 2.61152E+01
 -1      2777 2.49399E+01
 -1      2778 2.59392E+01
 -1      2779 2.49537E+01
 -1      2780 2.60402E+01
 -1      2781 2.49240E+01
 -1      2782 2.04968E+01
 -1      2783 2.37906E+01
 -1      2784 2.44626E+01
 -1      2785 2.42513E+01
 -1      2786 2.05224E+01
 -1      2787 2.45147E+01
 -1      2788 2.39566E+01
 -1      2789 2.00570E+01
 -1      2790 2.39741E+01
 -1      2791 2.08208E+01
 -1      2792 2.39698E+01
 -1      2793 2.38311E+01
 -1      2794 2.36461E+01
 -1      2795 2.41023E+01
 -1      2796 2.58913E+01
 -1      2797 2.32449E+01
 -1      2798 2.32449E+01
 -1      2799 2.53411E+01
 -1      2800 2.38786E+01
 -1      2801 2.38325E+01
 -1      2802 2.55276E+01
 -1      2803 2.60272E+01
 -1      2804 2.45147E+01
 -1      2805 2.45147E+01
 -1      2806 2.60402E+01
 -1      2807 2.54821E+01
 -1      2808 2.44626E+01
 -1      2809 2.44626E+01
 -1      2810 2.59392E+01
 -1      2811 2.54465E+01
 -1      2812 2.43832E+01
 -1      2813 2.60233E+01
 -1      2814 2.53332E+01
 -1      2815 2.63044E+01
 -1      2816 2.53098E+01
 -1      2817 2.60233E+01
 -1      2818 2.52152E+01
 -1      2819 2.44119E+01
 -1      2820 2.62098E+01
 -1      2821 2.55345E+01
 -1      2822 2.58913E+01
 -1      2823 2.58913E+01
 -1      2824 2.57423E+01
 -1      2825 2.60272E+01
 -1      2826 2.61152E+01
 -1      2827 2.60272E+01
 -1      2828 2.56221E+01
 -1      2829 2.55276E+01
 -1      2830 2.53411E+01
 -1      2831 1.91857E+01
 -1      2832 1.80752E+01
 -1      2833 1.67080E+01
 -1      2834 2.04773E+01
 -1      2835 1.79923E+01
 -1      2836 2.69684E+01
 -1      2837 1.61997E+01
 -1      2838 1.56280E+01
 -1      2839 2.74874E+01
 -1      2840 2.86875E+01
 -1      2841 1.29315E+01
 -1      2842 1.88928E+01
 -1      2843 1.49989E+01
 -1      2844 1.69561E+01
 -1      2845 1.12454E+01
 -1      2846 2.43152E+01
 -1      2847 1.05379E+01
 -1      2848 2.27746E+01
 -1      2849 2.51302E+01
 -1      2850 1.74843E+01
 -1      2851 2.33677E+01
 -1      2852 2.27589E+01
 -1      2853 2.33617E+01
 -1      2854 1.42490E+01
 -1      2855 2.09755E+01
 -1      2856 2.51008E+01
 -1      2857 2.38631E+01
 -1      2858 1.88478E+01
 -1      2859 2.57609E+01
 -1      2860 2.62604E+01
 -1      2861 1.95687E+01
 -1      2862 1.17855E+01
 -1      2863 1.54825E+01
 -1      2864 1.68518E+01
 -1      2865 1.46721E+01
 -1      2866 2.24172E+01
 -1      2867 1.06755E+01
 -1      2868 2.19496E+01
 -1      2869 2.63067E+01
 -1      2870 2.74539E+01
 -1      2871 2.78137E+01
 -1      2872 2.77463E+01
 -1      2873 2.30694E+01
 -1      2874 2.46255E+01
 -1      2875 2.69732E+01
 -1      2876 2.62604E+01
 -1      2877 2.93097E+01
 -1      2878 2.36126E+01
 -1      2879 2.27941E+01
 -1      2880 2.64838E+01
 -1      2881 1.89080E+01
 -1      2882 1.50675E+01
 -1      2883 2.93766E+01
 -1      2884 2.88546E+01
 -1      2885 2.50168E+01
 -1      2886 2.15498E+01
 -1      2887 2.11669E+01
 -1      2888 2.06240E+01
 -1      2889 2.58044E+01
 -1      2890 2.83591E+01
 -1      2891 2.91631E+01
 -1      2892 2.77463E+01
 -1      2893 2.81895E+01
 -1      2894 2.93766E+01
 -1      2895 2.00719E+01
 -1      2896 2.61829E+01
 -1      2897 2.78137E+01
 -1      2898 2.62652E+01
 -1      2899 3.10200E+01
 -1      2900 1.68518E+01
 -1      2901 2.91631E+01
 -1      2902 2.91073E+01
 -1      2903 1.61997E+01
 -1      2904 2.59453E+01
 -1      2905 2.86172E+01
 -1      2906 1.48620E+01
 -1      2907 3.10200E+01
 -1      2908 2.18462E+01
 -1      2909 4.00791E+00
 -1      2910 4.62262E+00
 -1      2911 6.29846E+00
 -1      2912 2.73398E+01
 -1      2913 2.62428E+01
 -1      2914 2.60921E+01
 -1      2915 2.59116E+01
 -1      2916 2.71891E+01
 -1      2917 1.84219E+01
 -1      2918 1.68518E+01
 -1      2919 1.84219E+01
 -1      2920 1.84219E+01
 -1      2921 1.68518E+01
 -1      2922 1.68518E+01
 -1      2923 4.03613E+00
 -1      2924 4.15778E+00
 -1      2925 2.13818E+01
 -1      2926 2.40696E+01
 -1      2927 2.44759E+01
 -1      2928 1.93199E+01
 -1      2929 2.20078E+01
 -1      2930 1.89136E+01
 -1      2931 2.91156E+01
 -1      2932 2.53213E+01
 -1      2933 2.49150E+01
 -1      2934 2.51760E+01
 -1      2935 6.29339E+00
 -1      2936 1.47590E+01
 -1      2937 1.77840E+01
 -1      2938 1.45313E+01
 -1      2939 1.75564E+01
 -1      2940 1.45313E+01
 -1      2941 9.98959E+00
 -1      2942 8.77767E+00
 -1      2943 1.21755E+01
 -1      2944 1.14642E+01
 -1      2945 1.26761E+01
 -1      2946 2.66451E+01
 -1      2947 2.09474E+01
 -1      2948 2.24917E+01
 -1      2949 2.59010E+01
 -1      2950 2.02033E+01
 -1      2951 2.43567E+01
 -1      2952 2.81506E+01
 -1      2953 2.91156E+01
 -1      2954 2.78896E+01
 -1      2955 2.81506E+01
 -1      2956 2.91156E+01
 -1      2957 2.93766E+01
 -1      2958 1.74742E+01
 -1      2959 1.71470E+01
 -1      2960 1.66290E+01
 -1      2961 1.74742E+01
 -1      2962 1.69561E+01
 -1      2963 1.80752E+01
 -1      2964 1.62221E+01
 -1      2965 1.62221E+01
 -1      2966 1.80338E+01
 -1      2967 1.61806E+01
 -1      2968 1.80338E+01
 -1      2969 2.57609E+01
 -1      2970 1.84339E+01
 -1      2971 1.68638E+01
 -1      2972 1.33542E+01
 -1      2973 2.56226E+01
 -1      2974 2.54422E+01
 -1      2975 2.52914E+01
 -1      2976 2.23736E+01
 -1      2977 2.24711E+01
 -1      2978 2.30875E+01
 -1      2979 1.62200E+01
 -1      2980 1.62200E+01
 -1      2981 5.13581E+00
 -1      2982 4.48208E+00
 -1      2983 4.76529E+00
 -1      2984 2.89180E+01
 -1      2985 2.91156E+01
 -1      2986 3.03803E+00
 -1      2987 4.00419E+00
 -1      2988 2.28045E+01
 -1      2989 2.20890E+01
 -1      2990 2.34902E+01
 -1      2991 2.53448E+01
 -1      2992 2.46292E+01
 -1      2993 2.39435E+01
 -1      2994 2.54157E+01
 -1      2995 2.18708E+01
 -1      2996 2.34235E+01
 -1      2997 2.66375E+01
 -1      2998 2.30926E+01
 -1      2999 2.50849E+01
 -1      3000 2.64169E+01
 -1      3001 2.08095E+01
 -1      3002 1.85389E+01
 -1      3003 1.79659E+01
 -1      3004 1.23585E+01
 -1      3005 2.02365E+01
 -1      3006 2.41927E+01
 -1      3007 2.38615E+01
 -1      3008 2.38615E+01
 -1      3009 3.53050E+00
 -1      3010 6.31545E+00
 -1      3011 1.85890E+01
 -1      3012 1.80709E+01
 -1      3013 1.80709E+01
 -1      3014 2.75202E+01
 -1      3015 2.86172E+01
 -1      3016 7.28855E+00
 -1      3017 6.63482E+00
 -1      3018 2.88546E+01
 -1      3019 1.71117E+01
 -1      3020 2.38791E+01
 -1      3021 2.14221E+01
 -1      3022 1.57533E+01
 -1      3023 2.25206E+01
 -1      3024 1.82102E+01
 -1      3025 1.39411E+01
 -1      3026 1.57942E+01
 -1      3027 1.57527E+01
 -1      3028 6.88411E+00
 -1      3029 5.20827E+00
 -1      3030 5.29044E+00
 -1      3031 1.78611E+01
 -1      3032 1.57993E+01
 -1      3033 1.79425E+01
 -1      3034 1.68278E+01
 -1      3035 2.07839E+01
 -1      3036 2.17333E+01
 -1      3037 2.49861E+01
 -1      3038 2.35225E+01
 -1      3039 2.26010E+01
 -1      3040 2.60517E+01
 -1      3041 2.64592E+01
 -1      3042 2.55377E+01
 -1      3043 2.30086E+01
 -1      3044 2.24917E+01
 -1      3045 2.02033E+01
 -1      3046 2.50837E+01
 -1      3047 2.66364E+01
 -1      3048 2.63055E+01
 -1      3049 2.80092E+01
 -1      3050 2.71638E+01
 -1      3051 1.77840E+01
 -1      3052 2.08091E+01
 -1      3053 2.32758E+01
 -1      3054 2.32758E+01
 -1      3055 2.32758E+01
 -1      3056 1.85108E+01
 -1      3057 1.68758E+01
 -1      3058 1.68638E+01
 -1      3059 1.84988E+01
 -1      3060 2.86172E+01
 -1      3061 2.86172E+01
 -1      3062 2.75202E+01
 -1      3063 6.49797E+00
 -1      3064 8.17381E+00
 -1      3065 4.74517E+00
 -1      3066 2.41270E+01
 -1      3067 2.29064E+01
 -1      3068 2.41282E+01
 -1      3069 2.42775E+01
 -1      3070 2.71891E+01
 -1      3071 2.27941E+01
 -1      3072 2.57057E+01
 -1      3073 2.42775E+01
 -1      3074 2.38954E+01
 -1      3075 1.54444E+01
 -1      3076 2.56418E+01
 -1      3077 2.20969E+01
 -1      3078 2.40892E+01
 -1      3079 3.99759E+00
 -1      3080 3.67344E+00
 -1      3081 1.67037E+01
 -1      3082 1.79468E+01
 -1      3083 1.68321E+01
 -1      3084 2.88546E+01
 -1      3085 1.83070E+01
 -1      3086 2.25075E+01
 -1      3087 2.51760E+01
 -1      3088 1.59755E+01
 -1      3089 1.39136E+01
 -1      3090 2.81895E+01
 -1      3091 2.14221E+01
 -1      3092 2.38791E+01
 -1      3093 2.64623E+01
 -1      3094 2.78905E+01
 -1      3095 2.49790E+01
 -1      3096 1.15717E+01
 -1      3097 2.43737E+01
 -1      3098 2.34170E+01
 -1      3099 1.92298E+01
 -1      3100 2.17590E+01
 -1      3101 2.21665E+01
 -1      3102 1.77277E+01
 -1      3103 1.56659E+01
 -1      3104 2.24917E+01
 -1      3105 2.81895E+01
 -1      3106 2.24917E+01
 -1      3107 1.29164E+01
 -1      3108 1.51559E+01
 -1      3109 2.15244E+01
 -1      3110 2.20350E+01
 -1      3111 2.05676E+01
 -1      3112 2.45910E+01
 -1      3113 2.22523E+01
 -1      3114 2.36342E+01
 -1      3115 2.31112E+01
 -1      3116 2.18435E+01
 -1      3117 1.74673E+01
 -1      3118 1.46364E+01
 -1      3119 1.33688E+01
 -1      3120 1.90127E+01
 -1      3121 1.75056E+01
 -1      3122 1.18617E+01
 -1      3123 9.03082E+00
 -1      3124 2.57105E+01
 -1      3125 1.49902E+01
 -1      3126 1.93664E+01
 -1      3127 1.75895E+01
 -1      3128 2.24436E+01
 -1      3129 1.76515E+01
 -1      3130 1.39926E+01
 -1      3131 1.64050E+01
 -1      3132 1.56609E+01
 -1      3133 1.83134E+01
 -1      3134 1.83134E+01
 -1      3135 2.87359E+01
 -1      3136 2.45567E+01
 -1      3137 2.53098E+01
 -1      3138 1.84758E+01
 -1      3139 1.22319E+01
 -1      3140 1.00248E+01
 -1      3141 2.38023E+01
 -1      3142 2.24354E+01
 -1      3143 2.04768E+01
 -1      3144 2.23189E+01
 -1      3145 2.09520E+01
 -1      3146 1.92342E+01
 -1      3147 1.85927E+01
 -1      3148 1.73496E+01
 -1      3149 1.74737E+01
 -1      3150 1.87167E+01
 -1      3151 1.36366E+01
 -1      3152 1.30513E+01
 -1      3153 1.29530E+01
 -1      3154 1.55113E+01
 -1      3155 1.49260E+01
 -1      3156 1.56096E+01
 -1      3157 2.23190E+01
 -1      3158 2.44976E+01
 -1      3159 1.45379E+01
 -1      3160 1.52215E+01
 -1      3161 1.56379E+01
 -1      3162 1.63215E+01
 -1      3163 1.78080E+01
 -1      3164 4.46244E+00
 -1      3165 4.59118E+00
 -1      3166 6.21974E+00
 -1      3167 1.29252E+01
 -1      3168 1.13698E+01
 -1      3169 1.12966E+01
 -1      3170 1.95134E+01
 -1      3171 1.80332E+01
 -1      3172 1.95791E+01
 -1      3173 1.44710E+01
 -1      3174 1.96211E+01
 -1      3175 1.56659E+01
 -1      3176 2.00689E+01
 -1      3177 1.21679E+01
 -1      3178 1.54380E+01
 -1      3179 1.68229E+01
 -1      3180 2.24917E+01
 -1      3181 2.59010E+01
 -1      3182 2.02322E+01
 -1      3183 2.86172E+01
 -1      3184 7.83827E+00
 -1      3185 5.80905E+00
 -1      3186 1.89136E+01
 -1      3187 2.56171E+01
 -1      3188 2.11717E+01
 -1      3189 2.40141E+01
 -1      3190 2.89180E+01
 -1      3191 2.44726E+01
 -1      3192 2.60756E+01
 -1      3193 2.40708E+01
 -1      3194 2.02150E+01
 -1      3195 2.34741E+01
 -1      3196 1.96183E+01
 -1      3197 1.64557E+01
 -1      3198 1.84339E+01
 -1      3199 2.56157E+01
 -1      3200 2.45177E+01
 -1      3201 2.63895E+01
 -1      3202 2.56157E+01
 -1      3203 2.74874E+01
 -1      3204 1.70961E+01
 -1      3205 2.18872E+01
 -1      3206 2.67912E+01
 -1      3207 2.64992E+01
 -1      3208 2.23222E+01
 -1      3209 2.64992E+01
 -1      3210 2.91631E+01
 -1      3211 1.50585E+01
 -1      3212 8.16874E+00
 -1      3213 1.54488E+01
 -1      3214 1.54488E+01
 -1      3215 1.80752E+01
 -1      3216 3.55179E+00
 -1      3217 3.81371E+00
 -1      3218 4.13787E+00
 -1      3219 2.64095E+01
 -1      3220 2.09277E+01
 -1      3221 1.71885E+01
 -1      3222 1.75157E+01
 -1      3223 2.87359E+01
 -1      3224 1.75420E+01
 -1      3225 2.09224E+01
 -1      3226 1.95503E+01
 -1      3227 2.00255E+01
 -1      3228 2.69732E+01
 -1      3229 2.35225E+01
 -1      3230 2.64592E+01
 -1      3231 1.00417E+01
 -1      3232 7.46160E+00
 -1      3233 6.33674E+00
 -1      3234 8.91687E+00
 -1      3235 2.67196E+01
 -1      3236 1.08917E+01
 -1      3237 2.00813E+01
 -1      3238 1.89565E+01
 -1      3239 4.28740E+00
 -1      3240 2.89417E+01
 -1      3241 2.02187E+01
 -1      3242 2.38667E+01
 -1      3243 2.64334E+01
 -1      3244 2.27855E+01
 -1      3245 1.39136E+01
 -1      3246 2.61938E+01
 -1      3247 2.67905E+01
 -1      3248 2.91292E+01
 -1      3249 1.80332E+01
 -1      3250 1.92763E+01
 -1      3251 1.62221E+01
 -1      3252 1.80752E+01
 -1      3253 2.24149E+01
 -1      3254 2.81126E+01
 -1      3255 2.81126E+01
 -1      3256 2.88546E+01
 -1      3257 1.83068E+01
 -1      3258 1.57776E+01
 -1      3259 2.86172E+01
 -1      3260 1.60853E+01
 -1      3261 1.45040E+01
 -1      3262 1.42763E+01
 -1      3263 1.45040E+01
 -1      3264 1.58590E+01
 -1      3265 1.97007E+01
 -1      3266 1.91040E+01
 -1      3267 2.68158E+01
 -1      3268 1.75039E+01
 -1      3269 2.40998E+01
 -1      3270 1.85343E+01
 -1      3271 1.89419E+01
 -1      3272 2.45073E+01
 -1      3273 1.35099E+01
 -1      3274 1.47487E+01
 -1      3275 1.38980E+01
 -1      3276 1.83350E+01
 -1      3277 1.36339E+01
 -1      3278 2.26045E+01
 -1      3279 2.69149E+01
 -1      3280 1.25764E+01
 -1      3281 1.52028E+01
 -1      3282 1.54073E+01
 -1      3283 1.51613E+01
 -1      3284 2.26805E+01
 -1      3285 9.39389E+00
 -1      3286 1.30202E+01
 -1      3287 1.49932E+01
 -1      3288 9.71886E+00
 -1      3289 1.60973E+01
 -1      3290 2.77160E+01
 -1      3291 2.88546E+01
 -1      3292 2.88546E+01
 -1      3293 1.26040E+01
 -1      3294 1.41238E+01
 -1      3295 1.33458E+01
 -1      3296 1.68669E+01
 -1      3297 1.52138E+01
 -1      3298 1.72336E+01
 -1      3299 2.07548E+01
 -1      3300 1.88868E+01
 -1      3301 1.98501E+01
 -1      3302 1.65683E+01
 -1      3303 1.91351E+01
 -1      3304 1.84676E+01
 -1      3305 2.85072E+01
 -1      3306 1.29915E+01
 -1      3307 1.27455E+01
 -1      3308 1.55764E+01
 -1      3309 1.31602E+01
 -1      3310 2.06173E+01
 -1      3311 2.17060E+01
 -1      3312 2.09815E+01
 -1      3313 2.12460E+01
 -1      3314 2.40122E+01
 -1      3315 1.43240E+01
 -1      3316 1.92497E+01
 -1      3317 1.55993E+01
 -1      3318 1.49243E+01
 -1      3319 1.85347E+01
 -1      3320 1.49989E+01
 -1      3321 1.55993E+01
 -1      3322 1.22790E+01
 -1      3323 1.23534E+01
 -1      3324 1.27690E+01
 -1      3325 1.11153E+01
 -1      3326 1.66563E+01
 -1      3327 2.80184E+01
 -1      3328 2.80184E+01
 -1      3329 3.10200E+01
 -1      3330 3.10200E+01
 -1      3331 3.10200E+01
 -1      3332 2.80184E+01
 -1      3333 2.87359E+01
 -1      3334 2.87359E+01
 -1      3335 1.70511E+01
 -1      3336 1.76515E+01
 -1      3337 1.74673E+01
 -1      3338 7.00401E+00
 -1      3339 2.51302E+01
 -1      3340 2.26010E+01
 -1      3341 2.38631E+01
 -1      3342 2.64257E+01
 -1      3343 2.68332E+01
 -1      3344 1.92342E+01
 -1      3345 2.08221E+01
 -1      3346 1.53409E+01
 -1      3347 8.40657E+00
 -1      3348 1.06413E+01
 -1      3349 5.71579E+00
 -1      3350 1.24944E+01
 -1      3351 1.37552E+01
 -1      3352 4.77224E+00
 -1      3353 4.65792E+00
 -1      3354 4.28740E+00
 -1      3355 2.79302E+01
 -1      3356 2.70060E+01
 -1      3357 2.55596E+01
 -1      3358 2.79302E+01
 -1      3359 2.70060E+01
 -1      3360 2.93766E+01
 -1      3361 7.98001E+00
 -1      3362 2.79302E+01
 -1      3363 2.64838E+01
 -1      3364 2.79302E+01
 -1      3365 2.61076E+01
 -1      3366 2.71561E+01
 -1      3367 2.68360E+01
 -1      3368 2.78642E+01
 -1      3369 2.06313E+01
 -1      3370 1.97805E+01
 -1      3371 7.20331E+00
 -1      3372 1.38992E+01
 -1      3373 2.17641E+01
 -1      3374 2.38901E+01
 -1      3375 2.39444E+01
 -1      3376 2.91631E+01
 -1      3377 2.83200E+01
 -1      3378 2.83200E+01
 -1      3379 2.91352E+01
 -1      3380 2.82921E+01
 -1      3381 2.91352E+01
 -1      3382 1.96927E+01
 -1      3383 1.79321E+01
 -1      3384 1.33922E+01
 -1      3385 1.90342E+01
 -1      3386 2.10863E+01
 -1      3387 1.74275E+01
 -1      3388 1.54848E+01
 -1      3389 1.56878E+01
 -1      3390 1.44646E+01
 -1      3391 1.58729E+01
 -1      3392 1.60759E+01
 -1      3393 2.25110E+01
 -1      3394 2.32386E+01
 -1      3395 2.17641E+01
 -1      3396 2.89364E+01
 -1      3397 2.86641E+01
 -1      3398 2.61527E+01
 -1      3399 2.42513E+01
 -1      3400 2.43638E+01
 -1      3401 2.61527E+01
 -1      3402 2.62652E+01
 -1      3403 2.18190E+01
 -1      3404 2.64130E+01
 -1      3405 2.47175E+01
 -1      3406 2.21849E+01
 -1      3407 2.17504E+01
 -1      3408 2.22393E+01
 -1      3409 1.92283E+01
 -1      3410 1.73496E+01
 -1      3411 1.92342E+01
 -1      3412 8.97645E+00
 -1      3413 2.15244E+01
 -1      3414 4.06077E+00
 -1      3415 3.59363E+00
 -1      3416 3.59593E+00
 -1      3417 2.09371E+01
 -1      3418 2.91631E+01
 -1      3419 2.91631E+01
 -1      3420 2.91352E+01
 -1      3421 1.25764E+01
 -1      3422 2.67780E+01
 -1      3423 2.46818E+01
 -1      3424 2.36461E+01
 -1      3425 2.60038E+01
 -1      3426 2.39075E+01
 -1      3427 2.70395E+01
 -1      3428 2.26883E+01
 -1      3429 2.26883E+01
 -1      3430 2.41347E+01
 -1      3431 2.74539E+01
 -1      3432 2.72111E+01
 -1      3433 2.72111E+01
 -1      3434 2.76338E+01
 -1      3435 2.73911E+01
 -1      3436 2.76338E+01
 -1      3437 9.23624E+00
 -1      3438 2.48446E+01
 -1      3439 1.27684E+01
 -1      3440 2.04773E+01
 -1      3441 1.87167E+01
 -1      3442 1.96927E+01
 -1      3443 5.15171E+00
 -1      3444 4.95520E+00
 -1      3445 4.87303E+00
 -1      3446 1.48570E+01
 -1      3447 1.47329E+01
 -1      3448 1.58329E+01
 -1      3449 2.86402E+01
 -1      3450 2.56386E+01
 -1      3451 2.86402E+01
 -1      3452 2.91156E+01
 -1      3453 2.81506E+01
 -1      3454 3.87636E+00
 -1      3455 2.36126E+01
 -1      3456 1.91175E+01
 -1      3457 2.16131E+01
 -1      3458 2.16131E+01
 -1      3459 2.93766E+01
 -1      3460 2.05955E+01
 -1      3461 2.60773E+01
 -1      3462 2.35309E+01
 -1      3463 1.70918E+01
 -1      3464 2.24802E+01
 -1      3465 2.31382E+01
 -1      3466 2.09968E+01
 -1      3467 2.16549E+01
 -1      3468 5.40890E+00
 -1      3469 5.29458E+00
 -1      3470 2.24225E+01
 -1      3471 2.42771E+01
 -1      3472 2.07413E+01
 -1      3473 1.21817E+01
 -1      3474 1.37884E+01
 -1      3475 1.78237E+01
 -1      3476 9.64830E+00
 -1      3477 1.77693E+01
 -1      3478 9.29454E+00
 -1      3479 1.88868E+01
 -1      3480 2.27746E+01
 -1      3481 2.22215E+01
 -1      3482 2.11796E+01
 -1      3483 2.38023E+01
 -1      3484 2.23189E+01
 -1      3485 2.53953E+01
 -1      3486 2.36000E+01
 -1      3487 2.79104E+01
 -1      3488 1.41598E+01
 -1      3489 1.52598E+01
 -1      3490 1.46882E+01
 -1      3491 1.48912E+01
 -1      3492 1.59114E+01
 -1      3493 1.82011E+01
 -1      3494 1.85153E+01
 -1      3495 1.00643E+01
 -1      3496 2.23961E+01
 -1      3497 2.50458E+01
 -1      3498 2.73164E+01
 -1      3499 1.94384E+01
 -1      3500 1.71117E+01
 -1      3501 1.87147E+01
 -1      3502 2.14221E+01
 -1      3503 2.54821E+01
 -1      3504 1.06373E+01
 -1      3505 2.35175E+01
 -1      3506 2.35119E+01
 -1      3507 2.27142E+01
 -1      3508 2.16719E+01
 -1      3509 2.16663E+01
 -1      3510 2.24696E+01
 -1      3511 2.04052E+01
 -1      3512 1.95545E+01
 -1      3513 2.84717E+01
 -1      3514 2.02701E+01
 -1      3515 2.32056E+01
 -1      3516 4.68861E+00
 -1      3517 2.86401E+01
 -1      3518 2.49922E+01
 -1      3519 1.60516E+01
 -1      3520 1.56878E+01
 -1      3521 1.67878E+01
 -1      3522 1.91002E+01
 -1      3523 1.90342E+01
 -1      3524 2.30694E+01
 -1      3525 2.89364E+01
 -1      3526 2.27086E+01
 -1      3527 2.35119E+01
 -1      3528 2.57609E+01
 -1      3529 2.33617E+01
 -1      3530 2.30603E+01
 -1      3531 2.30603E+01
 -1      3532 1.97807E+01
 -1      3533 1.94793E+01
 -1      3534 1.97807E+01
 -1      3535 1.89191E+01
 -1      3536 1.43334E+01
 -1      3537 1.55764E+01
 -1      3538 1.36918E+01
 -1      3539 1.97629E+01
 -1      3540 3.10200E+01
 -1      3541 3.10200E+01
 -1      3542 1.94327E+01
 -1      3543 2.40550E+01
 -1      3544 2.39364E+01
 -1      3545 2.27746E+01
 -1      3546 2.11717E+01
 -1      3547 3.99989E+00
 -1      3548 3.99759E+00
 -1      3549 4.14017E+00
 -1      3550 8.25309E+00
 -1      3551 1.30587E+01
 -1      3552 1.55552E+01
 -1      3553 1.31315E+01
 -1      3554 1.99724E+01
 -1      3555 2.24689E+01
 -1      3556 2.23961E+01
 -1      3557 1.68278E+01
 -1      3558 1.68158E+01
 -1      3559 2.79066E+01
 -1      3560 3.09082E+01
 -1      3561 2.65683E+01
 -1      3562 1.56878E+01
 -1      3563 1.48912E+01
 -1      3564 2.55955E+01
 -1      3565 2.14588E+01
 -1      3566 2.47820E+01
 -1      3567 2.02775E+01
 -1      3568 2.36007E+01
 -1      3569 2.35985E+01
 -1      3570 2.52030E+01
 -1      3571 1.78470E+01
 -1      3572 2.30889E+01
 -1      3573 8.31829E+00
 -1      3574 4.99307E+00
 -1      3575 5.18959E+00
 -1      3576 8.21743E+00
 -1      3577 1.62995E+01
 -1      3578 4.29434E+00
 -1      3579 1.97807E+01
 -1      3580 1.94793E+01
 -1      3581 1.61997E+01
 -1      3582 2.21473E+01
 -1      3583 2.61826E+01
 -1      3584 1.99306E+01
 -1      3585 1.83276E+01
 -1      3586 9.09635E+00
 -1      3587 1.94735E+01
 -1      3588 2.02775E+01
 -1      3589 1.26716E+01
 -1      3590 1.28952E+01
 -1      3591 2.89180E+01
 -1      3592 2.89180E+01
 -1      3593 3.01579E+01
 -1      3594 2.30094E+01
 -1      3595 2.70447E+01
 -1      3596 2.24365E+01
 -1      3597 2.04773E+01
 -1      3598 2.24365E+01
 -1      3599 2.16519E+01
 -1      3600 1.96927E+01
 -1      3601 1.77307E+01
 -1      3602 2.11111E+01
 -1      3603 2.18023E+01
 -1      3604 1.31419E+01
 -1      3605 1.55578E+01
 -1      3606 2.36080E+01
 -1      3607 2.50735E+01
 -1      3608 2.36647E+01
 -1      3609 2.66096E+01
 -1      3610 2.80751E+01
 -1      3611 2.13818E+01
 -1      3612 2.69684E+01
 -1      3613 2.73573E+01
 -1      3614 2.73573E+01
 -1      3615 2.73573E+01
 -1      3616 2.77463E+01
 -1      3617 2.73573E+01
 -1      3618 2.74716E+01
 -1      3619 1.22668E+01
 -1      3620 2.23869E+01
 -1      3621 2.20521E+01
 -1      3622 2.05216E+01
 -1      3623 1.75024E+01
 -1      3624 2.49790E+01
 -1      3625 1.45312E+01
 -1      3626 1.98229E+01
 -1      3627 2.88595E+01
 -1      3628 2.08075E+01
 -1      3629 1.51636E+01
 -1      3630 1.87446E+01
 -1      3631 2.54245E+01
 -1      3632 4.14712E+00
 -1      3633 1.93928E+01
 -1      3634 2.09755E+01
 -1      3635 1.47315E+01
 -1      3636 1.80112E+01
 -1      3637 2.57232E+01
 -1      3638 2.72111E+01
 -1      3639 2.76001E+01
 -1      3640 2.64130E+01
 -1      3641 2.13969E+01
 -1      3642 2.91352E+01
 -1      3643 2.91073E+01
 -1      3644 2.42775E+01
 -1      3645 2.18792E+01
 -1      3646 2.02442E+01
 -1      3647 1.02242E+01
 -1      3648 1.05779E+01
 -1      3649 1.63425E+01
 -1      3650 1.70100E+01
 -1      3651 9.39084E+00
 -1      3652 1.00823E+01
 -1      3653 2.04637E+01
 -1      3654 2.40447E+01
 -1      3655 2.05921E+01
 -1      3656 2.38718E+01
 -1      3657 1.83102E+01
 -1      3658 2.32142E+01
 -1      3659 1.81378E+01
 -1      3660 2.05763E+01
 -1      3661 2.47842E+01
 -1      3662 2.36007E+01
 -1      3663 2.07189E+01
 -1      3664 2.07189E+01
 -1      3665 2.25900E+01
 -1      3666 1.88287E+01
 -1      3667 1.88287E+01
 -1      3668 1.69577E+01
 -1      3669 1.55011E+01
 -1      3670 1.69390E+01
 -1      3671 2.67196E+01
 -1      3672 2.49566E+01
 -1      3673 2.16519E+01
 -1      3674 1.18523E+01
 -1      3675 1.40352E+01
 -1      3676 1.93094E+01
 -1      3677 2.14922E+01
 -1      3678 2.45280E+01
 -1      3679 2.63049E+01
 -1      3680 1.81839E+01
 -1      3681 1.95503E+01
 -1      3682 1.73550E+01
 -1      3683 1.74393E+01
 -1      3684 1.72818E+01
 -1      3685 2.24689E+01
 -1      3686 2.93097E+01
 -1      3687 2.76338E+01
 -1      3688 2.76338E+01
 -1      3689 2.78137E+01
 -1      3690 2.62604E+01
 -1      3691 2.56386E+01
 -1      3692 2.86402E+01
 -1      3693 2.68803E+01
 -1      3694 2.70602E+01
 -1      3695 1.70468E+01
 -1      3696 1.89179E+01
 -1      3697 1.51567E+01
 -1      3698 1.48206E+01
 -1      3699 2.65981E+01
 -1      3700 2.63553E+01
 -1      3701 2.67780E+01
 -1      3702 1.47068E+01
 -1      3703 1.47483E+01
 -1      3704 1.41887E+01
 -1      3705 1.12234E+01
 -1      3706 9.00378E+00
 -1      3707 2.10391E+01
 -1      3708 1.99968E+01
 -1      3709 2.70395E+01
 -1      3710 2.69270E+01
 -1      3711 1.59755E+01
 -1      3712 1.66459E+01
 -1      3713 1.68034E+01
 -1      3714 1.74393E+01
 -1      3715 2.02269E+01
 -1      3716 2.02269E+01
 -1      3717 2.77209E+01
 -1      3718 2.06442E+01
 -1      3719 2.17063E+01
 -1      3720 2.05250E+01
 -1      3721 1.94629E+01
 -1      3722 1.71442E+01
 -1      3723 1.84195E+01
 -1      3724 1.84195E+01
 -1      3725 1.46582E+01
 -1      3726 2.42075E+01
 -1      3727 2.79633E+01
 -1      3728 1.84089E+01
 -1      3729 2.09054E+01
 -1      3730 2.77463E+01
 -1      3731 2.33541E+01
 -1      3732 1.69852E+01
 -1      3733 2.29105E+01
 -1      3734 2.10479E+01
 -1      3735 1.75972E+01
 -1      3736 1.94598E+01
 -1      3737 2.96832E+01
 -1      3738 1.45669E+01
 -1      3739 2.52274E+01
 -1      3740 2.52331E+01
 -1      3741 2.60307E+01
 -1      3742 2.85419E+01
 -1      3743 2.94723E+01
 -1      3744 2.70651E+01
 -1      3745 2.63997E+01
 -1      3746 2.57475E+01
 -1      3747 2.65981E+01
 -1      3748 2.45019E+01
 -1      3749 2.69308E+01
 -1      3750 2.67845E+01
 -1      3751 2.38325E+01
 -1      3752 2.46481E+01
 -1      3753 2.27323E+01
 -1      3754 2.30337E+01
 -1      3755 1.94527E+01
 -1      3756 2.05921E+01
 -1      3757 2.04637E+01
 -1      3758 2.24172E+01
 -1      3759 1.69984E+01
 -1      3760 2.86192E+01
 -1      3761 2.31706E+01
 -1      3762 2.34307E+01
 -1      3763 2.87483E+01
 -1      3764 2.32997E+01
 -1      3765 2.84882E+01
 -1      3766 2.07255E+01
 -1      3767 2.10603E+01
 -1      3768 2.13836E+01
 -1      3769 1.78692E+01
 -1      3770 2.55480E+01
 -1      3771 2.47742E+01
 -1      3772 2.66459E+01
 -1      3773 2.71006E+01
 -1      3774 2.18057E+01
 -1      3775 2.74874E+01
 -1      3776 2.17086E+01
 -1      3777 1.16916E+01
 -1      3778 1.60205E+01
 -1      3779 1.72820E+01
 -1      3780 1.57655E+01
 -1      3781 1.57655E+01
 -1      3782 1.84045E+01
 -1      3783 1.66439E+01
 -1      3784 1.47474E+01
 -1      3785 2.53659E+01
 -1      3786 6.55258E+00
 -1      3787 8.22434E+00
 -1      3788 2.59598E+01
 -1      3789 2.67753E+01
 -1      3790 2.36771E+01
 -1      3791 2.64095E+01
 -1      3792 2.77046E+01
 -1      3793 1.43148E+01
 -1      3794 3.01579E+01
 -1      3795 3.01579E+01
 -1      3796 2.10333E+01
 -1      3797 2.01918E+01
 -1      3798 2.26016E+01
 -1      3799 2.25737E+01
 -1      3800 1.65868E+01
 -1      3801 1.73528E+01
 -1      3802 1.85352E+01
 -1      3803 1.76996E+01
 -1      3804 1.90707E+01
 -1      3805 2.18232E+01
 -1      3806 1.87493E+01
 -1      3807 1.90615E+01
 -1      3808 1.84658E+01
 -1      3809 2.29864E+01
 -1      3810 2.15581E+01
 -1      3811 1.49983E+01
 -1      3812 1.42300E+01
 -1      3813 2.02758E+01
 -1      3814 1.95074E+01
 -1      3815 1.45791E+01
 -1      3816 1.81106E+01
 -1      3817 2.45647E+01
 -1      3818 2.10333E+01
 -1      3819 4.40096E+00
 -1      3820 4.58537E+00
 -1      3821 2.15498E+01
 -1      3822 2.39075E+01
 -1      3823 1.85607E+01
 -1      3824 1.36260E+01
 -1      3825 1.52373E+01
 -1      3826 1.44605E+01
 -1      3827 1.42467E+01
 -1      3828 2.19176E+01
 -1      3829 1.14375E+01
 -1      3830 1.77886E+01
 -1      3831 1.41262E+01
 -1      3832 1.44710E+01
 -1      3833 1.81335E+01
 -1      3834 7.39686E+00
 -1      3835 1.13565E+01
 -1      3836 2.48821E+01
 -1      3837 2.30110E+01
 -1      3838 2.34806E+01
 -1      3839 2.11843E+01
 -1      3840 2.44513E+01
 -1      3841 2.43203E+01
 -1      3842 1.82818E+01
 -1      3843 1.26716E+01
 -1      3844 1.47918E+01
 -1      3845 2.71742E+01
 -1      3846 2.30110E+01
 -1      3847 2.34718E+01
 -1      3848 3.07875E+01
 -1      3849 1.66608E+01
 -1      3850 1.90136E+01
 -1      3851 2.14016E+01
 -1      3852 1.20856E+01
 -1      3853 2.22536E+01
 -1      3854 1.45921E+01
 -1      3855 1.65564E+01
 -1      3856 7.03239E+00
 -1      3857 5.99511E+00
 -1      3858 1.26400E+01
 -1      3859 1.38324E+01
 -1      3860 1.36772E+01
 -1      3861 2.08613E+01
 -1      3862 1.11617E+01
 -1      3863 1.29531E+01
 -1      3864 2.02322E+01
 -1      3865 1.63335E+01
 -1      3866 2.01626E+01
 -1      3867 1.82915E+01
 -1      3868 1.00319E+01
 -1      3869 2.88793E+01
 -1      3870 2.86192E+01
 -1      3871 2.87483E+01
 -1      3872 1.48138E+01
 -1      3873 1.54258E+01
 -1      3874 1.19295E+01
 -1      3875 1.80005E+01
 -1      3876 1.99360E+01
 -1      3877 2.69308E+01
 -1      3878 2.65418E+01
 -1      3879 2.69308E+01
 -1      3880 8.93157E+00
 -1      3881 7.73909E+00
 -1      3882 1.75357E+01
 -1      3883 2.66375E+01
 -1      3884 2.63067E+01
 -1      3885 1.88277E+01
 -1      3886 1.89852E+01
 -1      3887 1.31496E+01
 -1      3888 2.16280E+01
 -1      3889 1.40058E+01
 -1      3890 2.28494E+01
 -1      3891 1.83423E+01
 -1      3892 2.36470E+01
 -1      3893 1.91400E+01
 -1      3894 1.22292E+01
 -1      3895 1.21564E+01
 -1      3896 2.67845E+01
 -1      3897 2.38266E+01
 -1      3898 2.69586E+01
 -1      3899 2.61843E+01
 -1      3900 2.82152E+01
 -1      3901 1.98397E+01
 -1      3902 2.02721E+01
 -1      3903 2.05431E+01
 -1      3904 2.47436E+01
 -1      3905 2.20417E+01
 -1      3906 1.51281E+01
 -1      3907 2.32512E+01
 -1      3908 2.28969E+01
 -1      3909 3.01649E+01
 -1      3910 1.17649E+01
 -1      3911 1.19765E+01
 -1      3912 1.33718E+01
 -1      3913 1.30864E+01
 -1      3914 1.58995E+01
 -1      3915 1.55309E+01
 -1      3916 2.75375E+01
 -1      3917 2.74183E+01
 -1      3918 2.70923E+01
 -1      3919 2.65783E+01
 -1      3920 2.69044E+01
 -1      3921 2.31382E+01
 -1      3922 1.52655E+01
 -1      3923 2.75873E+01
 -1      3924 2.44464E+01
 -1      3925 2.45645E+01
 -1      3926 2.44474E+01
 -1      3927 2.58758E+01
 -1      3928 1.72035E+01
 -1      3929 2.24547E+01
 -1      3930 2.17606E+01
 -1      3931 1.85513E+01
 -1      3932 2.16436E+01
 -1      3933 1.73274E+01
 -1      3934 2.41899E+01
 -1      3935 2.50273E+01
 -1      3936 2.09646E+01
 -1      3937 2.15766E+01
 -1      3938 2.24461E+01
 -1      3939 2.28913E+01
 -1      3940 2.19322E+01
 -1      3941 1.88230E+01
 -1      3942 1.78875E+01
 -1      3943 2.70395E+01
 -1      3944 2.62652E+01
 -1      3945 2.62652E+01
 -1      3946 1.49983E+01
 -1      3947 2.02758E+01
 -1      3948 2.15124E+01
 -1      3949 1.83693E+01
 -1      3950 1.96091E+01
 -1      3951 2.21279E+01
 -1      3952 2.52709E+01
 -1      3953 1.45295E+01
 -1      3954 2.22983E+01
 -1      3955 2.67780E+01
 -1      3956 9.00378E+00
 -1      3957 2.91073E+01
 -1      3958 2.30185E+01
 -1      3959 2.21587E+01
 -1      3960 2.37999E+01
 -1      3961 2.46654E+01
 -1      3962 2.46597E+01
 -1      3963 2.35018E+01
 -1      3964 2.09054E+01
 -1      3965 1.04321E+01
 -1      3966 1.94384E+01
 -1      3967 2.21278E+01
 -1      3968 2.24558E+01
 -1      3969 1.87839E+01
 -1      3970 1.91119E+01
 -1      3971 1.82059E+01
 -1      3972 2.02775E+01
 -1      3973 2.21544E+01
 -1      3974 2.24558E+01
 -1      3975 1.98024E+01
 -1      3976 2.15358E+01
 -1      3977 1.98656E+01
 -1      3978 1.56951E+01
 -1      3979 2.91352E+01
 -1      3980 1.72116E+01
 -1      3981 1.73233E+01
 -1      3982 2.60245E+01
 -1      3983 1.62676E+01
 -1      3984 1.91040E+01
 -1      3985 1.57928E+01
 -1      3986 1.83510E+01
 -1      3987 2.30926E+01
 -1      3988 2.06816E+01
 -1      3989 2.10124E+01
 -1      3990 2.72710E+01
 -1      3991 1.02907E+01
 -1      3992 1.70908E+01
 -1      3993 2.73098E+01
 -1      3994 2.71907E+01
 -1      3995 2.09834E+01
 -1      3996 2.27168E+01
 -1      3997 1.98024E+01
 -1      3998 2.18792E+01
 -1      3999 2.43958E+01
 -1      4000 2.09834E+01
 -1      4001 2.02227E+01
 -1      4002 1.92636E+01
 -1      4003 2.04827E+01
 -1      4004 2.66364E+01
 -1      4005 2.56418E+01
 -1      4006 1.31200E+01
 -1      4007 2.43638E+01
 -1      4008 1.83854E+01
 -1      4009 1.35132E+01
 -1      4010 1.57527E+01
 -1      4011 2.06799E+01
 -1      4012 1.33996E+01
 -1      4013 2.70602E+01
 -1      4014 2.37232E+01
 -1      4015 1.90745E+01
 -1      4016 1.75697E+01
 -1      4017 1.97169E+01
 -1      4018 2.19935E+01
 -1      4019 1.85947E+01
 -1      4020 2.19208E+01
 -1      4021 1.61419E+01
 -1      4022 1.71876E+01
 -1      4023 2.24295E+01
 -1      4024 2.37232E+01
 -1      4025 1.29465E+01
 -1      4026 2.09577E+01
 -1      4027 2.49566E+01
 -1      4028 1.43687E+01
 -1      4029 2.57824E+01
 -1      4030 2.76313E+01
 -1      4031 2.75593E+01
 -1      4032 2.75593E+01
 -1      4033 2.82043E+01
 -1      4034 2.59337E+01
 -1      4035 2.82043E+01
 -1      4036 2.86875E+01
 -1      4037 9.57574E+00
 -1      4038 9.22198E+00
 -1      4039 2.26637E+01
 -1      4040 1.03525E+01
 -1      4041 7.02727E+00
 -1      4042 2.91529E+01
 -1      4043 3.00080E+01
 -1      4044 2.22650E+01
 -1      4045 2.63276E+01
 -1      4046 1.33369E+01
 -1      4047 1.45250E+01
 -1      4048 2.14720E+01
 -1      4049 2.09633E+01
 -1      4050 2.88678E+01
 -1      4051 2.37906E+01
 -1      4052 2.59392E+01
 -1      4053 2.58718E+01
 -1      4054 2.58718E+01
 -1      4055 2.91319E+01
 -1      4056 8.59000E+00
 -1      4057 7.73377E+00
 -1      4058 2.93766E+01
 -1      4059 2.93766E+01
 -1      4060 2.16420E+01
 -1      4061 9.40103E+00
 -1      4062 2.54132E+01
 -1      4063 2.45534E+01
 -1      4064 1.15579E+01
 -1      4065 1.70785E+01
 -1      4066 1.93180E+01
 -1      4067 2.36809E+01
 -1      4068 2.23048E+01
 -1      4069 2.51431E+01
 -1      4070 2.37670E+01
 -1      4071 2.76451E+01
 -1      4072 2.09440E+01
 -1      4073 2.52879E+01
 -1      4074 1.68050E+01
 -1      4075 1.57692E+01
 -1      4076 2.74083E+01
 -1      4077 2.71907E+01
 -1      4078 2.09144E+01
 -1      4079 2.07920E+01
 -1      4080 1.82309E+01
 -1      4081 2.44073E+01
 -1      4082 1.83533E+01
 -1      4083 1.82771E+01
 -1      4084 1.63869E+01
 -1      4085 1.09886E+01
 -1      4086 1.28688E+01
 -1      4087 2.14042E+01
 -1      4088 2.10613E+01
 -1      4089 1.87650E+01
 -1      4090 2.26343E+01
 -1      4091 2.02156E+01
 -1      4092 2.21544E+01
 -1      4093 2.45121E+01
 -1      4094 2.69044E+01
 -1      4095 2.69044E+01
 -1      4096 2.59453E+01
 -1      4097 2.52006E+01
 -1      4098 2.06434E+01
 -1      4099 2.53880E+01
 -1      4100 2.51704E+01
 -1      4101 2.13537E+01
 -1      4102 2.69329E+01
 -1      4103 2.03263E+01
 -1      4104 2.52444E+01
 -1      4105 2.92085E+01
 -1      4106 2.27161E+01
 -1      4107 2.63055E+01
 -1      4108 8.77637E+00
 -1      4109 2.77463E+01
 -1      4110 2.61829E+01
 -1      4111 1.68835E+01
 -1      4112 2.53626E+01
 -1      4113 1.77237E+01
 -1      4114 2.78635E+01
 -1      4115 2.07413E+01
 -1      4116 2.64838E+01
 -1      4117 2.03330E+01
 -1      4118 1.47123E+01
 -1      4119 1.95799E+01
 -1      4120 2.65683E+01
 -1      4121 2.72784E+01
 -1      4122 2.72784E+01
 -1      4123 2.51008E+01
 -1      4124 2.22412E+01
 -1      4125 2.21845E+01
 -1      4126 2.46500E+01
 -1      4127 1.15426E+01
 -1      4128 2.15261E+01
 -1      4129 2.54042E+01
 -1      4130 2.68664E+01
 -1      4131 2.69172E+01
 -1      4132 2.68893E+01
 -1      4133 1.29322E+01
 -1      4134 2.65412E+01
 -1      4135 2.53880E+01
 -1      4136 2.33677E+01
 -1      4137 2.65412E+01
 -1      4138 2.62604E+01
 -1      4139 2.62604E+01
 -1      4140 2.56386E+01
 -1      4141 2.14042E+01
 -1      4142 2.14042E+01
 -1      4143 1.86629E+01
 -1      4144 2.04662E+01
 -1      4145 2.01143E+01
 -1      4146 2.77117E+01
 -1      4147 2.81888E+01
 -1      4148 2.08221E+01
 -1      4149 1.68644E+01
 -1      4150 1.28228E+01
 -1      4151 2.78897E+01
 -1      4152 2.87519E+01
 -1      4153 2.51137E+01
 -1      4154 2.74935E+01
 -1      4155 2.27789E+01
 -1      4156 1.77628E+01
 -1      4157 2.70789E+01
 -1      4158 2.86875E+01
 -1      4159 2.70789E+01
 -1      4160 2.58678E+01
 -1      4161 2.74764E+01
 -1      4162 2.74764E+01
 -1      4163 2.29238E+01
 -1      4164 2.09144E+01
 -1      4165 2.44073E+01
 -1      4166 1.66944E+01
 -1      4167 2.67786E+01
 -1      4168 2.60220E+01
 -1      4169 2.68943E+01
 -1      4170 2.46484E+01
 -1      4171 2.52709E+01
 -1      4172 2.11077E+01
 -1      4173 2.06876E+01
 -1      4174 2.86402E+01
 -1      4175 2.00659E+01
 -1      4176 2.19935E+01
 -1      4177 4.51796E+00
 -1      4178 2.09397E+01
 -1      4179 1.88694E+01
 -1      4180 2.91319E+01
 -1      4181 2.88710E+01
 -1      4182 2.68791E+01
 -1      4183 1.80112E+01
 -1      4184 2.21544E+01
 -1      4185 2.24558E+01
 -1      4186 1.83126E+01
 -1      4187 2.53880E+01
 -1      4188 3.09082E+01
 -1      4189 2.72603E+01
 -1      4190 2.62604E+01
 -1      4191 2.62604E+01
 -1      4192 2.76838E+01
 -1      4193 2.76838E+01
 -1      4194 1.90500E+01
 -1      4195 1.97175E+01
 -1      4196 2.23312E+01
 -1      4197 8.30113E+00
 -1      4198 8.92495E+00
 -1      4199 1.29237E+01
 -1      4200 2.66459E+01
 -1      4201 2.59122E+01
 -1      4202 2.40090E+01
 -1      4203 1.62347E+01
 -1      4204 2.49564E+01
 -1      4205 1.60392E+01
 -1      4206 2.01926E+01
 -1      4207 3.01579E+01
 -1      4208 2.40942E+01
 -1      4209 2.49564E+01
 -1      4210 3.01579E+01
 -1      4211 2.15860E+01
 -1      4212 2.22435E+01
 -1      4213 1.93081E+01
 -1      4214 2.19114E+01
 -1      4215 2.50511E+01
 -1      4216 1.15000E+01
 -1      4217 1.09270E+01
 -1      4218 2.86192E+01
 -1      4219 1.84512E+01
 -1      4220 2.61678E+01
 -1      4221 2.69676E+01
 -1      4222 2.77463E+01
 -1      4223 2.92085E+01
 -1      4224 1.95074E+01
 -1      4225 1.89092E+01
 -1      4226 1.98444E+01
 -1      4227 1.37368E+01
 -1      4228 1.64367E+01
 -1      4229 1.73720E+01
 -1      4230 2.25443E+01
 -1      4231 2.00409E+01
 -1      4232 1.23255E+01
 -1      4233 1.92640E+01
 -1      4234 2.07975E+01
 -1      4235 2.66560E+01
 -1      4236 2.22799E+01
 -1      4237 2.26233E+01
 -1      4238 2.06876E+01
 -1      4239 1.62671E+01
 -1      4240 2.14394E+01
 -1      4241 1.86359E+01
 -1      4242 2.30128E+01
 -1      4243 2.02829E+01
 -1      4244 2.46597E+01
 -1      4245 2.61969E+01
 -1      4246 2.32449E+01
 -1      4247 2.04198E+01
 -1      4248 2.21268E+01
 -1      4249 2.06339E+01
 -1      4250 2.21512E+01
 -1      4251 2.34598E+01
 -1      4252 2.17491E+01
 -1      4253 2.86975E+01
 -1      4254 2.93097E+01
 -1      4255 1.97036E+01
 -1      4256 1.96469E+01
 -1      4257 1.74356E+01
 -1      4258 2.17491E+01
 -1      4259 2.50892E+01
 -1      4260 2.54781E+01
 -1      4261 1.71744E+01
 -1      4262 1.04081E+01
 -1      4263 1.78001E+01
 -1      4264 1.92681E+01
 -1      4265 2.34609E+01
 -1      4266 1.62740E+01
 -1      4267 2.11503E+01
 -1      4268 2.26016E+01
 -1      4269 1.69518E+01
 -1      4270 2.15498E+01
 -1      4271 2.36771E+01
 -1      4272 2.41694E+01
 -1      4273 2.31390E+01
 -1      4274 2.47444E+01
 -1      4275 9.58308E+00
 -1      4276 1.85352E+01
 -1      4277 2.45937E+01
 -1      4278 9.45393E+00
 -1      4279 1.90707E+01
 -1      4280 2.74028E+01
 -1      4281 1.63685E+01
 -1      4282 1.93928E+01
 -1      4283 1.70686E+01
 -1      4284 1.70132E+01
 -1      4285 1.37431E+01
 -1      4286 1.70132E+01
 -1      4287 1.89080E+01
 -1      4288 2.37626E+01
 -1      4289 1.18398E+01
 -1      4290 1.67480E+01
 -1      4291 1.90762E+01
 -1      4292 1.25693E+01
 -1      4293 1.91473E+01
 -1      4294 2.09500E+01
 -1      4295 2.22806E+01
 -1      4296 2.39205E+01
 -1      4297 2.52444E+01
 -1      4298 2.51431E+01
 -1      4299 2.73930E+01
 -1      4300 2.92906E+01
 -1      4301 2.27430E+01
 -1      4302 1.87369E+01
 -1      4303 1.99158E+01
 -1      4304 2.39219E+01
 -1      4305 2.39219E+01
 -1      4306 2.24917E+01
 -1      4307 2.32659E+01
 -1      4308 2.60512E+01
 -1      4309 2.78897E+01
 -1      4310 2.54245E+01
 -1      4311 2.45830E+01
 -1      4312 2.75873E+01
 -1      4313 9.31381E+00
 -1      4314 9.93763E+00
 -1      4315 2.01412E+01
 -1      4316 1.60066E+01
 -1      4317 2.54132E+01
 -1      4318 1.46517E+01
 -1      4319 2.40090E+01
 -1      4320 2.33677E+01
 -1      4321 2.02313E+01
 -1      4322 1.44372E+01
 -1      4323 1.97401E+01
 -1      4324 1.86519E+01
 -1      4325 2.07358E+01
 -1      4326 2.29957E+01
 -1      4327 2.47985E+01
 -1      4328 2.10347E+01
 -1      4329 2.12551E+01
 -1      4330 1.43687E+01
 -1      4331 1.40099E+01
 -1      4332 1.46395E+01
 -1      4333 1.49983E+01
 -1      4334 1.47315E+01
 -1      4335 2.68428E+01
 -1      4336 2.68428E+01
 -1      4337 2.70789E+01
 -1      4338 1.94384E+01
 -1      4339 1.96096E+01
 -1      4340 9.64879E+00
 -1      4341 9.58907E+00
 -1      4342 1.59695E+01
 -1      4343 1.64106E+01
 -1      4344 1.64106E+01
 -1      4345 1.60853E+01
 -1      4346 2.83591E+01
 -1      4347 2.84882E+01
 -1      4348 1.44620E+01
 -1      4349 1.37932E+01
 -1      4350 1.45180E+01
 -1      4351 1.38491E+01
 -1      4352 2.44855E+01
 -1      4353 2.49936E+01
 -1      4354 2.92906E+01
 -1      4355 1.83102E+01
 -1      4356 2.14055E+01
 -1      4357 2.28568E+01
 -1      4358 6.93014E+00
 -1      4359 8.53200E+00
 -1      4360 8.59982E+00
 -1      4361 1.67832E+01
 -1      4362 2.11503E+01
 -1      4363 2.13619E+01
 -1      4364 2.59205E+01
 -1      4365 2.35437E+01
 -1      4366 2.35437E+01
 -1      4367 2.46500E+01
 -1      4368 2.25019E+01
 -1      4369 2.67753E+01
 -1      4370 2.58718E+01
 -1      4371 2.58044E+01
 -1      4372 1.90762E+01
 -1      4373 9.32806E+00
 -1      4374 2.86875E+01
 -1      4375 2.74764E+01
 -1      4376 2.93097E+01
 -1      4377 3.01649E+01
 -1      4378 2.92383E+01
 -1      4379 2.60648E+01
 -1      4380 2.60648E+01
 -1      4381 2.65412E+01
 -1      4382 2.76838E+01
 -1      4383 2.51162E+01
 -1      4384 1.73492E+01
 -1      4385 1.68874E+01
 -1      4386 2.48250E+01
 -1      4387 2.48244E+01
 -1      4388 2.21279E+01
 -1      4389 2.21273E+01
 -1      4390 2.05170E+01
 -1      4391 2.57901E+01
 -1      4392 2.77850E+01
 -1      4393 2.33266E+01
 -1      4394 2.45069E+01
 -1      4395 2.20612E+01
 -1      4396 2.55258E+01
 -1      4397 2.67047E+01
 -1      4398 1.70121E+01
 -1      4399 2.21845E+01
 -1      4400 2.26416E+01
 -1      4401 2.50253E+01
 -1      4402 2.83591E+01
 -1      4403 2.27157E+01
 -1      4404 2.21111E+01
 -1      4405 2.76838E+01
 -1      4406 1.68158E+01
 -1      4407 2.01728E+01
 -1      4408 2.05076E+01
 -1      4409 2.51008E+01
 -1      4410 2.74228E+01
 -1      4411 2.73215E+01
 -1      4412 1.39625E+01
 -1      4413 2.94217E+01
 -1      4414 1.90136E+01
 -1      4415 2.70447E+01
 -1      4416 2.09977E+01
 -1      4417 2.12110E+01
 -1      4418 2.86068E+01
 -1      4419 1.44605E+01
 -1      4420 1.48698E+01
 -1      4421 1.99245E+01
 -1      4422 2.94561E+01
 -1      4423 2.94561E+01
 -1      4424 2.72784E+01
 -1      4425 2.72784E+01
 -1      4426 8.21730E+00
 -1      4427 1.76909E+01
 -1      4428 2.24623E+01
 -1      4429 1.95923E+01
 -1      4430 2.08034E+01
 -1      4431 2.22412E+01
 -1      4432 2.11010E+01
 -1      4433 2.99640E+01
 -1      4434 1.66225E+01
 -1      4435 2.36079E+01
 -1      4436 2.88823E+01
 -1      4437 1.97120E+01
 -1      4438 2.97148E+01
 -1      4439 2.65412E+01
 -1      4440 2.16941E+01
 -1      4441 2.20126E+01
 -1      4442 2.14305E+01
 -1      4443 2.14305E+01
 -1      4444 2.58981E+01
 -1      4445 9.16606E+00
 -1      4446 7.97590E+00
 -1      4447 1.46721E+01
 -1      4448 2.59392E+01
 -1      4449 2.68428E+01
 -1      4450 2.61527E+01
 -1      4451 2.69270E+01
 -1      4452 2.00655E+01
 -1      4453 1.21814E+01
 -1      4454 1.88544E+01
 -1      4455 1.01677E+01
 -1      4456 1.05299E+01
 -1      4457 2.11021E+01
 -1      4458 2.57232E+01
 -1      4459 2.97148E+01
 -1      4460 6.55258E+00
 -1      4461 8.24607E+00
 -1      4462 2.04611E+01
 -1      4463 1.66240E+01
 -1      4464 1.86841E+01
 -1      4465 2.53009E+01
 -1      4466 1.25634E+01
 -1      4467 3.09082E+01
 -1      4468 1.97643E+01
 -1      4469 7.20331E+00
 -1      4470 2.45138E+01
 -1      4471 2.44464E+01
 -1      4472 2.78137E+01
 -1      4473 2.78137E+01
 -1      4474 5.66776E+00
 -1      4475 7.33953E+00
 -1      4476 1.51794E+01
 -1      4477 1.56205E+01
 -1      4478 2.60996E+01
 -1      4479 2.86402E+01
 -1      4480 1.24422E+01
 -1      4481 2.08481E+01
 -1      4482 2.06111E+01
 -1      4483 1.94735E+01
 -1      4484 2.77850E+01
 -1      4485 1.48698E+01
 -1      4486 1.73720E+01
 -1      4487 2.70602E+01
 -1      4488 2.69848E+01
 -1      4489 2.50226E+01
 -1      4490 2.69848E+01
 -1      4491 8.24246E+00
 -1      4492 9.07582E+00
 -1      4493 1.33745E+01
 -1      4494 8.04362E+00
 -1      4495 9.23379E+00
 -1      4496 2.43567E+01
 -1      4497 2.37197E+01
 -1      4498 2.24270E+01
 -1      4499 2.21792E+01
 -1      4500 1.81172E+01
 -1      4501 1.70368E+01
 -1      4502 2.30883E+01
 -1      4503 2.08881E+01
 -1      4504 1.93818E+01
 -1      4505 1.93818E+01
 -1      4506 2.09215E+01
 -1      4507 2.17002E+01
 -1      4508 1.72002E+01
 -1      4509 2.52152E+01
 -1      4510 1.07060E+01
 -1      4511 1.11153E+01
 -1      4512 5.59555E+00
 -1      4513 2.77463E+01
 -1      4514 2.77463E+01
 -1      4515 9.23379E+00
 -1      4516 1.10907E+01
 -1      4517 2.86068E+01
 -1      4518 2.86232E+01
 -1      4519 2.72914E+01
 -1      4520 2.08435E+01
 -1      4521 2.31017E+01
 -1      4522 1.79728E+01
 -1      4523 2.13458E+01
 -1      4524 2.91631E+01
 -1      4525 2.57901E+01
 -1      4526 2.63067E+01
 -1      4527 1.96832E+01
 -1      4528 2.08164E+01
 -1      4529 2.08164E+01
 -1      4530 2.24869E+01
 -1      4531 9.01610E+00
 -1      4532 2.26106E+01
 -1      4533 2.04882E+01
 -1      4534 2.23083E+01
 -1      4535 2.43152E+01
 -1      4536 2.21268E+01
 -1      4537 2.91680E+01
 -1      4538 2.93442E+01
 -1      4539 2.77635E+01
 -1      4540 2.77635E+01
 -1      4541 2.75873E+01
 -1      4542 2.01039E+01
 -1      4543 2.23727E+01
 -1      4544 7.07703E+00
 -1      4545 2.34316E+01
 -1      4546 1.67832E+01
 -1      4547 1.89080E+01
 -1      4548 1.89080E+01
 -1      4549 2.08941E+01
 -1      4550 2.12257E+01
 -1      4551 1.93801E+01
 -1      4552 2.44976E+01
 -1      4553 2.44753E+01
 -1      4554 2.40782E+01
 -1      4555 2.16519E+01
 -1      4556 2.92906E+01
 -1      4557 2.69848E+01
 -1      4558 1.93818E+01
 -1      4559 2.16519E+01
 -1      4560 2.39185E+01
 -1      4561 2.33314E+01
 -1      4562 1.99968E+01
 -1      4563 2.06240E+01
 -1      4564 1.87859E+01
 -1      4565 1.78040E+01
 -1      4566 1.39345E+01
 -1      4567 1.47918E+01
 -1      4568 1.74362E+01
 -1      4569 2.60981E+01
 -1      4570 2.38311E+01
 -1      4571 1.36195E+01
 -1      4572 1.55925E+01
 -1      4573 6.22972E+00
 -1      4574 9.56574E+00
 -1      4575 1.69777E+01
 -1      4576 1.78252E+01
 -1      4577 2.37570E+01
 -1      4578 1.39812E+01
 -1      4579 2.45830E+01
 -1      4580 2.43627E+01
 -1      4581 2.51162E+01
 -1      4582 2.00067E+01
 -1      4583 1.85917E+01
 -1      4584 1.90351E+01
 -1      4585 2.68428E+01
 -1      4586 2.77463E+01
 -1      4587 2.69270E+01
 -1      4588 2.78137E+01
 -1      4589 1.20811E+01
 -1      4590 1.04487E+01
 -1      4591 2.57901E+01
 -1      4592 2.72914E+01
 -1      4593 2.78137E+01
 -1      4594 2.78137E+01
 -1      4595 1.12283E+01
 -1      4596 9.37142E+00
 -1      4597 1.45232E+01
 -1      4598 1.68733E+01
 -1      4599 2.03807E+01
 -1      4600 2.50253E+01
 -1      4601 2.64818E+01
 -1      4602 2.64318E+01
 -1      4603 2.11758E+01
 -1      4604 1.95566E+01
 -1      4605 2.17330E+01
 -1      4606 1.89706E+01
 -1      4607 1.98181E+01
 -1      4608 2.77463E+01
 -1      4609 1.98645E+01
 -1      4610 2.32809E+01
 -1      4611 1.72320E+01
 -1      4612 2.63470E+01
 -1      4613 1.96744E+01
 -1      4614 2.63470E+01
 -1      4615 2.89917E+01
 -1      4616 2.77463E+01
 -1      4617 2.31086E+01
 -1      4618 2.38073E+01
 -1      4619 1.09175E+01
 -1      4620 2.40892E+01
 -1      4621 2.12257E+01
 -1      4622 2.30474E+01
 -1      4623 1.50214E+01
 -1      4624 1.19432E+01
 -1      4625 1.33597E+01
 -1      4626 1.52301E+01
 -1      4627 1.69063E+01
 -1      4628 1.72762E+01
 -1      4629 1.80097E+01
 -1      4630 1.94078E+01
 -1      4631 1.90138E+01
 -1      4632 2.52274E+01
 -1      4633 2.30474E+01
 -1      4634 2.54190E+01
 -1      4635 2.75593E+01
 -1      4636 1.59119E+01
 -1      4637 2.37903E+01
 -1      4638 2.63689E+01
 -1      4639 1.87705E+01
 -1      4640 2.69270E+01
 -1      4641 2.63500E+01
 -1      4642 1.84647E+01
 -1      4643 1.80274E+01
 -1      4644 1.52236E+01
 -1      4645 1.56609E+01
 -1      4646 2.68428E+01
 -1      4647 2.17052E+01
 -1      4648 1.52691E+01
 -1      4649 2.63500E+01
 -1      4650 2.63689E+01
 -1      4651 7.94608E+00
 -1      4652 1.56317E+01
 -1      4653 1.88195E+01
 -1      4654 1.52236E+01
 -1      4655 8.69198E+00
 -1      4656 1.52691E+01
 -1      4657 2.05156E+01
 -1      4658 7.90060E+00
 -1      4659 1.82220E+01
 -1      4660 1.59727E+01
 -1      4661 1.78302E+01
 -1      4662 1.12966E+01
 -1      4663 8.60100E+00
 -1      4664 3.15460E+01
 -1      4665 3.02510E+01
 -1      4666 3.53258E+01
 -1      4667 3.62562E+01
 -1      4668 8.44720E+00
 -1      4669 2.49861E+01
 -1      4670 2.22911E+01
 -1      4671 2.53899E+01
 -1      4672 2.31262E+01
 -1      4673 1.18796E+01
 -1      4674 1.71070E+01
 -1      4675 2.01966E+01
 -1      4676 2.19966E+01
 -1      4677 2.23198E+01
 -1      4678 1.32129E+01
 -1      4679 2.91631E+01
 -1      4680 1.65465E+01
 -1      4681 2.29950E+01
 -3
 9999
