    1C
    1UUSER                                                              
    1UDATE              27.july.2025                                    
    1UTIME              22:53:03                                        
    1UHOST                                                              
    1UPGM               CalculiX                                        
    1UVERSION           Version 2.22                             
    1UCOMPILETIME       Mon Aug  5 19:15:25 CEST 2024                    
    1UDIR                                                               
    1UDBN                                                               
    1UMAT    1TPU                                                       
    2C                          2034                                     1
 -1         1 1.00000E+01 1.00000E+01-2.77556E-16
 -1         2 1.80411E-15 1.00000E+01-2.77556E-16
 -1         3 1.80411E-15 1.00000E+01 1.00000E+01
 -1         4 1.00000E+01 1.00000E+01 1.00000E+01
 -1         5 1.00000E+01-2.77556E-16-2.77556E-16
 -1         6 1.00000E+01-2.77556E-16 1.00000E+01
 -1         7-2.77556E-16-2.77556E-16-2.77556E-16
 -1         8-2.77556E-16-2.77556E-16 1.00000E+01
 -1         9 8.33333E+00 1.00000E+01-2.77556E-16
 -1        10 6.66667E+00 1.00000E+01-2.77556E-16
 -1        11 5.00000E+00 1.00000E+01-2.77556E-16
 -1        12 3.33333E+00 1.00000E+01-2.77556E-16
 -1        13 1.66667E+00 1.00000E+01-2.77556E-16
 -1        14 9.16667E+00 1.00000E+01-2.77556E-16
 -1        15 7.50000E+00 1.00000E+01-2.77556E-16
 -1        16 5.83333E+00 1.00000E+01-2.77556E-16
 -1        17 4.16667E+00 1.00000E+01-2.77556E-16
 -1        18 2.50000E+00 1.00000E+01-2.77556E-16
 -1        19 8.33333E-01 1.00000E+01-2.77556E-16
 -1        20 1.80411E-15 1.00000E+01 1.66667E+00
 -1        21 1.80411E-15 1.00000E+01 3.33333E+00
 -1        22 1.80411E-15 1.00000E+01 5.00000E+00
 -1        23 1.80411E-15 1.00000E+01 6.66667E+00
 -1        24 1.80411E-15 1.00000E+01 8.33333E+00
 -1        25 1.80411E-15 1.00000E+01 8.33333E-01
 -1        26 1.80411E-15 1.00000E+01 2.50000E+00
 -1        27 1.80411E-15 1.00000E+01 4.16667E+00
 -1        28 1.80411E-15 1.00000E+01 5.83333E+00
 -1        29 1.80411E-15 1.00000E+01 7.50000E+00
 -1        30 1.80411E-15 1.00000E+01 9.16667E+00
 -1        31 8.33333E+00 1.00000E+01 1.00000E+01
 -1        32 6.66667E+00 1.00000E+01 1.00000E+01
 -1        33 5.00000E+00 1.00000E+01 1.00000E+01
 -1        34 3.33333E+00 1.00000E+01 1.00000E+01
 -1        35 1.66667E+00 1.00000E+01 1.00000E+01
 -1        36 9.16667E+00 1.00000E+01 1.00000E+01
 -1        37 7.50000E+00 1.00000E+01 1.00000E+01
 -1        38 5.83333E+00 1.00000E+01 1.00000E+01
 -1        39 4.16667E+00 1.00000E+01 1.00000E+01
 -1        40 2.50000E+00 1.00000E+01 1.00000E+01
 -1        41 8.33333E-01 1.00000E+01 1.00000E+01
 -1        42 1.00000E+01 1.00000E+01 1.66667E+00
 -1        43 1.00000E+01 1.00000E+01 3.33333E+00
 -1        44 1.00000E+01 1.00000E+01 5.00000E+00
 -1        45 1.00000E+01 1.00000E+01 6.66667E+00
 -1        46 1.00000E+01 1.00000E+01 8.33333E+00
 -1        47 1.00000E+01 1.00000E+01 8.33333E-01
 -1        48 1.00000E+01 1.00000E+01 2.50000E+00
 -1        49 1.00000E+01 1.00000E+01 4.16667E+00
 -1        50 1.00000E+01 1.00000E+01 5.83333E+00
 -1        51 1.00000E+01 1.00000E+01 7.50000E+00
 -1        52 1.00000E+01 1.00000E+01 9.16667E+00
 -1        53 1.00000E+01 1.66667E+00-2.77556E-16
 -1        54 1.00000E+01 3.33333E+00-2.77556E-16
 -1        55 1.00000E+01 5.00000E+00-2.77556E-16
 -1        56 1.00000E+01 6.66667E+00-2.77556E-16
 -1        57 1.00000E+01 8.33333E+00-2.77556E-16
 -1        58 1.00000E+01 8.33333E-01-2.77556E-16
 -1        59 1.00000E+01 2.50000E+00-2.77556E-16
 -1        60 1.00000E+01 4.16667E+00-2.77556E-16
 -1        61 1.00000E+01 5.83333E+00-2.77556E-16
 -1        62 1.00000E+01 7.50000E+00-2.77556E-16
 -1        63 1.00000E+01 9.16667E+00-2.77556E-16
 -1        64 1.00000E+01 1.66667E+00 1.00000E+01
 -1        65 1.00000E+01 3.33333E+00 1.00000E+01
 -1        66 1.00000E+01 5.00000E+00 1.00000E+01
 -1        67 1.00000E+01 6.66667E+00 1.00000E+01
 -1        68 1.00000E+01 8.33333E+00 1.00000E+01
 -1        69 1.00000E+01 8.33333E-01 1.00000E+01
 -1        70 1.00000E+01 2.50000E+00 1.00000E+01
 -1        71 1.00000E+01 4.16667E+00 1.00000E+01
 -1        72 1.00000E+01 5.83333E+00 1.00000E+01
 -1        73 1.00000E+01 7.50000E+00 1.00000E+01
 -1        74 1.00000E+01 9.16667E+00 1.00000E+01
 -1        75 1.00000E+01-2.77556E-16 1.66667E+00
 -1        76 1.00000E+01-2.77556E-16 3.33333E+00
 -1        77 1.00000E+01-2.77556E-16 5.00000E+00
 -1        78 1.00000E+01-2.77556E-16 6.66667E+00
 -1        79 1.00000E+01-2.77556E-16 8.33333E+00
 -1        80 1.00000E+01-2.77556E-16 8.33333E-01
 -1        81 1.00000E+01-2.77556E-16 2.50000E+00
 -1        82 1.00000E+01-2.77556E-16 4.16667E+00
 -1        83 1.00000E+01-2.77556E-16 5.83333E+00
 -1        84 1.00000E+01-2.77556E-16 7.50000E+00
 -1        85 1.00000E+01-2.77556E-16 9.16667E+00
 -1        86 1.66667E+00-2.77556E-16-2.77556E-16
 -1        87 3.33333E+00-2.77556E-16-2.77556E-16
 -1        88 5.00000E+00-2.77556E-16-2.77556E-16
 -1        89 6.66667E+00-2.77556E-16-2.77556E-16
 -1        90 8.33333E+00-2.77556E-16-2.77556E-16
 -1        91 8.33333E-01-2.77556E-16-2.77556E-16
 -1        92 2.50000E+00-2.77556E-16-2.77556E-16
 -1        93 4.16667E+00-2.77556E-16-2.77556E-16
 -1        94 5.83333E+00-2.77556E-16-2.77556E-16
 -1        95 7.50000E+00-2.77556E-16-2.77556E-16
 -1        96 9.16667E+00-2.77556E-16-2.77556E-16
 -1        97 1.66667E+00-2.77556E-16 1.00000E+01
 -1        98 3.33333E+00-2.77556E-16 1.00000E+01
 -1        99 5.00000E+00-2.77556E-16 1.00000E+01
 -1       100 6.66667E+00-2.77556E-16 1.00000E+01
 -1       101 8.33333E+00-2.77556E-16 1.00000E+01
 -1       102 8.33333E-01-2.77556E-16 1.00000E+01
 -1       103 2.50000E+00-2.77556E-16 1.00000E+01
 -1       104 4.16667E+00-2.77556E-16 1.00000E+01
 -1       105 5.83333E+00-2.77556E-16 1.00000E+01
 -1       106 7.50000E+00-2.77556E-16 1.00000E+01
 -1       107 9.16667E+00-2.77556E-16 1.00000E+01
 -1       108-2.77556E-16-2.77556E-16 1.66667E+00
 -1       109-2.77556E-16-2.77556E-16 3.33333E+00
 -1       110-2.77556E-16-2.77556E-16 5.00000E+00
 -1       111-2.77556E-16-2.77556E-16 6.66667E+00
 -1       112-2.77556E-16-2.77556E-16 8.33333E+00
 -1       113-2.77556E-16-2.77556E-16 8.33333E-01
 -1       114-2.77556E-16-2.77556E-16 2.50000E+00
 -1       115-2.77556E-16-2.77556E-16 4.16667E+00
 -1       116-2.77556E-16-2.77556E-16 5.83333E+00
 -1       117-2.77556E-16-2.77556E-16 7.50000E+00
 -1       118-2.77556E-16-2.77556E-16 9.16667E+00
 -1       119 1.80411E-15 8.33333E+00-2.77556E-16
 -1       120 1.11022E-15 6.66667E+00-2.77556E-16
 -1       121 1.11022E-15 5.00000E+00-2.77556E-16
 -1       122 1.11022E-15 3.33333E+00-2.77556E-16
 -1       123-2.77556E-16 1.66667E+00-2.77556E-16
 -1       124 1.80411E-15 9.16667E+00-2.77556E-16
 -1       125 1.11022E-15 7.50000E+00-2.77556E-16
 -1       126 1.11022E-15 5.83333E+00-2.77556E-16
 -1       127 1.11022E-15 4.16667E+00-2.77556E-16
 -1       128-2.77556E-16 2.50000E+00-2.77556E-16
 -1       129-2.77556E-16 8.33333E-01-2.77556E-16
 -1       130 1.80411E-15 8.33333E+00 1.00000E+01
 -1       131 1.11022E-15 6.66667E+00 1.00000E+01
 -1       132 1.11022E-15 5.00000E+00 1.00000E+01
 -1       133 1.11022E-15 3.33333E+00 1.00000E+01
 -1       134-2.77556E-16 1.66667E+00 1.00000E+01
 -1       135 1.80411E-15 9.16667E+00 1.00000E+01
 -1       136 1.11022E-15 7.50000E+00 1.00000E+01
 -1       137 1.11022E-15 5.83333E+00 1.00000E+01
 -1       138 1.11022E-15 4.16667E+00 1.00000E+01
 -1       139-2.77556E-16 2.50000E+00 1.00000E+01
 -1       140-2.77556E-16 8.33333E-01 1.00000E+01
 -1       141 1.49383E+00 1.00000E+01 5.97788E+00
 -1       142 8.50617E+00 1.00000E+01 5.97788E+00
 -1       143 4.18489E+00 1.00000E+01 1.50843E+00
 -1       144 4.16667E+00 1.00000E+01 8.55662E+00
 -1       145 7.37626E+00 1.00000E+01 1.51308E+00
 -1       146 7.49294E+00 1.00000E+01 8.58871E+00
 -1       147 1.38838E+00 1.00000E+01 2.47706E+00
 -1       148 2.50706E+00 1.00000E+01 8.58871E+00
 -1       149 3.07435E+00 1.00000E+01 6.97529E+00
 -1       150 4.95684E+00 1.00000E+01 7.09026E+00
 -1       151 4.16667E+00 1.00000E+01 5.66987E+00
 -1       152 5.77780E+00 1.00000E+01 5.63813E+00
 -1       153 4.99074E+00 1.00000E+01 4.25064E+00
 -1       154 6.60089E+00 1.00000E+01 4.21266E+00
 -1       155 3.33333E+00 1.00000E+01 4.22650E+00
 -1       156 5.80100E+00 1.00000E+01 2.72222E+00
 -1       157 6.91155E+00 1.00000E+01 6.96747E+00
 -1       158 1.68199E+00 1.00000E+01 4.20921E+00
 -1       159 8.30825E+00 1.00000E+01 4.22043E+00
 -1       160 5.86578E+00 1.00000E+01 8.53384E+00
 -1       161 1.38645E+00 1.00000E+01 7.51496E+00
 -1       162 8.61187E+00 1.00000E+01 7.51403E+00
 -1       163 2.47117E+00 1.00000E+01 1.36949E+00
 -1       164 8.60722E+00 1.00000E+01 2.55562E+00
 -1       165 4.21566E+00 1.00000E+01 3.13102E+00
 -1       166 5.80576E+00 1.00000E+01 1.14875E+00
 -1       167 7.33872E+00 1.00000E+01 3.04480E+00
 -1       168 2.87924E+00 1.00000E+01 2.82029E+00
 -1       169 7.22093E+00 1.00000E+01 5.40331E+00
 -1       170 2.79006E+00 1.00000E+01 5.50240E+00
 -1       171 1.22008E+00 1.00000E+01 8.77991E+00
 -1       172 8.77991E+00 1.00000E+01 8.77991E+00
 -1       173 8.77991E+00 1.00000E+01 1.22008E+00
 -1       174 1.22008E+00 1.00000E+01 1.22008E+00
 -1       175 8.55662E+00 1.00000E+01 6.10042E-01
 -1       176 9.38996E+00 1.00000E+01 6.10042E-01
 -1       177 9.38996E+00 1.00000E+01 1.44338E+00
 -1       178 6.10042E-01 1.00000E+01 6.10042E-01
 -1       179 1.44338E+00 1.00000E+01 6.10042E-01
 -1       180 6.10042E-01 1.00000E+01 1.44338E+00
 -1       181 6.10042E-01 1.00000E+01 9.38996E+00
 -1       182 6.10042E-01 1.00000E+01 8.55662E+00
 -1       183 1.44338E+00 1.00000E+01 9.38996E+00
 -1       184 9.38996E+00 1.00000E+01 9.38996E+00
 -1       185 8.55662E+00 1.00000E+01 9.38996E+00
 -1       186 9.38996E+00 1.00000E+01 8.55662E+00
 -1       187 7.02146E+00 1.00000E+01 7.56540E-01
 -1       188 7.85480E+00 1.00000E+01 7.56540E-01
 -1       189 8.07809E+00 1.00000E+01 1.36658E+00
 -1       190 5.40288E+00 1.00000E+01 5.74373E-01
 -1       191 6.23621E+00 1.00000E+01 5.74373E-01
 -1       192 6.59101E+00 1.00000E+01 1.33091E+00
 -1       193 3.75911E+00 1.00000E+01 7.54213E-01
 -1       194 4.59245E+00 1.00000E+01 7.54213E-01
 -1       195 4.99533E+00 1.00000E+01 1.32859E+00
 -1       196 2.06892E+00 1.00000E+01 6.84747E-01
 -1       197 2.90225E+00 1.00000E+01 6.84747E-01
 -1       198 3.32803E+00 1.00000E+01 1.43896E+00
 -1       199 1.84563E+00 1.00000E+01 1.29479E+00
 -1       200 6.94190E-01 1.00000E+01 2.90520E+00
 -1       201 6.94190E-01 1.00000E+01 2.07186E+00
 -1       202 1.30423E+00 1.00000E+01 1.84857E+00
 -1       203 8.40994E-01 1.00000E+01 4.60461E+00
 -1       204 8.40994E-01 1.00000E+01 3.77127E+00
 -1       205 1.53518E+00 1.00000E+01 3.34314E+00
 -1       206 7.46913E-01 1.00000E+01 6.32227E+00
 -1       207 7.46913E-01 1.00000E+01 5.48894E+00
 -1       208 1.58791E+00 1.00000E+01 5.09354E+00
 -1       209 6.93225E-01 1.00000E+01 7.92415E+00
 -1       210 6.93225E-01 1.00000E+01 7.09081E+00
 -1       211 1.44014E+00 1.00000E+01 6.74642E+00
 -1       212 1.30327E+00 1.00000E+01 8.14744E+00
 -1       213 7.91314E+00 1.00000E+01 9.29436E+00
 -1       214 7.07980E+00 1.00000E+01 9.29436E+00
 -1       215 8.13643E+00 1.00000E+01 8.68431E+00
 -1       216 6.26622E+00 1.00000E+01 9.26692E+00
 -1       217 5.43289E+00 1.00000E+01 9.26692E+00
 -1       218 6.67936E+00 1.00000E+01 8.56128E+00
 -1       219 4.58333E+00 1.00000E+01 9.27831E+00
 -1       220 3.75000E+00 1.00000E+01 9.27831E+00
 -1       221 5.01622E+00 1.00000E+01 8.54523E+00
 -1       222 2.92020E+00 1.00000E+01 9.29436E+00
 -1       223 2.08686E+00 1.00000E+01 9.29436E+00
 -1       224 3.33686E+00 1.00000E+01 8.57267E+00
 -1       225 1.86357E+00 1.00000E+01 8.68431E+00
 -1       226 9.30361E+00 1.00000E+01 2.11114E+00
 -1       227 9.30361E+00 1.00000E+01 2.94448E+00
 -1       228 8.69357E+00 1.00000E+01 1.88785E+00
 -1       229 9.15413E+00 1.00000E+01 3.77688E+00
 -1       230 9.15413E+00 1.00000E+01 4.61021E+00
 -1       231 8.45773E+00 1.00000E+01 3.38803E+00
 -1       232 9.25309E+00 1.00000E+01 5.48894E+00
 -1       233 9.25309E+00 1.00000E+01 6.32227E+00
 -1       234 8.40721E+00 1.00000E+01 5.09915E+00
 -1       235 9.30594E+00 1.00000E+01 7.09035E+00
 -1       236 9.30594E+00 1.00000E+01 7.92368E+00
 -1       237 8.55902E+00 1.00000E+01 6.74595E+00
 -1       238 8.69589E+00 1.00000E+01 8.14697E+00
 -1       239 2.23040E+00 1.00000E+01 7.24512E+00
 -1       240 2.28409E+00 1.00000E+01 6.47658E+00
 -1       241 2.93221E+00 1.00000E+01 6.23885E+00
 -1       242 2.14195E+00 1.00000E+01 5.74014E+00
 -1       243 2.23603E+00 1.00000E+01 4.85581E+00
 -1       244 7.76171E+00 1.00000E+01 7.24075E+00
 -1       245 7.70886E+00 1.00000E+01 6.47267E+00
 -1       246 7.86355E+00 1.00000E+01 5.69059E+00
 -1       247 7.06624E+00 1.00000E+01 6.18539E+00
 -1       248 7.76459E+00 1.00000E+01 4.81187E+00
 -1       249 4.20027E+00 1.00000E+01 2.31972E+00
 -1       250 5.00833E+00 1.00000E+01 2.92662E+00
 -1       251 4.99295E+00 1.00000E+01 2.11532E+00
 -1       252 5.80338E+00 1.00000E+01 1.93548E+00
 -1       253 2.67520E+00 1.00000E+01 2.09489E+00
 -1       254 3.53206E+00 1.00000E+01 2.16436E+00
 -1       255 3.54745E+00 1.00000E+01 2.97565E+00
 -1       256 3.62051E+00 1.00000E+01 7.76596E+00
 -1       257 2.79071E+00 1.00000E+01 7.78200E+00
 -1       258 4.56175E+00 1.00000E+01 7.82344E+00
 -1       259 4.01559E+00 1.00000E+01 7.03277E+00
 -1       260 5.41131E+00 1.00000E+01 7.81205E+00
 -1       261 6.58863E+00 1.00000E+01 2.11765E+00
 -1       262 6.56986E+00 1.00000E+01 2.88351E+00
 -1       263 7.35749E+00 1.00000E+01 2.27894E+00
 -1       264 7.97297E+00 1.00000E+01 2.80021E+00
 -1       265 7.99174E+00 1.00000E+01 2.03435E+00
 -1       266 6.38866E+00 1.00000E+01 7.75066E+00
 -1       267 7.20224E+00 1.00000E+01 7.77809E+00
 -1       268 8.05240E+00 1.00000E+01 8.05137E+00
 -1       269 2.28061E+00 1.00000E+01 3.51475E+00
 -1       270 2.13381E+00 1.00000E+01 2.64867E+00
 -1       271 1.92977E+00 1.00000E+01 1.92328E+00
 -1       272 1.94676E+00 1.00000E+01 8.05184E+00
 -1       273 4.56175E+00 1.00000E+01 6.38006E+00
 -1       274 3.62051E+00 1.00000E+01 6.32258E+00
 -1       275 3.47837E+00 1.00000E+01 5.58614E+00
 -1       276 5.36732E+00 1.00000E+01 6.36419E+00
 -1       277 4.97223E+00 1.00000E+01 5.65400E+00
 -1       278 5.93419E+00 1.00000E+01 7.02886E+00
 -1       279 6.34467E+00 1.00000E+01 6.30280E+00
 -1       280 5.38427E+00 1.00000E+01 4.94438E+00
 -1       281 4.57871E+00 1.00000E+01 4.96025E+00
 -1       282 4.16204E+00 1.00000E+01 4.23857E+00
 -1       283 3.75000E+00 1.00000E+01 4.94818E+00
 -1       284 3.06170E+00 1.00000E+01 4.86445E+00
 -1       285 6.18934E+00 1.00000E+01 4.92540E+00
 -1       286 5.79582E+00 1.00000E+01 4.23165E+00
 -1       287 6.49936E+00 1.00000E+01 5.52072E+00
 -1       288 6.91091E+00 1.00000E+01 4.80799E+00
 -1       289 6.20095E+00 1.00000E+01 3.46744E+00
 -1       290 5.39587E+00 1.00000E+01 3.48643E+00
 -1       291 4.60320E+00 1.00000E+01 3.69083E+00
 -1       292 3.77449E+00 1.00000E+01 3.67876E+00
 -1       293 6.96981E+00 1.00000E+01 3.62873E+00
 -1       294 7.82349E+00 1.00000E+01 3.63262E+00
 -1       295 7.45457E+00 1.00000E+01 4.21655E+00
 -1       296 3.10628E+00 1.00000E+01 3.52339E+00
 -1       297 2.50766E+00 1.00000E+01 4.21786E+00
 -1       298 1.00000E+01 8.55662E+00 5.83333E+00
 -1       299 1.00000E+01 1.50843E+00 5.81511E+00
 -1       300 1.00000E+01 5.97788E+00 1.49383E+00
 -1       301 1.00000E+01 5.97788E+00 8.50617E+00
 -1       302 1.00000E+01 2.45880E+00 1.35630E+00
 -1       303 1.00000E+01 8.58871E+00 2.50706E+00
 -1       304 1.00000E+01 2.47706E+00 8.61162E+00
 -1       305 1.00000E+01 8.58871E+00 7.49294E+00
 -1       306 1.00000E+01 6.97529E+00 6.92565E+00
 -1       307 1.00000E+01 7.09026E+00 5.04316E+00
 -1       308 1.00000E+01 5.66987E+00 5.83333E+00
 -1       309 1.00000E+01 5.63813E+00 4.22220E+00
 -1       310 1.00000E+01 4.25064E+00 5.00926E+00
 -1       311 1.00000E+01 4.22650E+00 6.66667E+00
 -1       312 1.00000E+01 4.21370E+00 3.40091E+00
 -1       313 1.00000E+01 2.83571E+00 4.40466E+00
 -1       314 1.00000E+01 8.55814E+00 4.17504E+00
 -1       315 1.00000E+01 4.20391E+00 1.68785E+00
 -1       316 1.00000E+01 4.20921E+00 8.31801E+00
 -1       317 1.00000E+01 6.96768E+00 3.08965E+00
 -1       318 1.00000E+01 7.51496E+00 8.61355E+00
 -1       319 1.00000E+01 7.51405E+00 1.38827E+00
 -1       320 1.00000E+01 1.36949E+00 7.52883E+00
 -1       321 1.00000E+01 1.31307E+00 2.41807E+00
 -1       322 1.00000E+01 1.35163E+00 4.05995E+00
 -1       323 1.00000E+01 3.15372E+00 5.82548E+00
 -1       324 1.00000E+01 2.83319E+00 2.83208E+00
 -1       325 1.00000E+01 2.82407E+00 7.12762E+00
 -1       326 1.00000E+01 5.50240E+00 7.20994E+00
 -1       327 1.00000E+01 5.40026E+00 2.77889E+00
 -1       328 1.00000E+01 8.77991E+00 8.77991E+00
 -1       329 1.00000E+01 1.22008E+00 8.77991E+00
 -1       330 1.00000E+01 8.77991E+00 1.22008E+00
 -1       331 1.00000E+01 1.21160E+00 1.21160E+00
 -1       332 1.00000E+01 9.38996E+00 1.44338E+00
 -1       333 1.00000E+01 9.38996E+00 6.10042E-01
 -1       334 1.00000E+01 8.55662E+00 6.10042E-01
 -1       335 1.00000E+01 9.38996E+00 9.38996E+00
 -1       336 1.00000E+01 9.38996E+00 8.55662E+00
 -1       337 1.00000E+01 8.55662E+00 9.38996E+00
 -1       338 1.00000E+01 1.43913E+00 6.05799E-01
 -1       339 1.00000E+01 6.05799E-01 6.05799E-01
 -1       340 1.00000E+01 6.05799E-01 1.43913E+00
 -1       341 1.00000E+01 6.10042E-01 9.38996E+00
 -1       342 1.00000E+01 1.44338E+00 9.38996E+00
 -1       343 1.00000E+01 6.10042E-01 8.55662E+00
 -1       344 1.00000E+01 9.29436E+00 2.92020E+00
 -1       345 1.00000E+01 9.29436E+00 2.08686E+00
 -1       346 1.00000E+01 8.68431E+00 1.86357E+00
 -1       347 1.00000E+01 9.27907E+00 4.58752E+00
 -1       348 1.00000E+01 9.27907E+00 3.75419E+00
 -1       349 1.00000E+01 8.57343E+00 3.34105E+00
 -1       350 1.00000E+01 9.27831E+00 6.25000E+00
 -1       351 1.00000E+01 9.27831E+00 5.41667E+00
 -1       352 1.00000E+01 8.55738E+00 5.00419E+00
 -1       353 1.00000E+01 9.29436E+00 7.91314E+00
 -1       354 1.00000E+01 9.29436E+00 7.07980E+00
 -1       355 1.00000E+01 8.57267E+00 6.66314E+00
 -1       356 1.00000E+01 8.68431E+00 8.13643E+00
 -1       357 1.00000E+01 2.89607E+00 6.78151E-01
 -1       358 1.00000E+01 2.06273E+00 6.78151E-01
 -1       359 1.00000E+01 1.83520E+00 1.28395E+00
 -1       360 1.00000E+01 4.60195E+00 8.43926E-01
 -1       361 1.00000E+01 3.76862E+00 8.43926E-01
 -1       362 1.00000E+01 3.33135E+00 1.52208E+00
 -1       363 1.00000E+01 6.32227E+00 7.46913E-01
 -1       364 1.00000E+01 5.48894E+00 7.46913E-01
 -1       365 1.00000E+01 5.09089E+00 1.59084E+00
 -1       366 1.00000E+01 7.92369E+00 6.94135E-01
 -1       367 1.00000E+01 7.09036E+00 6.94135E-01
 -1       368 1.00000E+01 6.74596E+00 1.44105E+00
 -1       369 1.00000E+01 8.14698E+00 1.30418E+00
 -1       370 1.00000E+01 2.07186E+00 9.30581E+00
 -1       371 1.00000E+01 2.90520E+00 9.30581E+00
 -1       372 1.00000E+01 1.84857E+00 8.69577E+00
 -1       373 1.00000E+01 3.77127E+00 9.15901E+00
 -1       374 1.00000E+01 4.60461E+00 9.15901E+00
 -1       375 1.00000E+01 3.34314E+00 8.46482E+00
 -1       376 1.00000E+01 5.48894E+00 9.25309E+00
 -1       377 1.00000E+01 6.32227E+00 9.25309E+00
 -1       378 1.00000E+01 5.09354E+00 8.41209E+00
 -1       379 1.00000E+01 7.09081E+00 9.30678E+00
 -1       380 1.00000E+01 7.92415E+00 9.30678E+00
 -1       381 1.00000E+01 6.74642E+00 8.55986E+00
 -1       382 1.00000E+01 8.14744E+00 8.69673E+00
 -1       383 1.00000E+01 6.56536E-01 2.04237E+00
 -1       384 1.00000E+01 6.56536E-01 2.87570E+00
 -1       385 1.00000E+01 1.26234E+00 1.81484E+00
 -1       386 1.00000E+01 6.75817E-01 3.69664E+00
 -1       387 1.00000E+01 6.75817E-01 4.52998E+00
 -1       388 1.00000E+01 1.33235E+00 3.23901E+00
 -1       389 1.00000E+01 7.54213E-01 5.40755E+00
 -1       390 1.00000E+01 7.54213E-01 6.24089E+00
 -1       391 1.00000E+01 1.43003E+00 4.93753E+00
 -1       392 1.00000E+01 6.84747E-01 7.09775E+00
 -1       393 1.00000E+01 6.84747E-01 7.93108E+00
 -1       394 1.00000E+01 1.43896E+00 6.67197E+00
 -1       395 1.00000E+01 1.29479E+00 8.15437E+00
 -1       396 1.00000E+01 7.78200E+00 7.20929E+00
 -1       397 1.00000E+01 7.76596E+00 6.37949E+00
 -1       398 1.00000E+01 7.03277E+00 5.98441E+00
 -1       399 1.00000E+01 7.82344E+00 5.43825E+00
 -1       400 1.00000E+01 7.82420E+00 4.60910E+00
 -1       401 1.00000E+01 2.09367E+00 4.23231E+00
 -1       402 1.00000E+01 2.17207E+00 5.10988E+00
 -1       403 1.00000E+01 2.99472E+00 5.11507E+00
 -1       404 1.00000E+01 2.33107E+00 5.82029E+00
 -1       405 1.00000E+01 2.16625E+00 6.47136E+00
 -1       406 1.00000E+01 2.09678E+00 7.32823E+00
 -1       407 1.00000E+01 2.98889E+00 6.47655E+00
 -1       408 1.00000E+01 5.68907E+00 2.13636E+00
 -1       409 1.00000E+01 4.80208E+00 2.23337E+00
 -1       410 1.00000E+01 7.24087E+00 2.23896E+00
 -1       411 1.00000E+01 6.47278E+00 2.29174E+00
 -1       412 1.00000E+01 6.18397E+00 2.93427E+00
 -1       413 1.00000E+01 7.24512E+00 7.76960E+00
 -1       414 1.00000E+01 6.47658E+00 7.71591E+00
 -1       415 1.00000E+01 5.74014E+00 7.85805E+00
 -1       416 1.00000E+01 6.23885E+00 7.06779E+00
 -1       417 1.00000E+01 4.85581E+00 7.76397E+00
 -1       418 1.00000E+01 3.51855E+00 2.25996E+00
 -1       419 1.00000E+01 2.64600E+00 2.09419E+00
 -1       420 1.00000E+01 2.07313E+00 2.62507E+00
 -1       421 1.00000E+01 1.88594E+00 1.88719E+00
 -1       422 1.00000E+01 7.76291E+00 3.63234E+00
 -1       423 1.00000E+01 7.77820E+00 2.79836E+00
 -1       424 1.00000E+01 8.05138E+00 1.94767E+00
 -1       425 1.00000E+01 2.65057E+00 7.86962E+00
 -1       426 1.00000E+01 3.51664E+00 7.72282E+00
 -1       427 1.00000E+01 1.92328E+00 8.07023E+00
 -1       428 1.00000E+01 8.05184E+00 8.05324E+00
 -1       429 1.00000E+01 6.32258E+00 6.37949E+00
 -1       430 1.00000E+01 6.38006E+00 5.43825E+00
 -1       431 1.00000E+01 5.58614E+00 6.52164E+00
 -1       432 1.00000E+01 5.65400E+00 5.02777E+00
 -1       433 1.00000E+01 6.36419E+00 4.63268E+00
 -1       434 1.00000E+01 6.30291E+00 3.65593E+00
 -1       435 1.00000E+01 7.02897E+00 4.06641E+00
 -1       436 1.00000E+01 4.96025E+00 5.42129E+00
 -1       437 1.00000E+01 4.94438E+00 4.61573E+00
 -1       438 1.00000E+01 4.94818E+00 6.25000E+00
 -1       439 1.00000E+01 4.23857E+00 5.83796E+00
 -1       440 1.00000E+01 4.86445E+00 6.93830E+00
 -1       441 1.00000E+01 4.23217E+00 4.20508E+00
 -1       442 1.00000E+01 4.92591E+00 3.81155E+00
 -1       443 1.00000E+01 4.80698E+00 3.08990E+00
 -1       444 1.00000E+01 5.51919E+00 3.50055E+00
 -1       445 1.00000E+01 3.69011E+00 6.24607E+00
 -1       446 1.00000E+01 3.70218E+00 5.41737E+00
 -1       447 1.00000E+01 3.54317E+00 4.70696E+00
 -1       448 1.00000E+01 3.52471E+00 3.90278E+00
 -1       449 1.00000E+01 3.52528E+00 6.89714E+00
 -1       450 1.00000E+01 4.21786E+00 7.49234E+00
 -1       451 1.00000E+01 2.83445E+00 3.61837E+00
 -1       452 1.00000E+01 3.52345E+00 3.11649E+00
 -1       453 1.00000E+01 4.20880E+00 2.54438E+00
 -1       454 1.00000E+01 2.09241E+00 3.44601E+00
 -1       455 8.55662E+00-2.77556E-16 5.83333E+00
 -1       456 1.50843E+00-2.77556E-16 5.81511E+00
 -1       457 5.97788E+00-2.77556E-16 1.49383E+00
 -1       458 5.97788E+00-2.77556E-16 8.50617E+00
 -1       459 2.45880E+00-2.77556E-16 1.35630E+00
 -1       460 8.58871E+00-2.77556E-16 2.50706E+00
 -1       461 2.47706E+00-2.77556E-16 8.61162E+00
 -1       462 8.58871E+00-2.77556E-16 7.49294E+00
 -1       463 6.97529E+00-2.77556E-16 6.92565E+00
 -1       464 7.09026E+00-2.77556E-16 5.04316E+00
 -1       465 5.66987E+00-2.77556E-16 5.83333E+00
 -1       466 5.63813E+00-2.77556E-16 4.22220E+00
 -1       467 4.25064E+00-2.77556E-16 5.00926E+00
 -1       468 4.22650E+00-2.77556E-16 6.66667E+00
 -1       469 4.21370E+00-2.77556E-16 3.40091E+00
 -1       470 2.83571E+00-2.77556E-16 4.40466E+00
 -1       471 8.55814E+00-2.77556E-16 4.17504E+00
 -1       472 4.20391E+00-2.77556E-16 1.68785E+00
 -1       473 4.20921E+00-2.77556E-16 8.31801E+00
 -1       474 6.96768E+00-2.77556E-16 3.08965E+00
 -1       475 7.51496E+00-2.77556E-16 8.61355E+00
 -1       476 7.51405E+00-2.77556E-16 1.38827E+00
 -1       477 1.36949E+00-2.77556E-16 7.52883E+00
 -1       478 1.31307E+00-2.77556E-16 2.41807E+00
 -1       479 1.35163E+00-2.77556E-16 4.05995E+00
 -1       480 3.15372E+00-2.77556E-16 5.82548E+00
 -1       481 2.83319E+00-2.77556E-16 2.83208E+00
 -1       482 2.82407E+00-2.77556E-16 7.12762E+00
 -1       483 5.50240E+00-2.77556E-16 7.20994E+00
 -1       484 5.40026E+00-2.77556E-16 2.77889E+00
 -1       485 8.77991E+00-2.77556E-16 8.77991E+00
 -1       486 1.22008E+00-2.77556E-16 8.77991E+00
 -1       487 8.77991E+00-2.77556E-16 1.22008E+00
 -1       488 1.21160E+00-2.77556E-16 1.21160E+00
 -1       489 9.38996E+00-2.77556E-16 1.44338E+00
 -1       490 9.38996E+00-2.77556E-16 6.10042E-01
 -1       491 8.55662E+00-2.77556E-16 6.10042E-01
 -1       492 9.38996E+00-2.77556E-16 9.38996E+00
 -1       493 9.38996E+00-2.77556E-16 8.55662E+00
 -1       494 8.55662E+00-2.77556E-16 9.38996E+00
 -1       495 1.43913E+00-2.77556E-16 6.05799E-01
 -1       496 6.05799E-01-2.77556E-16 6.05799E-01
 -1       497 6.05799E-01-2.77556E-16 1.43913E+00
 -1       498 6.10042E-01-2.77556E-16 9.38996E+00
 -1       499 1.44338E+00-2.77556E-16 9.38996E+00
 -1       500 6.10042E-01-2.77556E-16 8.55662E+00
 -1       501 9.29436E+00-2.77556E-16 2.92020E+00
 -1       502 9.29436E+00-2.77556E-16 2.08686E+00
 -1       503 8.68431E+00-2.77556E-16 1.86357E+00
 -1       504 9.27907E+00-2.77556E-16 4.58752E+00
 -1       505 9.27907E+00-2.77556E-16 3.75419E+00
 -1       506 8.57343E+00-2.77556E-16 3.34105E+00
 -1       507 9.27831E+00-2.77556E-16 6.25000E+00
 -1       508 9.27831E+00-2.77556E-16 5.41667E+00
 -1       509 8.55738E+00-2.77556E-16 5.00419E+00
 -1       510 9.29436E+00-2.77556E-16 7.91314E+00
 -1       511 9.29436E+00-2.77556E-16 7.07980E+00
 -1       512 8.57267E+00-2.77556E-16 6.66314E+00
 -1       513 8.68431E+00-2.77556E-16 8.13643E+00
 -1       514 2.89607E+00-2.77556E-16 6.78151E-01
 -1       515 2.06273E+00-2.77556E-16 6.78151E-01
 -1       516 1.83520E+00-2.77556E-16 1.28395E+00
 -1       517 4.60195E+00-2.77556E-16 8.43926E-01
 -1       518 3.76862E+00-2.77556E-16 8.43926E-01
 -1       519 3.33135E+00-2.77556E-16 1.52208E+00
 -1       520 6.32227E+00-2.77556E-16 7.46913E-01
 -1       521 5.48894E+00-2.77556E-16 7.46913E-01
 -1       522 5.09089E+00-2.77556E-16 1.59084E+00
 -1       523 7.92369E+00-2.77556E-16 6.94135E-01
 -1       524 7.09036E+00-2.77556E-16 6.94135E-01
 -1       525 6.74596E+00-2.77556E-16 1.44105E+00
 -1       526 8.14698E+00-2.77556E-16 1.30418E+00
 -1       527 2.07186E+00-2.77556E-16 9.30581E+00
 -1       528 2.90520E+00-2.77556E-16 9.30581E+00
 -1       529 1.84857E+00-2.77556E-16 8.69577E+00
 -1       530 3.77127E+00-2.77556E-16 9.15901E+00
 -1       531 4.60461E+00-2.77556E-16 9.15901E+00
 -1       532 3.34314E+00-2.77556E-16 8.46482E+00
 -1       533 5.48894E+00-2.77556E-16 9.25309E+00
 -1       534 6.32227E+00-2.77556E-16 9.25309E+00
 -1       535 5.09354E+00-2.77556E-16 8.41209E+00
 -1       536 7.09081E+00-2.77556E-16 9.30678E+00
 -1       537 7.92415E+00-2.77556E-16 9.30678E+00
 -1       538 6.74642E+00-2.77556E-16 8.55986E+00
 -1       539 8.14744E+00-2.77556E-16 8.69673E+00
 -1       540 6.56536E-01-2.77556E-16 2.04237E+00
 -1       541 6.56536E-01-2.77556E-16 2.87570E+00
 -1       542 1.26234E+00-2.77556E-16 1.81484E+00
 -1       543 6.75817E-01-2.77556E-16 3.69664E+00
 -1       544 6.75817E-01-2.77556E-16 4.52998E+00
 -1       545 1.33235E+00-2.77556E-16 3.23901E+00
 -1       546 7.54213E-01-2.77556E-16 5.40755E+00
 -1       547 7.54213E-01-2.77556E-16 6.24089E+00
 -1       548 1.43003E+00-2.77556E-16 4.93753E+00
 -1       549 6.84747E-01-2.77556E-16 7.09775E+00
 -1       550 6.84747E-01-2.77556E-16 7.93108E+00
 -1       551 1.43896E+00-2.77556E-16 6.67197E+00
 -1       552 1.29479E+00-2.77556E-16 8.15437E+00
 -1       553 7.78200E+00-2.77556E-16 7.20929E+00
 -1       554 7.76596E+00-2.77556E-16 6.37949E+00
 -1       555 7.03277E+00-2.77556E-16 5.98441E+00
 -1       556 7.82344E+00-2.77556E-16 5.43825E+00
 -1       557 7.82420E+00-2.77556E-16 4.60910E+00
 -1       558 2.09367E+00-2.77556E-16 4.23231E+00
 -1       559 2.17207E+00-2.77556E-16 5.10988E+00
 -1       560 2.99472E+00-2.77556E-16 5.11507E+00
 -1       561 2.33107E+00-2.77556E-16 5.82029E+00
 -1       562 2.16625E+00-2.77556E-16 6.47136E+00
 -1       563 2.09678E+00-2.77556E-16 7.32823E+00
 -1       564 2.98889E+00-2.77556E-16 6.47655E+00
 -1       565 5.68907E+00-2.77556E-16 2.13636E+00
 -1       566 4.80208E+00-2.77556E-16 2.23337E+00
 -1       567 7.24087E+00-2.77556E-16 2.23896E+00
 -1       568 6.47278E+00-2.77556E-16 2.29174E+00
 -1       569 6.18397E+00-2.77556E-16 2.93427E+00
 -1       570 7.24512E+00-2.77556E-16 7.76960E+00
 -1       571 6.47658E+00-2.77556E-16 7.71591E+00
 -1       572 5.74014E+00-2.77556E-16 7.85805E+00
 -1       573 6.23885E+00-2.77556E-16 7.06779E+00
 -1       574 4.85581E+00-2.77556E-16 7.76397E+00
 -1       575 3.51855E+00-2.77556E-16 2.25996E+00
 -1       576 2.64600E+00-2.77556E-16 2.09419E+00
 -1       577 2.07313E+00-2.77556E-16 2.62507E+00
 -1       578 1.88594E+00-2.77556E-16 1.88719E+00
 -1       579 7.76291E+00-2.77556E-16 3.63234E+00
 -1       580 7.77820E+00-2.77556E-16 2.79836E+00
 -1       581 8.05138E+00-2.77556E-16 1.94767E+00
 -1       582 2.65057E+00-2.77556E-16 7.86962E+00
 -1       583 3.51664E+00-2.77556E-16 7.72282E+00
 -1       584 1.92328E+00-2.77556E-16 8.07023E+00
 -1       585 8.05184E+00-2.77556E-16 8.05324E+00
 -1       586 6.32258E+00-2.77556E-16 6.37949E+00
 -1       587 6.38006E+00-2.77556E-16 5.43825E+00
 -1       588 5.58614E+00-2.77556E-16 6.52164E+00
 -1       589 5.65400E+00-2.77556E-16 5.02777E+00
 -1       590 6.36419E+00-2.77556E-16 4.63268E+00
 -1       591 6.30291E+00-2.77556E-16 3.65593E+00
 -1       592 7.02897E+00-2.77556E-16 4.06641E+00
 -1       593 4.96025E+00-2.77556E-16 5.42129E+00
 -1       594 4.94438E+00-2.77556E-16 4.61573E+00
 -1       595 4.94818E+00-2.77556E-16 6.25000E+00
 -1       596 4.23857E+00-2.77556E-16 5.83796E+00
 -1       597 4.86445E+00-2.77556E-16 6.93830E+00
 -1       598 4.23217E+00-2.77556E-16 4.20508E+00
 -1       599 4.92591E+00-2.77556E-16 3.81155E+00
 -1       600 4.80698E+00-2.77556E-16 3.08990E+00
 -1       601 5.51919E+00-2.77556E-16 3.50055E+00
 -1       602 3.69011E+00-2.77556E-16 6.24607E+00
 -1       603 3.70218E+00-2.77556E-16 5.41737E+00
 -1       604 3.54317E+00-2.77556E-16 4.70696E+00
 -1       605 3.52471E+00-2.77556E-16 3.90278E+00
 -1       606 3.52528E+00-2.77556E-16 6.89714E+00
 -1       607 4.21786E+00-2.77556E-16 7.49234E+00
 -1       608 2.83445E+00-2.77556E-16 3.61837E+00
 -1       609 3.52345E+00-2.77556E-16 3.11649E+00
 -1       610 4.20880E+00-2.77556E-16 2.54438E+00
 -1       611 2.09241E+00-2.77556E-16 3.44601E+00
 -1       612-2.77556E-16 1.44338E+00 5.83333E+00
 -1       613 1.80411E-15 8.49157E+00 5.81511E+00
 -1       614 1.11022E-15 4.02212E+00 1.49383E+00
 -1       615 1.11022E-15 4.02212E+00 8.50617E+00
 -1       616 1.11022E-15 7.54120E+00 1.35630E+00
 -1       617 1.11022E-15 7.52294E+00 8.61162E+00
 -1       618-2.77556E-16 1.41129E+00 2.50706E+00
 -1       619-2.77556E-16 1.41129E+00 7.49294E+00
 -1       620 1.11022E-15 3.02471E+00 6.92565E+00
 -1       621 1.11022E-15 2.90974E+00 5.04316E+00
 -1       622 1.11022E-15 4.33013E+00 5.83333E+00
 -1       623 1.11022E-15 4.36187E+00 4.22220E+00
 -1       624 1.11022E-15 5.74936E+00 5.00926E+00
 -1       625 1.11022E-15 5.77350E+00 6.66667E+00
 -1       626 1.11022E-15 5.78630E+00 3.40091E+00
 -1       627 1.11022E-15 7.16429E+00 4.40466E+00
 -1       628 1.11022E-15 5.79079E+00 8.31801E+00
 -1       629 1.11022E-15 5.79609E+00 1.68785E+00
 -1       630-2.77556E-16 1.44186E+00 4.17504E+00
 -1       631 1.11022E-15 3.03232E+00 3.08965E+00
 -1       632-2.77556E-16 2.48504E+00 8.61355E+00
 -1       633 1.80411E-15 8.63051E+00 7.52883E+00
 -1       634-2.77556E-16 2.48595E+00 1.38827E+00
 -1       635 1.80411E-15 8.68693E+00 2.41807E+00
 -1       636 1.80411E-15 8.64837E+00 4.05995E+00
 -1       637 1.11022E-15 6.84628E+00 5.82548E+00
 -1       638 1.11022E-15 7.16681E+00 2.83208E+00
 -1       639 1.11022E-15 7.17593E+00 7.12762E+00
 -1       640 1.11022E-15 4.49760E+00 7.20994E+00
 -1       641 1.11022E-15 4.59974E+00 2.77889E+00
 -1       642-2.77556E-16 1.22008E+00 8.77991E+00
 -1       643-2.77556E-16 1.22008E+00 1.22008E+00
 -1       644 1.80411E-15 8.77991E+00 8.77991E+00
 -1       645 1.80411E-15 8.78840E+00 1.21160E+00
 -1       646 1.80411E-15 9.39420E+00 6.05799E-01
 -1       647 1.80411E-15 9.39420E+00 1.43913E+00
 -1       648 1.80411E-15 8.56087E+00 6.05799E-01
 -1       649 1.80411E-15 9.38996E+00 8.55662E+00
 -1       650 1.80411E-15 9.38996E+00 9.38996E+00
 -1       651 1.80411E-15 8.55662E+00 9.38996E+00
 -1       652-2.77556E-16 6.10042E-01 1.44338E+00
 -1       653-2.77556E-16 6.10042E-01 6.10042E-01
 -1       654-2.77556E-16 1.44338E+00 6.10042E-01
 -1       655-2.77556E-16 6.10042E-01 9.38996E+00
 -1       656-2.77556E-16 6.10042E-01 8.55662E+00
 -1       657-2.77556E-16 1.44338E+00 9.38996E+00
 -1       658 1.80411E-15 9.34346E+00 2.04237E+00
 -1       659 1.80411E-15 9.34346E+00 2.87570E+00
 -1       660 1.80411E-15 8.73766E+00 1.81484E+00
 -1       661 1.80411E-15 9.32418E+00 3.69664E+00
 -1       662 1.80411E-15 9.32418E+00 4.52998E+00
 -1       663 1.80411E-15 8.66765E+00 3.23901E+00
 -1       664 1.80411E-15 9.24579E+00 5.40755E+00
 -1       665 1.80411E-15 9.24579E+00 6.24089E+00
 -1       666 1.80411E-15 8.56997E+00 4.93753E+00
 -1       667 1.80411E-15 9.31525E+00 7.09775E+00
 -1       668 1.80411E-15 9.31525E+00 7.93108E+00
 -1       669 1.80411E-15 8.56104E+00 6.67197E+00
 -1       670 1.80411E-15 8.70521E+00 8.15437E+00
 -1       671-2.77556E-16 7.05643E-01 2.92020E+00
 -1       672-2.77556E-16 7.05643E-01 2.08686E+00
 -1       673-2.77556E-16 1.31569E+00 1.86357E+00
 -1       674-2.77556E-16 7.20930E-01 4.58752E+00
 -1       675-2.77556E-16 7.20930E-01 3.75419E+00
 -1       676-2.77556E-16 1.42657E+00 3.34105E+00
 -1       677-2.77556E-16 7.21688E-01 6.25000E+00
 -1       678-2.77556E-16 7.21688E-01 5.41667E+00
 -1       679-2.77556E-16 1.44262E+00 5.00419E+00
 -1       680-2.77556E-16 7.05643E-01 7.91314E+00
 -1       681-2.77556E-16 7.05643E-01 7.07980E+00
 -1       682-2.77556E-16 1.42733E+00 6.66314E+00
 -1       683-2.77556E-16 1.31569E+00 8.13643E+00
 -1       684 1.11022E-15 7.10393E+00 6.78151E-01
 -1       685 1.11022E-15 7.93727E+00 6.78151E-01
 -1       686 1.11022E-15 8.16480E+00 1.28395E+00
 -1       687 1.11022E-15 5.39805E+00 8.43926E-01
 -1       688 1.11022E-15 6.23138E+00 8.43926E-01
 -1       689 1.11022E-15 6.66865E+00 1.52208E+00
 -1       690 1.11022E-15 3.67773E+00 7.46913E-01
 -1       691 1.11022E-15 4.51106E+00 7.46913E-01
 -1       692 1.11022E-15 4.90911E+00 1.59084E+00
 -1       693-2.77556E-16 2.07631E+00 6.94135E-01
 -1       694 1.11022E-15 2.90964E+00 6.94135E-01
 -1       695 1.11022E-15 3.25404E+00 1.44105E+00
 -1       696-2.77556E-16 1.85302E+00 1.30418E+00
 -1       697 1.11022E-15 7.92814E+00 9.30581E+00
 -1       698 1.11022E-15 7.09480E+00 9.30581E+00
 -1       699 1.11022E-15 8.15143E+00 8.69577E+00
 -1       700 1.11022E-15 6.22873E+00 9.15901E+00
 -1       701 1.11022E-15 5.39539E+00 9.15901E+00
 -1       702 1.11022E-15 6.65686E+00 8.46482E+00
 -1       703 1.11022E-15 4.51106E+00 9.25309E+00
 -1       704 1.11022E-15 3.67773E+00 9.25309E+00
 -1       705 1.11022E-15 4.90646E+00 8.41209E+00
 -1       706 1.11022E-15 2.90919E+00 9.30678E+00
 -1       707-2.77556E-16 2.07585E+00 9.30678E+00
 -1       708 1.11022E-15 3.25358E+00 8.55986E+00
 -1       709-2.77556E-16 1.85256E+00 8.69673E+00
 -1       710-2.77556E-16 2.21800E+00 7.20929E+00
 -1       711-2.77556E-16 2.23404E+00 6.37949E+00
 -1       712 1.11022E-15 2.96723E+00 5.98441E+00
 -1       713-2.77556E-16 2.17656E+00 5.43825E+00
 -1       714-2.77556E-16 2.17580E+00 4.60910E+00
 -1       715 1.11022E-15 7.90633E+00 4.23231E+00
 -1       716 1.11022E-15 7.82793E+00 5.10988E+00
 -1       717 1.11022E-15 7.00528E+00 5.11507E+00
 -1       718 1.11022E-15 7.66893E+00 5.82029E+00
 -1       719 1.11022E-15 7.83375E+00 6.47136E+00
 -1       720 1.11022E-15 7.90322E+00 7.32823E+00
 -1       721 1.11022E-15 7.01111E+00 6.47655E+00
 -1       722 1.11022E-15 4.31093E+00 2.13636E+00
 -1       723 1.11022E-15 5.19792E+00 2.23337E+00
 -1       724-2.77556E-16 2.75913E+00 2.23896E+00
 -1       725 1.11022E-15 3.52722E+00 2.29174E+00
 -1       726 1.11022E-15 3.81603E+00 2.93427E+00
 -1       727-2.77556E-16 2.75488E+00 7.76960E+00
 -1       728 1.11022E-15 3.52342E+00 7.71591E+00
 -1       729 1.11022E-15 4.25986E+00 7.85805E+00
 -1       730 1.11022E-15 3.76115E+00 7.06779E+00
 -1       731 1.11022E-15 5.14419E+00 7.76397E+00
 -1       732 1.11022E-15 6.48145E+00 2.25996E+00
 -1       733 1.11022E-15 7.35400E+00 2.09419E+00
 -1       734 1.11022E-15 7.92687E+00 2.62507E+00
 -1       735 1.11022E-15 8.11406E+00 1.88719E+00
 -1       736 1.11022E-15 7.34943E+00 7.86962E+00
 -1       737 1.11022E-15 6.48336E+00 7.72282E+00
 -1       738 1.11022E-15 8.07672E+00 8.07023E+00
 -1       739-2.77556E-16 2.23709E+00 3.63234E+00
 -1       740-2.77556E-16 2.22180E+00 2.79836E+00
 -1       741-2.77556E-16 1.94862E+00 1.94767E+00
 -1       742-2.77556E-16 1.94816E+00 8.05324E+00
 -1       743 1.11022E-15 3.67742E+00 6.37949E+00
 -1       744 1.11022E-15 3.61994E+00 5.43825E+00
 -1       745 1.11022E-15 4.41386E+00 6.52164E+00
 -1       746 1.11022E-15 4.34600E+00 5.02777E+00
 -1       747 1.11022E-15 3.63581E+00 4.63268E+00
 -1       748 1.11022E-15 3.69709E+00 3.65593E+00
 -1       749 1.11022E-15 2.97103E+00 4.06641E+00
 -1       750 1.11022E-15 5.03975E+00 5.42129E+00
 -1       751 1.11022E-15 5.05562E+00 4.61573E+00
 -1       752 1.11022E-15 5.05182E+00 6.25000E+00
 -1       753 1.11022E-15 5.76143E+00 5.83796E+00
 -1       754 1.11022E-15 5.13555E+00 6.93830E+00
 -1       755 1.11022E-15 5.76783E+00 4.20508E+00
 -1       756 1.11022E-15 5.07409E+00 3.81155E+00
 -1       757 1.11022E-15 5.19302E+00 3.08990E+00
 -1       758 1.11022E-15 4.48081E+00 3.50055E+00
 -1       759 1.11022E-15 6.30989E+00 6.24607E+00
 -1       760 1.11022E-15 6.29782E+00 5.41737E+00
 -1       761 1.11022E-15 6.45683E+00 4.70696E+00
 -1       762 1.11022E-15 6.47529E+00 3.90278E+00
 -1       763 1.11022E-15 6.47472E+00 6.89714E+00
 -1       764 1.11022E-15 5.78214E+00 7.49234E+00
 -1       765 1.11022E-15 7.16555E+00 3.61837E+00
 -1       766 1.11022E-15 6.47655E+00 3.11649E+00
 -1       767 1.11022E-15 5.79120E+00 2.54438E+00
 -1       768 1.11022E-15 7.90759E+00 3.44601E+00
 -1       769 1.50843E+00 4.18489E+00 1.00000E+01
 -1       770 5.97788E+00 1.49383E+00 1.00000E+01
 -1       771 8.56449E+00 5.81971E+00 1.00000E+01
 -1       772 4.20176E+00 8.32485E+00 1.00000E+01
 -1       773 1.51308E+00 7.37626E+00 1.00000E+01
 -1       774 7.55505E+00 8.57025E+00 1.00000E+01
 -1       775 8.58871E+00 2.50706E+00 1.00000E+01
 -1       776 2.47706E+00 1.38838E+00 1.00000E+01
 -1       777 8.56328E+00 4.16557E+00 1.00000E+01
 -1       778 7.11567E+00 4.99755E+00 1.00000E+01
 -1       779 6.97780E+00 6.91510E+00 1.00000E+01
 -1       780 5.66987E+00 5.83333E+00 1.00000E+01
 -1       781 5.64236E+00 4.21460E+00 1.00000E+01
 -1       782 4.25134E+00 5.00799E+00 1.00000E+01
 -1       783 4.22650E+00 3.33333E+00 1.00000E+01
 -1       784 4.22392E+00 6.57440E+00 1.00000E+01
 -1       785 2.72309E+00 5.80033E+00 1.00000E+01
 -1       786 5.98395E+00 8.50336E+00 1.00000E+01
 -1       787 4.20921E+00 1.68199E+00 1.00000E+01
 -1       788 6.97265E+00 3.08069E+00 1.00000E+01
 -1       789 2.54404E+00 8.60959E+00 1.00000E+01
 -1       790 1.36949E+00 2.47117E+00 1.00000E+01
 -1       791 8.63410E+00 7.48676E+00 1.00000E+01
 -1       792 7.51464E+00 1.38721E+00 1.00000E+01
 -1       793 3.13134E+00 4.21897E+00 1.00000E+01
 -1       794 1.14892E+00 5.80563E+00 1.00000E+01
 -1       795 3.04118E+00 7.33708E+00 1.00000E+01
 -1       796 2.82034E+00 2.87979E+00 1.00000E+01
 -1       797 5.47873E+00 7.21521E+00 1.00000E+01
 -1       798 5.50240E+00 2.79006E+00 1.00000E+01
 -1       799 1.22008E+00 8.77991E+00 1.00000E+01
 -1       800 8.77991E+00 8.77991E+00 1.00000E+01
 -1       801 8.77991E+00 1.22008E+00 1.00000E+01
 -1       802 1.22008E+00 1.22008E+00 1.00000E+01
 -1       803 6.10042E-01 9.38996E+00 1.00000E+01
 -1       804 1.44338E+00 9.38996E+00 1.00000E+01
 -1       805 6.10042E-01 8.55662E+00 1.00000E+01
 -1       806 8.55662E+00 9.38996E+00 1.00000E+01
 -1       807 9.38996E+00 9.38996E+00 1.00000E+01
 -1       808 9.38996E+00 8.55662E+00 1.00000E+01
 -1       809 9.38996E+00 1.44338E+00 1.00000E+01
 -1       810 9.38996E+00 6.10042E-01 1.00000E+01
 -1       811 8.55662E+00 6.10042E-01 1.00000E+01
 -1       812 1.44338E+00 6.10042E-01 1.00000E+01
 -1       813 6.10042E-01 6.10042E-01 1.00000E+01
 -1       814 6.10042E-01 1.44338E+00 1.00000E+01
 -1       815 7.11086E+00 9.28512E+00 1.00000E+01
 -1       816 7.94419E+00 9.28512E+00 1.00000E+01
 -1       817 8.16748E+00 8.67508E+00 1.00000E+01
 -1       818 5.49197E+00 9.25168E+00 1.00000E+01
 -1       819 6.32531E+00 9.25168E+00 1.00000E+01
 -1       820 6.76950E+00 8.53680E+00 1.00000E+01
 -1       821 3.76755E+00 9.16243E+00 1.00000E+01
 -1       822 4.60088E+00 9.16243E+00 1.00000E+01
 -1       823 5.09285E+00 8.41410E+00 1.00000E+01
 -1       824 2.10536E+00 9.30479E+00 1.00000E+01
 -1       825 2.93869E+00 9.30479E+00 1.00000E+01
 -1       826 3.37290E+00 8.46722E+00 1.00000E+01
 -1       827 1.88206E+00 8.69475E+00 1.00000E+01
 -1       828 9.29436E+00 2.92020E+00 1.00000E+01
 -1       829 9.29436E+00 2.08686E+00 1.00000E+01
 -1       830 8.68431E+00 1.86357E+00 1.00000E+01
 -1       831 9.28164E+00 4.58279E+00 1.00000E+01
 -1       832 9.28164E+00 3.74945E+00 1.00000E+01
 -1       833 8.57600E+00 3.33632E+00 1.00000E+01
 -1       834 9.28224E+00 6.24319E+00 1.00000E+01
 -1       835 9.28224E+00 5.40986E+00 1.00000E+01
 -1       836 8.56389E+00 4.99264E+00 1.00000E+01
 -1       837 9.31705E+00 7.91005E+00 1.00000E+01
 -1       838 9.31705E+00 7.07672E+00 1.00000E+01
 -1       839 8.59929E+00 6.65324E+00 1.00000E+01
 -1       840 8.70701E+00 8.13334E+00 1.00000E+01
 -1       841 2.90520E+00 6.94190E-01 1.00000E+01
 -1       842 2.07186E+00 6.94190E-01 1.00000E+01
 -1       843 1.84857E+00 1.30423E+00 1.00000E+01
 -1       844 4.60461E+00 8.40994E-01 1.00000E+01
 -1       845 3.77127E+00 8.40994E-01 1.00000E+01
 -1       846 3.34314E+00 1.53518E+00 1.00000E+01
 -1       847 6.32227E+00 7.46913E-01 1.00000E+01
 -1       848 5.48894E+00 7.46913E-01 1.00000E+01
 -1       849 5.09354E+00 1.58791E+00 1.00000E+01
 -1       850 7.92399E+00 6.93603E-01 1.00000E+01
 -1       851 7.09066E+00 6.93603E-01 1.00000E+01
 -1       852 6.74626E+00 1.44052E+00 1.00000E+01
 -1       853 8.14728E+00 1.30364E+00 1.00000E+01
 -1       854 7.56540E-01 7.02146E+00 1.00000E+01
 -1       855 7.56540E-01 7.85480E+00 1.00000E+01
 -1       856 1.36658E+00 8.07809E+00 1.00000E+01
 -1       857 5.74460E-01 5.40281E+00 1.00000E+01
 -1       858 5.74460E-01 6.23615E+00 1.00000E+01
 -1       859 1.33100E+00 6.59094E+00 1.00000E+01
 -1       860 7.54213E-01 3.75911E+00 1.00000E+01
 -1       861 7.54213E-01 4.59245E+00 1.00000E+01
 -1       862 1.32867E+00 4.99526E+00 1.00000E+01
 -1       863 6.84747E-01 2.06892E+00 1.00000E+01
 -1       864 6.84747E-01 2.90225E+00 1.00000E+01
 -1       865 1.43896E+00 3.32803E+00 1.00000E+01
 -1       866 1.29479E+00 1.84563E+00 1.00000E+01
 -1       867 2.31988E+00 4.20193E+00 1.00000E+01
 -1       868 2.92721E+00 5.00965E+00 1.00000E+01
 -1       869 2.11576E+00 4.99261E+00 1.00000E+01
 -1       870 1.93601E+00 5.80298E+00 1.00000E+01
 -1       871 2.09492E+00 2.67548E+00 1.00000E+01
 -1       872 2.16438E+00 3.53234E+00 1.00000E+01
 -1       873 2.97584E+00 3.54938E+00 1.00000E+01
 -1       874 5.74014E+00 2.14195E+00 1.00000E+01
 -1       875 4.85581E+00 2.23603E+00 1.00000E+01
 -1       876 7.24365E+00 2.23395E+00 1.00000E+01
 -1       877 6.47527E+00 2.28726E+00 1.00000E+01
 -1       878 6.23753E+00 2.93538E+00 1.00000E+01
 -1       879 7.84008E+00 5.40863E+00 1.00000E+01
 -1       880 7.83948E+00 4.58156E+00 1.00000E+01
 -1       881 7.77115E+00 6.36740E+00 1.00000E+01
 -1       882 7.04674E+00 5.95632E+00 1.00000E+01
 -1       883 7.80595E+00 7.20093E+00 1.00000E+01
 -1       884 3.62147E+00 7.83097E+00 1.00000E+01
 -1       885 3.63255E+00 6.95574E+00 1.00000E+01
 -1       886 4.21284E+00 7.44962E+00 1.00000E+01
 -1       887 4.85132E+00 6.89480E+00 1.00000E+01
 -1       888 4.84024E+00 7.77003E+00 1.00000E+01
 -1       889 5.73134E+00 7.85928E+00 1.00000E+01
 -1       890 2.79261E+00 7.97334E+00 1.00000E+01
 -1       891 2.11809E+00 6.58829E+00 1.00000E+01
 -1       892 2.88214E+00 6.56870E+00 1.00000E+01
 -1       893 2.27713E+00 7.35667E+00 1.00000E+01
 -1       894 2.02856E+00 7.99292E+00 1.00000E+01
 -1       895 6.48088E+00 7.70923E+00 1.00000E+01
 -1       896 7.26643E+00 7.74267E+00 1.00000E+01
 -1       897 8.09457E+00 8.02851E+00 1.00000E+01
 -1       898 7.76797E+00 3.62313E+00 1.00000E+01
 -1       899 7.78068E+00 2.79388E+00 1.00000E+01
 -1       900 8.05168E+00 1.94713E+00 1.00000E+01
 -1       901 3.51478E+00 2.28089E+00 1.00000E+01
 -1       902 2.64870E+00 2.13408E+00 1.00000E+01
 -1       903 1.92328E+00 1.92977E+00 1.00000E+01
 -1       904 7.04416E+00 4.03912E+00 1.00000E+01
 -1       905 6.32384E+00 6.37421E+00 1.00000E+01
 -1       906 6.39277E+00 5.41544E+00 1.00000E+01
 -1       907 5.65612E+00 5.02397E+00 1.00000E+01
 -1       908 6.37902E+00 4.60607E+00 1.00000E+01
 -1       909 6.30751E+00 3.64765E+00 1.00000E+01
 -1       910 6.22827E+00 7.06515E+00 1.00000E+01
 -1       911 5.57430E+00 6.52427E+00 1.00000E+01
 -1       912 4.96061E+00 5.42066E+00 1.00000E+01
 -1       913 4.94685E+00 4.61130E+00 1.00000E+01
 -1       914 4.94690E+00 6.20387E+00 1.00000E+01
 -1       915 4.23763E+00 5.79119E+00 1.00000E+01
 -1       916 4.23892E+00 4.17066E+00 1.00000E+01
 -1       917 4.93443E+00 3.77397E+00 1.00000E+01
 -1       918 4.86445E+00 3.06170E+00 1.00000E+01
 -1       919 5.57238E+00 3.50233E+00 1.00000E+01
 -1       920 3.69134E+00 4.61348E+00 1.00000E+01
 -1       921 3.67892E+00 3.77615E+00 1.00000E+01
 -1       922 3.47351E+00 6.18736E+00 1.00000E+01
 -1       923 3.48722E+00 5.40416E+00 1.00000E+01
 -1       924 3.52342E+00 3.10656E+00 1.00000E+01
 -1       925 4.21786E+00 2.50766E+00 1.00000E+01
 -1       926 4.20176E+00 8.32485E+00-2.77556E-16
 -1       927 5.97788E+00 1.49383E+00-2.77556E-16
 -1       928 1.50843E+00 4.18489E+00-2.77556E-16
 -1       929 8.56449E+00 5.81971E+00-2.77556E-16
 -1       930 1.51308E+00 7.37626E+00-2.77556E-16
 -1       931 7.55505E+00 8.57025E+00-2.77556E-16
 -1       932 8.58871E+00 2.50706E+00-2.77556E-16
 -1       933 2.47706E+00 1.38838E+00-2.77556E-16
 -1       934 8.56328E+00 4.16557E+00-2.77556E-16
 -1       935 7.11567E+00 4.99755E+00-2.77556E-16
 -1       936 6.97780E+00 6.91510E+00-2.77556E-16
 -1       937 5.66987E+00 5.83333E+00-2.77556E-16
 -1       938 5.64236E+00 4.21460E+00-2.77556E-16
 -1       939 4.25134E+00 5.00799E+00-2.77556E-16
 -1       940 4.22650E+00 3.33333E+00-2.77556E-16
 -1       941 4.22392E+00 6.57440E+00-2.77556E-16
 -1       942 2.72309E+00 5.80033E+00-2.77556E-16
 -1       943 5.98395E+00 8.50336E+00-2.77556E-16
 -1       944 4.20921E+00 1.68199E+00-2.77556E-16
 -1       945 6.97265E+00 3.08069E+00-2.77556E-16
 -1       946 2.54404E+00 8.60959E+00-2.77556E-16
 -1       947 1.36949E+00 2.47117E+00-2.77556E-16
 -1       948 8.63410E+00 7.48676E+00-2.77556E-16
 -1       949 7.51464E+00 1.38721E+00-2.77556E-16
 -1       950 3.13134E+00 4.21897E+00-2.77556E-16
 -1       951 1.14892E+00 5.80563E+00-2.77556E-16
 -1       952 3.04118E+00 7.33708E+00-2.77556E-16
 -1       953 2.82034E+00 2.87979E+00-2.77556E-16
 -1       954 5.47873E+00 7.21521E+00-2.77556E-16
 -1       955 5.50240E+00 2.79006E+00-2.77556E-16
 -1       956 1.22008E+00 8.77991E+00-2.77556E-16
 -1       957 8.77991E+00 8.77991E+00-2.77556E-16
 -1       958 8.77991E+00 1.22008E+00-2.77556E-16
 -1       959 1.22008E+00 1.22008E+00-2.77556E-16
 -1       960 9.38996E+00 9.38996E+00-2.77556E-16
 -1       961 8.55662E+00 9.38996E+00-2.77556E-16
 -1       962 9.38996E+00 8.55662E+00-2.77556E-16
 -1       963 1.44338E+00 9.38996E+00-2.77556E-16
 -1       964 6.10042E-01 9.38996E+00-2.77556E-16
 -1       965 6.10042E-01 8.55662E+00-2.77556E-16
 -1       966 9.38996E+00 6.10042E-01-2.77556E-16
 -1       967 9.38996E+00 1.44338E+00-2.77556E-16
 -1       968 8.55662E+00 6.10042E-01-2.77556E-16
 -1       969 6.10042E-01 6.10042E-01-2.77556E-16
 -1       970 1.44338E+00 6.10042E-01-2.77556E-16
 -1       971 6.10042E-01 1.44338E+00-2.77556E-16
 -1       972 7.94419E+00 9.28512E+00-2.77556E-16
 -1       973 7.11086E+00 9.28512E+00-2.77556E-16
 -1       974 8.16748E+00 8.67508E+00-2.77556E-16
 -1       975 6.32531E+00 9.25168E+00-2.77556E-16
 -1       976 5.49197E+00 9.25168E+00-2.77556E-16
 -1       977 6.76950E+00 8.53680E+00-2.77556E-16
 -1       978 4.60088E+00 9.16243E+00-2.77556E-16
 -1       979 3.76755E+00 9.16243E+00-2.77556E-16
 -1       980 5.09285E+00 8.41410E+00-2.77556E-16
 -1       981 2.93869E+00 9.30479E+00-2.77556E-16
 -1       982 2.10536E+00 9.30479E+00-2.77556E-16
 -1       983 3.37290E+00 8.46722E+00-2.77556E-16
 -1       984 1.88206E+00 8.69475E+00-2.77556E-16
 -1       985 9.29436E+00 2.08686E+00-2.77556E-16
 -1       986 9.29436E+00 2.92020E+00-2.77556E-16
 -1       987 8.68431E+00 1.86357E+00-2.77556E-16
 -1       988 9.28164E+00 3.74945E+00-2.77556E-16
 -1       989 9.28164E+00 4.58279E+00-2.77556E-16
 -1       990 8.57600E+00 3.33632E+00-2.77556E-16
 -1       991 9.28224E+00 5.40986E+00-2.77556E-16
 -1       992 9.28224E+00 6.24319E+00-2.77556E-16
 -1       993 8.56389E+00 4.99264E+00-2.77556E-16
 -1       994 9.31705E+00 7.07672E+00-2.77556E-16
 -1       995 9.31705E+00 7.91005E+00-2.77556E-16
 -1       996 8.59929E+00 6.65324E+00-2.77556E-16
 -1       997 8.70701E+00 8.13334E+00-2.77556E-16
 -1       998 2.07186E+00 6.94190E-01-2.77556E-16
 -1       999 2.90520E+00 6.94190E-01-2.77556E-16
 -1      1000 1.84857E+00 1.30423E+00-2.77556E-16
 -1      1001 3.77127E+00 8.40994E-01-2.77556E-16
 -1      1002 4.60461E+00 8.40994E-01-2.77556E-16
 -1      1003 3.34314E+00 1.53518E+00-2.77556E-16
 -1      1004 5.48894E+00 7.46913E-01-2.77556E-16
 -1      1005 6.32227E+00 7.46913E-01-2.77556E-16
 -1      1006 5.09354E+00 1.58791E+00-2.77556E-16
 -1      1007 7.09066E+00 6.93603E-01-2.77556E-16
 -1      1008 7.92399E+00 6.93603E-01-2.77556E-16
 -1      1009 6.74626E+00 1.44052E+00-2.77556E-16
 -1      1010 8.14728E+00 1.30364E+00-2.77556E-16
 -1      1011 7.56540E-01 7.85480E+00-2.77556E-16
 -1      1012 7.56540E-01 7.02146E+00-2.77556E-16
 -1      1013 1.36658E+00 8.07809E+00-2.77556E-16
 -1      1014 5.74460E-01 6.23615E+00-2.77556E-16
 -1      1015 5.74460E-01 5.40281E+00-2.77556E-16
 -1      1016 1.33100E+00 6.59094E+00-2.77556E-16
 -1      1017 7.54213E-01 4.59245E+00-2.77556E-16
 -1      1018 7.54213E-01 3.75911E+00-2.77556E-16
 -1      1019 1.32867E+00 4.99526E+00-2.77556E-16
 -1      1020 6.84747E-01 2.90225E+00-2.77556E-16
 -1      1021 6.84747E-01 2.06892E+00-2.77556E-16
 -1      1022 1.43896E+00 3.32803E+00-2.77556E-16
 -1      1023 1.29479E+00 1.84563E+00-2.77556E-16
 -1      1024 4.21284E+00 7.44962E+00-2.77556E-16
 -1      1025 3.63255E+00 6.95574E+00-2.77556E-16
 -1      1026 3.62147E+00 7.83097E+00-2.77556E-16
 -1      1027 4.84024E+00 7.77003E+00-2.77556E-16
 -1      1028 4.85132E+00 6.89480E+00-2.77556E-16
 -1      1029 5.73134E+00 7.85928E+00-2.77556E-16
 -1      1030 2.79261E+00 7.97334E+00-2.77556E-16
 -1      1031 4.85581E+00 2.23603E+00-2.77556E-16
 -1      1032 5.74014E+00 2.14195E+00-2.77556E-16
 -1      1033 6.47527E+00 2.28726E+00-2.77556E-16
 -1      1034 7.24365E+00 2.23395E+00-2.77556E-16
 -1      1035 6.23753E+00 2.93538E+00-2.77556E-16
 -1      1036 2.11576E+00 4.99261E+00-2.77556E-16
 -1      1037 2.92721E+00 5.00965E+00-2.77556E-16
 -1      1038 2.31988E+00 4.20193E+00-2.77556E-16
 -1      1039 1.93601E+00 5.80298E+00-2.77556E-16
 -1      1040 2.16438E+00 3.53234E+00-2.77556E-16
 -1      1041 2.09492E+00 2.67548E+00-2.77556E-16
 -1      1042 2.97584E+00 3.54938E+00-2.77556E-16
 -1      1043 7.83948E+00 4.58156E+00-2.77556E-16
 -1      1044 7.84008E+00 5.40863E+00-2.77556E-16
 -1      1045 7.04674E+00 5.95632E+00-2.77556E-16
 -1      1046 7.77115E+00 6.36740E+00-2.77556E-16
 -1      1047 7.80595E+00 7.20093E+00-2.77556E-16
 -1      1048 2.11809E+00 6.58829E+00-2.77556E-16
 -1      1049 2.27713E+00 7.35667E+00-2.77556E-16
 -1      1050 2.88214E+00 6.56870E+00-2.77556E-16
 -1      1051 2.02856E+00 7.99292E+00-2.77556E-16
 -1      1052 7.26643E+00 7.74267E+00-2.77556E-16
 -1      1053 6.48088E+00 7.70923E+00-2.77556E-16
 -1      1054 8.09457E+00 8.02851E+00-2.77556E-16
 -1      1055 7.78068E+00 2.79388E+00-2.77556E-16
 -1      1056 7.76797E+00 3.62313E+00-2.77556E-16
 -1      1057 8.05168E+00 1.94713E+00-2.77556E-16
 -1      1058 2.64870E+00 2.13408E+00-2.77556E-16
 -1      1059 3.51478E+00 2.28089E+00-2.77556E-16
 -1      1060 1.92328E+00 1.92977E+00-2.77556E-16
 -1      1061 7.04416E+00 4.03912E+00-2.77556E-16
 -1      1062 6.39277E+00 5.41544E+00-2.77556E-16
 -1      1063 6.32384E+00 6.37421E+00-2.77556E-16
 -1      1064 6.37902E+00 4.60607E+00-2.77556E-16
 -1      1065 5.65612E+00 5.02397E+00-2.77556E-16
 -1      1066 6.30751E+00 3.64765E+00-2.77556E-16
 -1      1067 5.57430E+00 6.52427E+00-2.77556E-16
 -1      1068 6.22827E+00 7.06515E+00-2.77556E-16
 -1      1069 4.94685E+00 4.61130E+00-2.77556E-16
 -1      1070 4.96061E+00 5.42066E+00-2.77556E-16
 -1      1071 4.23763E+00 5.79119E+00-2.77556E-16
 -1      1072 4.94690E+00 6.20387E+00-2.77556E-16
 -1      1073 4.93443E+00 3.77397E+00-2.77556E-16
 -1      1074 4.23892E+00 4.17066E+00-2.77556E-16
 -1      1075 5.57238E+00 3.50233E+00-2.77556E-16
 -1      1076 4.86445E+00 3.06170E+00-2.77556E-16
 -1      1077 3.67892E+00 3.77615E+00-2.77556E-16
 -1      1078 3.69134E+00 4.61348E+00-2.77556E-16
 -1      1079 3.48722E+00 5.40416E+00-2.77556E-16
 -1      1080 3.47351E+00 6.18736E+00-2.77556E-16
 -1      1081 4.21786E+00 2.50766E+00-2.77556E-16
 -1      1082 3.52342E+00 3.10656E+00-2.77556E-16
 -1      1083 5.00008E+00 4.99989E+00 5.00000E+00
 -1      1084 3.63287E+00 6.95624E+00 3.02014E+00
 -1      1085 6.80562E+00 6.87007E+00 3.17259E+00
 -1      1086 3.54578E+00 3.04051E+00 6.95949E+00
 -1      1087 2.95433E+00 4.01261E+00 3.00859E+00
 -1      1088 3.15500E+00 6.81632E+00 6.85804E+00
 -1      1089 7.06491E+00 3.42318E+00 6.58649E+00
 -1      1090 6.17094E+00 2.97277E+00 2.99998E+00
 -1      1091 6.19826E+00 6.91525E+00 7.05035E+00
 -1      1092 7.64224E+00 4.70528E+00 4.19422E+00
 -1      1093 2.47303E+00 4.83138E+00 5.38833E+00
 -1      1094 4.24600E+00 2.50013E+00 4.58240E+00
 -1      1095 4.82251E+00 7.65746E+00 5.10182E+00
 -1      1096 5.13686E+00 5.11774E+00 2.31233E+00
 -1      1097 5.06963E+00 4.82656E+00 7.68882E+00
 -1      1098 2.28310E+00 7.75524E+00 4.83246E+00
 -1      1099 7.66796E+00 7.63726E+00 5.28542E+00
 -1      1100 2.25620E+00 4.83684E+00 7.71505E+00
 -1      1101 5.52215E+00 2.21981E+00 7.78019E+00
 -1      1102 2.12608E+00 2.09286E+00 2.14632E+00
 -1      1103 7.74101E+00 5.31777E+00 7.77281E+00
 -1      1104 7.95766E+00 2.06750E+00 2.08311E+00
 -1      1105 7.89811E+00 5.28304E+00 2.06201E+00
 -1      1106 7.73566E+00 2.43658E+00 4.61025E+00
 -1      1107 2.20299E+00 7.93650E+00 2.12413E+00
 -1      1108 7.94645E+00 7.92442E+00 7.93115E+00
 -1      1109 7.97504E+00 2.02518E+00 7.97482E+00
 -1      1110 4.25667E+00 2.55422E+00 2.03861E+00
 -1      1111 2.13307E+00 2.15944E+00 5.39054E+00
 -1      1112 1.99655E+00 1.99092E+00 7.99527E+00
 -1      1113 5.29898E+00 7.98228E+00 2.04117E+00
 -1      1114 1.94962E+00 8.05185E+00 8.04885E+00
 -1      1115 8.05490E+00 8.03620E+00 1.96225E+00
 -1      1116 2.05153E+00 5.76843E+00 3.60128E+00
 -1      1117 4.58090E+00 7.42434E+00 8.18188E+00
 -1      1118 5.82419E+00 2.02820E+00 5.77704E+00
 -1      1119 6.77936E+00 5.32429E+00 5.92708E+00
 -1      1120 1.63560E+00 5.13608E+00 1.62797E+00
 -1      1121 3.58459E+00 6.25024E+00 4.78442E+00
 -1      1122 6.23808E+00 3.58601E+00 4.78777E+00
 -1      1123 8.39218E+00 4.47589E+00 5.84142E+00
 -1      1124 1.64033E+00 6.22051E+00 6.13208E+00
 -1      1125 5.87860E+00 8.35999E+00 3.75614E+00
 -1      1126 5.16984E+00 6.39271E+00 3.83049E+00
 -1      1127 5.13767E+00 3.66616E+00 6.26136E+00
 -1      1128 8.32184E+00 6.25329E+00 6.30190E+00
 -1      1129 1.67799E+00 3.57402E+00 4.28075E+00
 -1      1130 8.33352E+00 6.40770E+00 4.08855E+00
 -1      1131 8.33888E+00 3.68793E+00 2.84241E+00
 -1      1132 4.09249E+00 8.41176E+00 6.64112E+00
 -1      1133 7.65379E+00 8.36332E+00 3.66288E+00
 -1      1134 6.52938E+00 4.13307E+00 1.61355E+00
 -1      1135 3.67301E+00 5.82107E+00 8.39689E+00
 -1      1136 6.58625E+00 3.97466E+00 8.39499E+00
 -1      1137 3.89889E+00 5.24951E+00 6.39547E+00
 -1      1138 4.65693E+00 3.94109E+00 3.58621E+00
 -1      1139 3.86046E+00 1.59003E+00 6.02882E+00
 -1      1140 6.40731E+00 6.14244E+00 1.59397E+00
 -1      1141 3.96214E+00 8.44339E+00 3.82989E+00
 -1      1142 8.45983E+00 2.32826E+00 6.26585E+00
 -1      1143 3.60500E+00 5.80991E+00 1.59897E+00
 -1      1144 1.70536E+00 3.57237E+00 6.49321E+00
 -1      1145 3.79494E+00 3.91962E+00 8.42960E+00
 -1      1146 5.90454E+00 1.48639E+00 3.61109E+00
 -1      1147 5.78560E+00 1.48639E+00 2.88943E+00
 -1      1148 4.82313E+00 1.25006E+00 3.68065E+00
 -1      1149 5.20847E+00 2.73645E+00 3.79119E+00
 -1      1150 4.94206E+00 1.25006E+00 4.40230E+00
 -1      1151 4.22985E+00 1.25006E+00 3.99165E+00
 -1      1152 4.82847E+00 1.27711E+00 2.40875E+00
 -1      1153 4.25133E+00 2.52717E+00 3.31051E+00
 -1      1154 4.23519E+00 1.27711E+00 2.71976E+00
 -1      1155 5.21381E+00 2.76350E+00 2.51930E+00
 -1      1156 3.87749E+00 2.36125E+00 8.47975E+00
 -1      1157 3.87749E+00 1.52025E+00 7.63875E+00
 -1      1158 4.20921E+00 8.40994E-01 9.15901E+00
 -1      1159 3.10288E+00 1.83646E+00 8.99764E+00
 -1      1160 3.10288E+00 9.95462E-01 8.15664E+00
 -1      1161 2.77117E+00 2.51571E+00 7.47738E+00
 -1      1162 1.70256E+00 5.32123E+00 8.85752E+00
 -1      1163 1.12810E+00 5.31381E+00 8.01653E+00
 -1      1164 5.74460E-01 5.79821E+00 9.15901E+00
 -1      1165 1.54927E+00 6.92874E+00 9.02442E+00
 -1      1166 9.74811E-01 6.92132E+00 8.18343E+00
 -1      1167 2.10291E+00 6.44434E+00 7.88195E+00
 -1      1168 4.86568E+00 1.95090E+00 8.89010E+00
 -1      1169 4.53396E+00 2.63016E+00 7.36984E+00
 -1      1170 4.86568E+00 1.10990E+00 8.04910E+00
 -1      1171 3.18604E+00 2.29650E+00 3.36436E+00
 -1      1172 2.48090E+00 1.04643E+00 3.27549E+00
 -1      1173 3.54085E+00 1.25006E+00 4.49353E+00
 -1      1174 3.18953E+00 2.32979E+00 4.98647E+00
 -1      1175 2.48439E+00 1.07972E+00 4.89760E+00
 -1      1176 2.12958E+00 2.12615E+00 3.76843E+00
 -1      1177 5.98803E+00 8.45763E+00 6.34424E+00
 -1      1178 5.51038E+00 7.28635E+00 6.07608E+00
 -1      1179 5.30015E+00 8.82873E+00 5.36997E+00
 -1      1180 6.72288E+00 8.81863E+00 5.46178E+00
 -1      1181 6.24524E+00 7.64736E+00 5.19362E+00
 -1      1182 6.93311E+00 7.27625E+00 6.16788E+00
 -1      1183 3.91575E+00 4.57162E+00 7.99486E-01
 -1      1184 3.36817E+00 5.01444E+00 7.99486E-01
 -1      1185 3.92817E+00 5.40895E+00 7.99486E-01
 -1      1186 3.69400E+00 3.38659E+00 1.01930E+00
 -1      1187 4.24158E+00 2.94378E+00 1.01930E+00
 -1      1188 3.93084E+00 4.18207E+00 1.81879E+00
 -1      1189 3.53959E+00 1.25006E+00 3.70724E+00
 -1      1190 3.54493E+00 1.27711E+00 2.43534E+00
 -1      1191 8.53245E+00 3.82484E+00 6.62658E+00
 -1      1192 7.40296E+00 4.37048E+00 7.17965E+00
 -1      1193 8.87050E+00 4.77214E+00 7.21974E+00
 -1      1194 9.19609E+00 4.35119E+00 6.25404E+00
 -1      1195 8.06660E+00 4.89683E+00 6.80711E+00
 -1      1196 7.72855E+00 3.94953E+00 6.21395E+00
 -1      1197 2.47964E+00 1.04643E+00 2.48920E+00
 -1      1198 3.19138E+00 2.32354E+00 2.09247E+00
 -1      1199 6.09110E+00 7.70930E+00 8.52517E+00
 -1      1200 6.03202E+00 8.45763E+00 7.79209E+00
 -1      1201 5.92486E+00 9.25168E+00 9.26692E+00
 -1      1202 6.96520E+00 8.21389E+00 8.96558E+00
 -1      1203 6.90611E+00 8.96221E+00 8.23250E+00
 -1      1204 7.07235E+00 7.41983E+00 7.49075E+00
 -1      1205 4.46593E+00 7.46926E+00 2.53065E+00
 -1      1206 3.75099E+00 7.95939E+00 2.08265E+00
 -1      1207 2.91793E+00 7.44637E+00 2.57214E+00
 -1      1208 3.79750E+00 7.69982E+00 3.42502E+00
 -1      1209 3.08257E+00 8.18995E+00 2.97701E+00
 -1      1210 4.63056E+00 8.21283E+00 2.93553E+00
 -1      1211 8.53245E+00 3.81620E+00 7.45225E+00
 -1      1212 8.87050E+00 4.76349E+00 8.04541E+00
 -1      1213 8.98752E+00 3.11720E+00 8.14641E+00
 -1      1214 7.51998E+00 2.72418E+00 7.28065E+00
 -1      1215 7.85802E+00 3.67148E+00 7.87381E+00
 -1      1216 2.48965E+00 5.31858E+00 8.85752E+00
 -1      1217 2.33636E+00 6.92609E+00 9.02442E+00
 -1      1218 8.53245E+00 3.12362E+00 6.85705E+00
 -1      1219 4.68168E+00 4.22554E+00 1.15617E+00
 -1      1220 4.69410E+00 5.06286E+00 1.15617E+00
 -1      1221 4.37093E+00 5.46383E+00 1.95565E+00
 -1      1222 5.99757E+00 2.50048E+00 4.38851E+00
 -1      1223 5.73116E+00 1.01410E+00 4.99962E+00
 -1      1224 5.03509E+00 2.26416E+00 5.17972E+00
 -1      1225 6.68689E+00 1.21829E+00 4.41623E+00
 -1      1226 6.95330E+00 2.70468E+00 3.80512E+00
 -1      1227 6.77993E+00 2.23239E+00 5.19364E+00
 -1      1228 6.07441E+00 1.48639E+00 2.24690E+00
 -1      1229 5.11727E+00 1.27711E+00 1.76622E+00
 -1      1230 4.69676E+00 3.83598E+00 2.17547E+00
 -1      1231 5.28242E+00 7.96385E+00 9.09094E+00
 -1      1232 5.38958E+00 7.16980E+00 7.61611E+00
 -1      1233 5.22334E+00 8.71217E+00 8.35786E+00
 -1      1234 1.14155E+00 8.12341E+00 5.32378E+00
 -1      1235 2.11636E+00 7.90355E+00 6.44065E+00
 -1      1236 9.74811E-01 8.27171E+00 6.93198E+00
 -1      1237 8.20163E-01 7.35604E+00 5.97360E+00
 -1      1238 1.79497E+00 7.13618E+00 7.09046E+00
 -1      1239 1.96171E+00 6.98788E+00 5.48227E+00
 -1      1240 1.90204E+00 2.83344E+00 3.21354E+00
 -1      1241 2.96199E+00 3.03707E+00 4.43157E+00
 -1      1242 1.90553E+00 2.86673E+00 4.83565E+00
 -1      1243 8.98752E+00 2.42463E+00 7.55122E+00
 -1      1244 6.07441E+00 2.23330E+00 1.49999E+00
 -1      1245 5.97788E+00 7.46913E-01 7.46913E-01
 -1      1246 5.11727E+00 2.02402E+00 1.01930E+00
 -1      1247 3.04283E+00 4.11579E+00 1.50430E+00
 -1      1248 3.60550E+00 3.28341E+00 2.52360E+00
 -1      1249 3.27967E+00 4.91126E+00 2.30378E+00
 -1      1250 2.51199E+00 9.02592E+00 7.51207E+00
 -1      1251 2.67873E+00 8.87762E+00 5.90387E+00
 -1      1252 3.58342E+00 9.20588E+00 6.80820E+00
 -1      1253 3.18779E+00 8.08350E+00 5.73679E+00
 -1      1254 3.02106E+00 8.23180E+00 7.34498E+00
 -1      1255 6.55490E+00 8.45763E+00 7.00891E+00
 -1      1256 7.28976E+00 8.81863E+00 6.12644E+00
 -1      1257 6.96777E+00 1.78066E+00 1.04155E+00
 -1      1258 6.96777E+00 1.03375E+00 1.78847E+00
 -1      1259 7.06430E+00 2.52014E+00 2.54154E+00
 -1      1260 8.20163E-01 6.00565E+00 7.22505E+00
 -1      1261 1.94826E+00 5.52867E+00 6.92356E+00
 -1      1262 4.93514E+00 9.20588E+00 6.13962E+00
 -1      1263 5.14537E+00 7.66350E+00 6.84573E+00
 -1      1264 4.45750E+00 8.03461E+00 5.87147E+00
 -1      1265 7.16363E+00 4.64622E+00 8.08390E+00
 -1      1266 8.29312E+00 4.09194E+00 8.35650E+00
 -1      1267 7.28064E+00 2.99992E+00 8.18491E+00
 -1      1268 3.67036E+00 3.48006E+00 7.69455E+00
 -1      1269 4.00208E+00 2.80081E+00 9.21480E+00
 -1      1270 2.89575E+00 2.95527E+00 8.21244E+00
 -1      1271 4.03484E+00 7.95017E-01 7.17342E+00
 -1      1272 3.70312E+00 2.31527E+00 6.49416E+00
 -1      1273 2.92851E+00 1.79048E+00 7.01205E+00
 -1      1274 7.22366E+00 6.48077E+00 5.60625E+00
 -1      1275 5.80094E+00 6.49087E+00 5.51445E+00
 -1      1276 6.41890E+00 7.01498E+00 4.55796E+00
 -1      1277 4.99617E+00 7.02508E+00 4.46616E+00
 -1      1278 5.97460E+00 5.85850E+00 4.87879E+00
 -1      1279 2.54021E+00 3.05273E+00 2.57746E+00
 -1      1280 3.60016E+00 3.25637E+00 3.79550E+00
 -1      1281 2.31616E+00 3.79331E+00 3.64467E+00
 -1      1282 1.88846E+00 8.87762E+00 5.40517E+00
 -1      1283 1.72172E+00 9.02592E+00 7.01336E+00
 -1      1284 4.17008E+00 7.65968E+00 1.02058E+00
 -1      1285 3.33702E+00 7.14666E+00 1.51007E+00
 -1      1286 3.32309E+00 6.57350E+00 7.99486E-01
 -1      1287 3.61894E+00 6.38308E+00 2.30956E+00
 -1      1288 4.45199E+00 6.89610E+00 1.82007E+00
 -1      1289 5.36975E+00 5.32995E+00 8.84441E+00
 -1      1290 5.63395E+00 5.87091E+00 7.36958E+00
 -1      1291 5.93406E+00 6.37429E+00 8.52517E+00
 -1      1292 6.70544E+00 5.57555E+00 8.88640E+00
 -1      1293 6.96963E+00 6.11651E+00 7.41158E+00
 -1      1294 6.40532E+00 5.07217E+00 7.73082E+00
 -1      1295 2.55231E+00 7.43409E+00 7.45344E+00
 -1      1296 2.71905E+00 7.28578E+00 5.84525E+00
 -1      1297 3.62375E+00 7.61404E+00 6.74958E+00
 -1      1298 6.32116E+00 4.85259E+00 4.59711E+00
 -1      1299 6.94016E+00 4.14565E+00 4.49099E+00
 -1      1300 5.61908E+00 4.29295E+00 4.89388E+00
 -1      1301 4.82850E+00 4.47049E+00 4.29311E+00
 -1      1302 5.44750E+00 3.76355E+00 4.18699E+00
 -1      1303 6.14959E+00 4.32318E+00 3.89021E+00
 -1      1304 4.65854E+00 3.06972E+00 8.10489E+00
 -1      1305 4.69130E+00 1.90492E+00 6.90451E+00
 -1      1306 7.46913E-01 9.24579E+00 5.89649E+00
 -1      1307 2.53658E+00 8.87762E+00 5.16743E+00
 -1      1308 3.44128E+00 9.20588E+00 6.07176E+00
 -1      1309 5.57755E+00 8.45763E+00 7.07030E+00
 -1      1310 4.52466E+00 9.20588E+00 6.86569E+00
 -1      1311 9.28164E+00 4.18739E+00 9.15901E+00
 -1      1312 8.26916E+00 3.09538E+00 8.98741E+00
 -1      1313 7.57477E+00 4.07012E+00 9.19750E+00
 -1      1314 3.19805E+00 5.81070E+00 9.19844E+00
 -1      1315 2.81131E+00 6.93646E+00 8.22287E+00
 -1      1316 2.96461E+00 5.32895E+00 8.05597E+00
 -1      1317 3.60873E+00 6.60324E+00 3.90228E+00
 -1      1318 3.26946E+00 5.13142E+00 3.89651E+00
 -1      1319 3.29360E+00 5.48442E+00 3.01437E+00
 -1      1320 4.14490E+00 5.44866E+00 3.30318E+00
 -1      1321 3.80563E+00 3.97685E+00 3.29740E+00
 -1      1322 4.12076E+00 5.09566E+00 4.18532E+00
 -1      1323 4.74194E+00 8.99114E+00 1.77480E+00
 -1      1324 3.19394E+00 8.96825E+00 1.81628E+00
 -1      1325 4.07351E+00 9.22169E+00 2.66916E+00
 -1      1326 1.47716E+00 4.30617E+00 2.89374E+00
 -1      1327 1.47716E+00 3.52246E+00 3.04912E+00
 -1      1328 8.17799E-01 4.08420E+00 2.35881E+00
 -1      1329 2.29496E+00 4.57434E+00 2.31828E+00
 -1      1330 8.17799E-01 4.86791E+00 2.20343E+00
 -1      1331 2.70560E+00 5.82658E+00 7.28654E+00
 -1      1332 2.39767E+00 6.51842E+00 6.49506E+00
 -1      1333 4.40135E+00 6.67447E+00 3.42532E+00
 -1      1334 4.37721E+00 6.32147E+00 4.30746E+00
 -1      1335 4.91338E+00 5.16690E+00 3.70835E+00
 -1      1336 3.73656E+00 4.91563E+00 5.19416E+00
 -1      1337 3.35951E+00 3.66575E+00 4.98536E+00
 -1      1338 4.62304E+00 3.75001E+00 4.79120E+00
 -1      1339 5.06888E+00 4.33303E+00 5.63068E+00
 -1      1340 4.69183E+00 3.08315E+00 5.42188E+00
 -1      1341 3.80535E+00 4.24877E+00 5.82484E+00
 -1      1342 2.88733E+00 3.44620E+00 1.50430E+00
 -1      1343 2.38347E+00 4.67753E+00 8.13983E-01
 -1      1344 2.22797E+00 4.00794E+00 8.13983E-01
 -1      1345 6.56931E+00 1.48639E+00 3.04482E+00
 -1      1346 7.35167E+00 1.21829E+00 3.84995E+00
 -1      1347 6.79249E+00 6.09718E+00 4.54984E+00
 -1      1348 7.23679E+00 7.25366E+00 4.22900E+00
 -1      1349 5.98773E+00 6.63139E+00 3.50154E+00
 -1      1350 1.06304E+00 2.56259E+00 2.61799E+00
 -1      1351 1.88084E+00 3.61447E+00 1.88715E+00
 -1      1352 4.76145E+00 7.27834E+00 1.02058E+00
 -1      1353 3.91446E+00 6.19215E+00 7.99486E-01
 -1      1354 5.83667E+00 2.88142E+00 1.49999E+00
 -1      1355 4.87954E+00 2.67214E+00 1.01930E+00
 -1      1356 7.42900E+00 8.96221E+00 7.44931E+00
 -1      1357 7.44445E+00 8.81863E+00 5.34437E+00
 -1      1358 4.04559E+00 4.56517E+00 2.66046E+00
 -1      1359 4.38486E+00 6.03699E+00 2.66624E+00
 -1      1360 4.89689E+00 4.52941E+00 2.94927E+00
 -1      1361 5.15335E+00 5.75522E+00 3.07141E+00
 -1      1362 6.58803E+00 6.91517E+00 8.52517E+00
 -1      1363 7.35941E+00 6.11644E+00 8.88640E+00
 -1      1364 1.06653E+00 1.80065E+00 4.78279E+00
 -1      1365 1.06304E+00 1.76736E+00 3.16068E+00
 -1      1366 8.38994E-01 2.50794E+00 4.22789E+00
 -1      1367 5.97124E+00 5.99390E+00 2.74246E+00
 -1      1368 6.38955E+00 4.91151E+00 3.25327E+00
 -1      1369 7.22393E+00 5.78768E+00 3.68340E+00
 -1      1370 6.40604E+00 5.54899E+00 4.01235E+00
 -1      1371 2.41031E+00 9.95462E-01 7.56145E+00
 -1      1372 3.34226E+00 7.95017E-01 6.57822E+00
 -1      1373 4.76887E+00 8.71217E+00 7.63607E+00
 -1      1374 2.47321E+00 2.48633E+00 1.07316E+00
 -1      1375 8.15215E+00 4.74167E+00 8.88640E+00
 -1      1376 5.83849E+00 7.06523E+00 8.52517E+00
 -1      1377 5.02981E+00 7.31978E+00 9.09094E+00
 -1      1378 6.75817E-01 7.20930E-01 4.11750E+00
 -1      1379 1.73886E+00 1.04643E+00 3.10314E+00
 -1      1380 1.74235E+00 1.07972E+00 4.72525E+00
 -1      1381 4.91129E+00 6.32868E+00 5.05091E+00
 -1      1382 5.59917E+00 5.95757E+00 6.02517E+00
 -1      1383 5.04858E+00 6.08238E+00 6.72291E+00
 -1      1384 4.44949E+00 5.12470E+00 5.69774E+00
 -1      1385 4.36070E+00 6.45348E+00 5.74865E+00
 -1      1386 6.57180E+00 3.02673E+00 1.49999E+00
 -1      1387 5.82820E+00 9.18000E+00 4.69713E+00
 -1      1388 5.35055E+00 8.00873E+00 4.42898E+00
 -1      1389 6.77328E+00 7.99862E+00 4.52078E+00
 -1      1390 6.82558E+00 3.69892E+00 7.49074E+00
 -1      1391 3.89589E+00 2.77032E+00 5.77095E+00
 -1      1392 3.00940E+00 3.93594E+00 6.17391E+00
 -1      1393 4.34172E+00 3.35333E+00 6.61043E+00
 -1      1394 1.06304E+00 3.05749E+00 1.82008E+00
 -1      1395 8.17799E-01 4.57910E+00 1.56090E+00
 -1      1396 6.60866E+00 9.18000E+00 3.40047E+00
 -1      1397 6.96675E+00 8.19810E+00 2.85919E+00
 -1      1398 7.69681E+00 9.01810E+00 2.50353E+00
 -1      1399 7.49626E+00 9.18166E+00 3.35384E+00
 -1      1400 7.85435E+00 8.19976E+00 2.81256E+00
 -1      1401 6.76620E+00 8.36165E+00 3.70951E+00
 -1      1402 7.35186E+00 6.07656E+00 2.61730E+00
 -1      1403 6.51748E+00 5.20039E+00 2.18717E+00
 -1      1404 7.77018E+00 4.99416E+00 3.12811E+00
 -1      1405 9.74811E-01 7.61389E+00 7.58823E+00
 -1      1406 8.20163E-01 6.69822E+00 6.62985E+00
 -1      1407 4.19332E+00 9.16243E+00 7.54213E-01
 -1      1408 3.20238E+00 8.13068E+00 1.06207E+00
 -1      1409 4.75037E+00 8.15357E+00 1.02058E+00
 -1      1410 6.48881E+00 6.11977E+00 6.48872E+00
 -1      1411 5.65390E+00 4.04525E+00 2.65616E+00
 -1      1412 6.90659E+00 3.83903E+00 3.59710E+00
 -1      1413 5.41394E+00 3.45693E+00 3.29310E+00
 -1      1414 6.20451E+00 3.27939E+00 3.89387E+00
 -1      1415 3.41401E+00 6.31870E+00 7.62747E+00
 -1      1416 9.22991E+00 2.57617E+00 6.69673E+00
 -1      1417 7.76237E+00 2.87572E+00 6.42617E+00
 -1      1418 8.21743E+00 2.17672E+00 7.12033E+00
 -1      1419 2.40845E+00 2.43536E+00 8.99764E+00
 -1      1420 3.30764E+00 3.39971E+00 9.21480E+00
 -1      1421 7.46516E+00 2.57410E+00 1.04155E+00
 -1      1422 3.56498E+00 4.38623E+00 4.48727E+00
 -1      1423 4.45146E+00 3.22061E+00 4.08431E+00
 -1      1424 7.46213E+00 7.41976E+00 8.96558E+00
 -1      1425 1.73135E+00 7.71405E+00 9.02442E+00
 -1      1426 3.98876E+00 7.23689E+00 5.97993E+00
 -1      1427 4.67663E+00 6.86579E+00 6.95419E+00
 -1      1428 3.52695E+00 6.03291E+00 6.62676E+00
 -1      1429 5.82794E+00 4.40061E+00 8.04191E+00
 -1      1430 6.12806E+00 4.90400E+00 9.19750E+00
 -1      1431 3.53850E+00 2.71700E+00 1.01930E+00
 -1      1432 4.51828E+00 4.45783E+00 6.32842E+00
 -1      1433 3.18596E+00 5.04044E+00 5.89190E+00
 -1      1434 2.54112E+00 8.96825E+00 2.47221E+00
 -1      1435 3.42069E+00 9.22169E+00 3.32509E+00
 -1      1436 6.01589E+00 3.46157E+00 8.06774E-01
 -1      1437 6.75102E+00 3.60688E+00 8.06774E-01
 -1      1438 6.35016E+00 3.55292E+00 2.30676E+00
 -1      1439 2.84220E+00 6.36234E+00 3.31071E+00
 -1      1440 2.50293E+00 4.89052E+00 3.30494E+00
 -1      1441 2.81806E+00 6.00934E+00 4.19285E+00
 -1      1442 5.38961E+00 4.66617E+00 1.15617E+00
 -1      1443 4.94952E+00 3.38441E+00 1.01930E+00
 -1      1444 7.46267E+00 1.03375E+00 2.58638E+00
 -1      1445 2.47706E+00 6.94190E-01 9.30581E+00
 -1      1446 3.34314E+00 8.40994E-01 9.30581E+00
 -1      1447 2.23681E+00 9.95462E-01 8.30345E+00
 -1      1448 2.23681E+00 1.68965E+00 8.99764E+00
 -1      1449 6.54977E+00 9.18000E+00 4.57972E+00
 -1      1450 5.12538E+00 6.62884E+00 9.09094E+00
 -1      1451 4.82526E+00 6.12545E+00 7.93535E+00
 -1      1452 7.21080E+00 5.01478E+00 5.06065E+00
 -1      1453 7.80721E+00 7.78084E+00 6.60829E+00
 -1      1454 5.83312E+00 4.62541E+00 1.96294E+00
 -1      1455 7.08581E+00 4.41918E+00 2.90388E+00
 -1      1456 7.21374E+00 4.70806E+00 1.83778E+00
 -1      1457 1.10150E+00 7.55165E+00 2.47810E+00
 -1      1458 2.24305E+00 7.84587E+00 3.47829E+00
 -1      1459 1.14155E+00 7.46102E+00 3.83227E+00
 -1      1460 1.02577E+00 6.46762E+00 3.21668E+00
 -1      1461 2.16732E+00 6.76184E+00 4.21687E+00
 -1      1462 2.12726E+00 6.85247E+00 2.86271E+00
 -1      1463 5.88972E+00 5.16209E+00 5.46354E+00
 -1      1464 5.08496E+00 5.69630E+00 4.41525E+00
 -1      1465 3.35536E+00 9.30479E+00 9.27831E+00
 -1      1466 2.52555E+00 9.30479E+00 9.29436E+00
 -1      1467 3.05814E+00 9.02592E+00 8.30273E+00
 -1      1468 2.22834E+00 9.02592E+00 8.31878E+00
 -1      1469 2.24683E+00 8.33072E+00 9.02442E+00
 -1      1470 2.12638E+00 3.41388E+00 7.85516E+00
 -1      1471 2.53827E+00 3.85831E+00 8.85752E+00
 -1      1472 3.02557E+00 4.37823E+00 8.07232E+00
 -1      1473 3.34048E+00 6.94190E-01 8.43926E-01
 -1      1474 2.46793E+00 6.94190E-01 6.78151E-01
 -1      1475 2.29244E+00 1.04643E+00 1.75131E+00
 -1      1476 2.30157E+00 1.74062E+00 1.07316E+00
 -1      1477 3.16500E+00 1.04643E+00 1.91709E+00
 -1      1478 4.33669E+00 7.91805E+00 7.41150E+00
 -1      1479 2.58117E+00 8.87762E+00 3.82637E+00
 -1      1480 3.12262E+00 8.09932E+00 4.33117E+00
 -1      1481 2.71368E+00 4.42199E+00 4.19846E+00
 -1      1482 3.36687E+00 1.97130E+00 1.01930E+00
 -1      1483 4.23029E+00 1.27711E+00 1.86323E+00
 -1      1484 2.62209E+00 7.63679E+00 1.06207E+00
 -1      1485 2.90400E+00 6.87321E+00 1.86155E+00
 -1      1486 8.00074E+00 7.02248E+00 4.68699E+00
 -1      1487 7.56957E+00 6.63889E+00 3.63057E+00
 -1      1488 7.55644E+00 5.86599E+00 5.00782E+00
 -1      1489 8.38994E-01 3.30317E+00 3.68520E+00
 -1      1490 8.38994E-01 4.08688E+00 3.52982E+00
 -1      1491 2.30305E+00 3.49541E+00 5.38944E+00
 -1      1492 2.83942E+00 2.59997E+00 6.17502E+00
 -1      1493 4.18421E+00 9.16243E+00 9.27831E+00
 -1      1494 3.07569E+00 8.18835E+00 9.02442E+00
 -1      1495 5.52422E+00 7.37635E+00 3.79331E+00
 -1      1496 9.29436E+00 2.49206E+00 9.30581E+00
 -1      1497 9.28164E+00 3.32132E+00 9.30581E+00
 -1      1498 8.98752E+00 2.25112E+00 8.29322E+00
 -1      1499 8.28188E+00 2.26612E+00 8.98741E+00
 -1      1500 1.91930E+00 6.53629E+00 1.87605E+00
 -1      1501 8.17799E-01 6.15144E+00 2.23002E+00
 -1      1502 1.84356E+00 5.45226E+00 2.61463E+00
 -1      1503 6.60646E+00 6.50626E+00 2.38328E+00
 -1      1504 5.77208E+00 5.63009E+00 1.95315E+00
 -1      1505 7.15271E+00 5.71274E+00 1.82799E+00
 -1      1506 6.08587E+00 4.17384E+00 8.06774E-01
 -1      1507 5.39302E+00 3.34365E+00 1.82608E+00
 -1      1508 2.49540E+00 7.69447E+00 9.02442E+00
 -1      1509 2.07551E+00 4.20270E+00 4.83454E+00
 -1      1510 6.34211E+00 7.61503E+00 3.46436E+00
 -1      1511 3.72234E+00 4.14501E+00 6.67748E+00
 -1      1512 7.24352E+00 3.10029E+00 1.84833E+00
 -1      1513 1.98254E+00 8.87762E+00 4.52084E+00
 -1      1514 1.14155E+00 8.20180E+00 4.44621E+00
 -1      1515 8.40994E-01 9.32418E+00 4.13458E+00
 -1      1516 1.94249E+00 8.96825E+00 3.16667E+00
 -1      1517 1.10150E+00 8.29243E+00 3.09204E+00
 -1      1518 6.74859E+00 2.12250E+00 7.87750E+00
 -1      1519 7.47516E+00 1.01259E+00 7.45023E+00
 -1      1520 6.24872E+00 1.10990E+00 7.35292E+00
 -1      1521 5.67317E+00 2.12400E+00 6.77861E+00
 -1      1522 6.39974E+00 1.01410E+00 6.35134E+00
 -1      1523 6.89962E+00 2.02669E+00 6.87593E+00
 -1      1524 2.50761E+00 9.30479E+00 6.84747E-01
 -1      1525 3.36447E+00 9.30479E+00 7.54213E-01
 -1      1526 2.37352E+00 8.27304E+00 1.06207E+00
 -1      1527 2.33708E+00 8.96825E+00 1.74681E+00
 -1      1528 1.81725E+00 3.13888E+00 1.07316E+00
 -1      1529 7.54213E-01 4.10351E+00 7.46913E-01
 -1      1530 1.57201E+00 4.66049E+00 8.13983E-01
 -1      1531 7.41296E+00 1.21829E+00 4.82671E+00
 -1      1532 6.45722E+00 1.01410E+00 5.41010E+00
 -1      1533 7.98788E+00 5.55649E+00 4.14138E+00
 -1      1534 8.27319E+00 2.28728E+00 1.04155E+00
 -1      1535 8.97883E+00 2.26315E+00 1.71971E+00
 -1      1536 9.29436E+00 2.48293E+00 6.78151E-01
 -1      1537 8.46380E+00 3.09750E+00 1.42120E+00
 -1      1538 9.16944E+00 3.07337E+00 2.09936E+00
 -1      1539 8.14827E+00 2.87772E+00 2.46276E+00
 -1      1540 3.35709E+00 6.57908E+00 9.19844E+00
 -1      1541 8.08707E+00 8.81863E+00 5.63165E+00
 -1      1542 8.83398E+00 8.09694E+00 5.55938E+00
 -1      1543 9.25309E+00 9.27831E+00 5.90560E+00
 -1      1544 8.22631E+00 8.96221E+00 6.95452E+00
 -1      1545 8.97322E+00 8.24052E+00 6.88224E+00
 -1      1546 1.12810E+00 4.42948E+00 8.11061E+00
 -1      1547 1.88231E+00 4.51086E+00 8.85752E+00
 -1      1548 7.54213E-01 4.10351E+00 9.25309E+00
 -1      1549 9.98277E-01 3.00652E+00 8.25072E+00
 -1      1550 1.75249E+00 3.08791E+00 8.99764E+00
 -1      1551 3.02881E+00 5.54081E+00 5.08637E+00
 -1      1552 4.39133E+00 7.87460E+00 9.09094E+00
 -1      1553 4.37378E+00 8.71217E+00 8.36925E+00
 -1      1554 3.26526E+00 7.73810E+00 8.11536E+00
 -1      1555 4.29234E+00 5.62507E+00 4.89221E+00
 -1      1556 4.20656E+00 8.40994E-01 8.43926E-01
 -1      1557 4.23294E+00 2.11810E+00 1.01930E+00
 -1      1558 1.02577E+00 5.18409E+00 3.19009E+00
 -1      1559 6.84747E-01 2.47856E+00 6.94135E-01
 -1      1560 6.84747E-01 3.24665E+00 7.46913E-01
 -1      1561 1.74779E+00 2.28202E+00 1.07316E+00
 -1      1562 1.06304E+00 2.28941E+00 1.76730E+00
 -1      1563 7.71756E+00 1.16413E+00 6.59575E+00
 -1      1564 7.14201E+00 2.17823E+00 6.02144E+00
 -1      1565 4.12958E+00 9.20588E+00 7.59887E+00
 -1      1566 5.33913E+00 5.28690E+00 6.16128E+00
 -1      1567 7.84373E+00 6.62110E+00 7.85198E+00
 -1      1568 4.87432E+00 1.10990E+00 7.22343E+00
 -1      1569 4.04348E+00 7.95017E-01 6.34774E+00
 -1      1570 9.28164E+00 3.31219E+00 6.78151E-01
 -1      1571 8.45108E+00 3.92675E+00 1.42120E+00
 -1      1572 7.84666E+00 2.25204E+00 3.34668E+00
 -1      1573 5.38886E+00 7.59875E+00 1.02058E+00
 -1      1574 5.94302E+00 6.67883E+00 7.96987E-01
 -1      1575 5.31561E+00 6.35842E+00 7.96987E-01
 -1      1576 5.85315E+00 7.06236E+00 1.81757E+00
 -1      1577 3.81104E+00 7.38071E+00 9.09094E+00
 -1      1578 1.86476E+00 4.67123E+00 3.94102E+00
 -1      1579 1.98078E+00 4.20460E+00 7.10413E+00
 -1      1580 8.52680E-01 3.79725E+00 7.49969E+00
 -1      1581 1.85096E+00 2.78165E+00 7.24424E+00
 -1      1582 6.84747E-01 2.47811E+00 9.30678E+00
 -1      1583 6.84747E-01 3.24665E+00 9.25309E+00
 -1      1584 1.68302E+00 2.23105E+00 8.99764E+00
 -1      1585 9.98277E-01 2.23798E+00 8.30441E+00
 -1      1586 6.93225E-01 9.31525E+00 7.52189E+00
 -1      1587 7.46913E-01 9.31525E+00 6.75335E+00
 -1      1588 9.74811E-01 8.34118E+00 7.78884E+00
 -1      1589 1.66804E+00 9.02592E+00 7.78190E+00
 -1      1590 6.73844E+00 9.25168E+00 9.29436E+00
 -1      1591 7.71969E+00 8.96221E+00 8.25993E+00
 -1      1592 4.12958E+00 9.20588E+00 6.15550E+00
 -1      1593 4.06440E+00 9.22169E+00 4.74988E+00
 -1      1594 3.37610E+00 9.22169E+00 4.66615E+00
 -1      1595 4.02731E+00 8.42757E+00 5.23550E+00
 -1      1596 6.56536E-01 7.05643E-01 2.46257E+00
 -1      1597 6.75817E-01 7.05643E-01 3.28351E+00
 -1      1598 1.71958E+00 1.04643E+00 2.28220E+00
 -1      1599 1.06304E+00 1.75207E+00 2.32669E+00
 -1      1600 9.28224E+00 5.89879E+00 9.25309E+00
 -1      1601 8.87050E+00 5.64783E+00 8.13949E+00
 -1      1602 8.15275E+00 5.56874E+00 8.88640E+00
 -1      1603 8.25547E+00 6.87207E+00 8.96558E+00
 -1      1604 8.97322E+00 6.95115E+00 8.21866E+00
 -1      1605 2.62030E+00 5.47300E+00 1.61347E+00
 -1      1606 3.86795E+00 7.12033E+00 7.51996E+00
 -1      1607 4.23990E+00 6.33692E+00 7.28868E+00
 -1      1608 5.00616E+00 5.97618E+00 1.59647E+00
 -1      1609 8.23130E+00 5.55138E+00 1.03100E+00
 -1      1610 8.94906E+00 5.63046E+00 1.77792E+00
 -1      1611 9.28224E+00 5.89879E+00 7.46913E-01
 -1      1612 8.30970E+00 6.92796E+00 9.81125E-01
 -1      1613 9.02745E+00 7.00704E+00 1.72804E+00
 -1      1614 7.97651E+00 6.65962E+00 2.01213E+00
 -1      1615 7.52399E+00 9.28512E+00 9.29436E+00
 -1      1616 7.75075E+00 8.24733E+00 8.96558E+00
 -1      1617 9.29436E+00 6.56536E-01 2.46257E+00
 -1      1618 9.29436E+00 6.75817E-01 3.28351E+00
 -1      1619 8.97883E+00 1.70957E+00 3.07153E+00
 -1      1620 8.27319E+00 1.03375E+00 2.29509E+00
 -1      1621 8.97883E+00 1.69029E+00 2.25059E+00
 -1      1622 6.29353E+00 2.82149E+00 7.18334E+00
 -1      1623 6.44455E+00 2.72569E+00 6.18176E+00
 -1      1624 9.25309E+00 9.29436E+00 6.73541E+00
 -1      1625 8.97322E+00 8.25657E+00 7.71205E+00
 -1      1626 5.09354E+00 8.40994E-01 7.46913E-01
 -1      1627 4.87432E+00 2.77657E+00 8.89010E+00
 -1      1628 4.01072E+00 3.62648E+00 9.21480E+00
 -1      1629 6.74596E+00 7.46913E-01 6.94135E-01
 -1      1630 7.51435E+00 6.93603E-01 6.94135E-01
 -1      1631 7.73615E+00 1.72735E+00 1.04155E+00
 -1      1632 7.73585E+00 1.03375E+00 1.73569E+00
 -1      1633 5.97788E+00 7.46913E-01 9.25309E+00
 -1      1634 5.75001E+00 1.10990E+00 8.14318E+00
 -1      1635 5.75001E+00 1.85682E+00 8.89010E+00
 -1      1636 6.97646E+00 1.75951E+00 8.98741E+00
 -1      1637 6.97646E+00 1.01259E+00 8.24049E+00
 -1      1638 9.30594E+00 9.29436E+00 7.50348E+00
 -1      1639 8.27916E+00 8.96221E+00 7.72259E+00
 -1      1640 9.02745E+00 7.50194E+00 2.52595E+00
 -1      1641 8.94906E+00 6.12536E+00 2.57583E+00
 -1      1642 9.16676E+00 6.68769E+00 3.58910E+00
 -1      1643 8.11582E+00 5.84537E+00 3.07528E+00
 -1      1644 8.19421E+00 7.22195E+00 3.02540E+00
 -1      1645 2.95798E+00 7.35574E+00 3.92630E+00
 -1      1646 9.31705E+00 6.73232E+00 7.46913E-01
 -1      1647 8.34450E+00 7.76148E+00 9.81125E-01
 -1      1648 8.03143E+00 5.78553E+00 7.03736E+00
 -1      1649 9.16092E+00 6.11558E+00 7.40404E+00
 -1      1650 8.13414E+00 7.08886E+00 7.11653E+00
 -1      1651 1.10150E+00 6.86630E+00 1.90599E+00
 -1      1652 8.17799E-01 5.46609E+00 1.65791E+00
 -1      1653 6.94190E-01 9.34346E+00 2.44757E+00
 -1      1654 6.94190E-01 9.32418E+00 3.26851E+00
 -1      1655 1.10150E+00 8.31171E+00 2.27110E+00
 -1      1656 1.79569E+00 8.96825E+00 2.30060E+00
 -1      1657 6.74626E+00 6.93603E-01 9.25309E+00
 -1      1658 7.51480E+00 6.93603E-01 9.30678E+00
 -1      1659 7.74500E+00 1.01259E+00 8.29418E+00
 -1      1660 7.74484E+00 1.70619E+00 8.98741E+00
 -1      1661 6.23975E+00 9.18000E+00 3.98440E+00
 -1      1662 4.12695E+00 6.62271E+00 8.28938E+00
 -1      1663 9.31705E+00 6.73232E+00 9.25309E+00
 -1      1664 8.29027E+00 7.70559E+00 8.96558E+00
 -1      1665 1.14155E+00 7.45976E+00 4.61856E+00
 -1      1666 1.02577E+00 6.46636E+00 4.00297E+00
 -1      1667 7.42834E+00 5.15766E+00 8.88640E+00
 -1      1668 6.85096E+00 4.48610E+00 9.19750E+00
 -1      1669 7.51635E+00 7.47565E+00 9.81125E-01
 -1      1670 6.67694E+00 8.00924E+00 2.00171E+00
 -1      1671 6.13839E+00 7.44869E+00 1.02058E+00
 -1      1672 6.69256E+00 6.52877E+00 7.96987E-01
 -1      1673 7.23111E+00 7.08932E+00 1.77811E+00
 -1      1674 9.31705E+00 7.50086E+00 9.30678E+00
 -1      1675 8.97322E+00 7.71969E+00 8.27235E+00
 -1      1676 8.25790E+00 1.03375E+00 3.12907E+00
 -1      1677 9.27907E+00 6.75817E-01 4.11750E+00
 -1      1678 8.86783E+00 1.89411E+00 4.33510E+00
 -1      1679 8.14690E+00 1.21829E+00 4.39264E+00
 -1      1680 2.46304E+00 6.86841E+00 1.06207E+00
 -1      1681 3.16405E+00 5.80512E+00 7.99486E-01
 -1      1682 9.31705E+00 7.50041E+00 6.94135E-01
 -1      1683 9.02745E+00 7.77513E+00 1.67526E+00
 -1      1684 4.08890E+00 9.22169E+00 3.48046E+00
 -1      1685 5.92450E+00 5.07543E+00 6.80795E+00
 -1      1686 4.48426E+00 5.03803E+00 7.04215E+00
 -1      1687 4.20355E+00 6.95385E+00 4.94312E+00
 -1      1688 3.74174E+00 5.74987E+00 5.58995E+00
 -1      1689 1.82075E+00 1.07972E+00 5.60283E+00
 -1      1690 1.06653E+00 1.80141E+00 5.61194E+00
 -1      1691 7.54213E-01 7.21688E-01 5.82422E+00
 -1      1692 1.75249E+00 9.95462E-01 6.90519E+00
 -1      1693 9.98277E-01 1.71715E+00 6.91430E+00
 -1      1694 2.06481E+00 2.07518E+00 6.69291E+00
 -1      1695 1.23652E+00 5.29037E+00 5.19879E+00
 -1      1696 1.23652E+00 4.59662E+00 4.80527E+00
 -1      1697 1.02577E+00 5.06515E+00 3.91174E+00
 -1      1698 2.26228E+00 5.29990E+00 4.49481E+00
 -1      1699 1.02577E+00 5.75890E+00 4.30527E+00
 -1      1700 7.77504E+00 1.16413E+00 5.65451E+00
 -1      1701 7.71558E+00 9.01810E+00 1.73767E+00
 -1      1702 6.92795E+00 9.01810E+00 2.34224E+00
 -1      1703 6.04433E+00 3.38236E+00 9.19750E+00
 -1      1704 6.05420E+00 3.09724E+00 8.08759E+00
 -1      1705 5.51228E+00 2.50494E+00 8.89010E+00
 -1      1706 4.64867E+00 3.35484E+00 9.21480E+00
 -1      1707 5.19059E+00 3.94714E+00 8.41230E+00
 -1      1708 4.24832E+00 1.25006E+00 4.79583E+00
 -1      1709 5.03741E+00 1.01410E+00 5.39315E+00
 -1      1710 2.82206E+00 9.22169E+00 4.01955E+00
 -1      1711 6.33762E+00 8.99114E+00 1.77712E+00
 -1      1712 5.64146E+00 8.24282E+00 1.02058E+00
 -1      1713 6.68010E+00 9.25168E+00 7.56540E-01
 -1      1714 7.01943E+00 8.26978E+00 9.81125E-01
 -1      1715 4.67144E+00 5.82720E+00 9.19844E+00
 -1      1716 4.37132E+00 5.32382E+00 8.04286E+00
 -1      1717 2.82827E+00 5.78917E+00 2.60013E+00
 -1      1718 8.20163E-01 6.53340E+00 5.97878E+00
 -1      1719 7.43026E+00 7.45314E+00 2.56742E+00
 -1      1720 2.17935E+00 5.46820E+00 8.13983E-01
 -1      1721 8.97322E+00 7.44985E+00 7.42840E+00
 -1      1722 9.16092E+00 6.61429E+00 6.61377E+00
 -1      1723 5.24204E+00 3.04307E+00 4.68508E+00
 -1      1724 6.03113E+00 2.80710E+00 5.28240E+00
 -1      1725 9.28164E+00 4.18474E+00 8.43926E-01
 -1      1726 9.16944E+00 3.94592E+00 2.26513E+00
 -1      1727 1.14155E+00 7.30076E+00 5.32897E+00
 -1      1728 7.13443E+00 8.81863E+00 4.74904E+00
 -1      1729 1.02577E+00 5.78226E+00 2.64457E+00
 -1      1730 8.20163E-01 6.69240E+00 5.26837E+00
 -1      1731 1.84593E+00 5.99447E+00 4.86668E+00
 -1      1732 8.20163E-01 5.98494E+00 5.57067E+00
 -1      1733 4.75732E+00 8.99114E+00 2.58609E+00
 -1      1734 6.98687E+00 3.01130E+00 4.69901E+00
 -1      1735 9.98277E-01 2.50782E+00 7.46046E+00
 -1      1736 9.98277E-01 1.70111E+00 7.74410E+00
 -1      1737 5.89486E+00 9.25168E+00 5.74373E-01
 -1      1738 5.55237E+00 8.99114E+00 1.59496E+00
 -1      1739 8.82112E+00 4.47796E+00 4.60174E+00
 -1      1740 8.82112E+00 4.45949E+00 3.79756E+00
 -1      1741 9.16944E+00 3.96929E+00 3.92583E+00
 -1      1742 9.16944E+00 3.95082E+00 3.12166E+00
 -1      1743 7.99056E+00 4.19661E+00 3.51831E+00
 -1      1744 7.47385E+00 2.55294E+00 8.98741E+00
 -1      1745 5.21792E+00 6.55001E+00 2.17675E+00
 -1      1746 2.80822E+00 8.87762E+00 4.52948E+00
 -1      1747 3.64774E+00 9.22169E+00 4.02819E+00
 -1      1748 8.82112E+00 3.77050E+00 4.29944E+00
 -1      1749 9.16944E+00 3.26182E+00 3.62353E+00
 -1      1750 6.11431E+00 4.09463E+00 9.19750E+00
 -1      1751 4.71865E+00 4.06711E+00 9.21480E+00
 -1      1752 8.09774E+00 2.38242E+00 5.43805E+00
 -1      1753 2.65168E+00 4.05226E+00 9.21480E+00
 -1      1754 1.85804E+00 7.65638E+00 1.06207E+00
 -1      1755 6.24740E+00 2.65025E+00 8.89010E+00
 -1      1756 3.46314E+00 4.06930E+00 9.21480E+00
 -1      1757 2.47857E+00 1.07972E+00 6.25908E+00
 -1      1758 2.99676E+00 1.87474E+00 5.70968E+00
 -1      1759 9.74811E-01 7.78739E+00 8.33023E+00
 -1      1760 5.23441E+00 7.18749E+00 2.93583E+00
 -1      1761 6.03859E+00 5.98789E+00 7.96987E-01
 -1      1762 4.63744E+00 5.82162E+00 7.99486E-01
 -1      1763 2.69377E+00 4.52790E+00 8.85752E+00
 -1      1764 7.22971E+00 7.61669E+00 3.41773E+00
 -1      1765 8.20163E-01 5.27532E+00 5.98271E+00
 -1      1766 8.20163E-01 5.35905E+00 6.67101E+00
 -1      1767 8.20163E-01 5.99701E+00 6.39937E+00
 -1      1768 1.06653E+00 2.59208E+00 6.15810E+00
 -1      1769 8.52680E-01 3.29854E+00 6.70943E+00
 -1      1770 1.91921E+00 2.86591E+00 5.94188E+00
 -1      1771 1.68302E+00 9.95462E-01 7.76205E+00
 -1      1772 1.57434E+00 6.25617E+00 8.13983E-01
 -1      1773 3.36980E+00 6.53328E+00 5.82123E+00
 -1      1774 3.55280E+00 7.70635E+00 4.96714E+00
 -1      1775 4.39232E+00 8.05042E+00 4.46585E+00
 -1      1776 8.97883E+00 2.45035E+00 2.45759E+00
 -1      1777 8.86783E+00 2.63489E+00 3.72116E+00
 -1      1778 6.77945E+00 3.52768E+00 9.19750E+00
 -1      1779 1.23652E+00 4.58075E+00 5.61083E+00
 -1      1780 5.54999E+00 8.99114E+00 2.38169E+00
 -1      1781 5.03486E+00 4.91323E+00 6.34441E+00
 -1      1782 6.05230E+00 7.42618E+00 2.60688E+00
 -1      1783 5.58879E+00 8.17113E+00 2.89865E+00
 -1      1784 7.46565E+00 9.28512E+00 7.56540E-01
 -1      1785 7.80498E+00 8.30322E+00 9.81125E-01
 -1      1786 8.94906E+00 5.34165E+00 2.42045E+00
 -1      1787 8.82112E+00 5.05277E+00 3.48655E+00
 -1      1788 9.16676E+00 5.90398E+00 3.43372E+00
 -1      1789 2.05668E+00 5.52594E+00 5.76020E+00
 -1      1790 3.78595E+00 5.53529E+00 7.39618E+00
 -1      1791 2.90099E+00 3.93867E+00 7.33727E+00
 -1      1792 9.16944E+00 4.54410E+00 2.81065E+00
 -1      1793 8.38994E-01 3.96794E+00 4.25148E+00
 -1      1794 8.11849E+00 4.48549E+00 2.45221E+00
 -1      1795 2.62557E+00 3.30644E+00 6.72635E+00
 -1      1796 2.08920E+00 4.20187E+00 5.94077E+00
 -1      1797 9.16944E+00 3.26056E+00 2.83724E+00
 -1      1798 8.03727E+00 3.06226E+00 3.72633E+00
 -1      1799 5.09354E+00 8.40994E-01 9.25309E+00
 -1      1800 8.82112E+00 5.17170E+00 4.20821E+00
 -1      1801 7.12734E+00 9.18166E+00 3.93777E+00
 -1      1802 7.66088E+00 8.00029E+00 4.47415E+00
 -1      1803 7.43736E+00 9.18166E+00 4.53309E+00
 -1      1804 5.51228E+00 1.10990E+00 7.49506E+00
 -1      1805 4.68143E+00 7.95017E-01 6.61938E+00
 -1      1806 8.23070E+00 4.72431E+00 1.03100E+00
 -1      1807 7.54633E+00 4.14932E+00 8.06774E-01
 -1      1808 7.43413E+00 3.91050E+00 2.22798E+00
 -1      1809 6.46834E+00 5.13776E+00 1.60376E+00
 -1      1810 1.12810E+00 5.30517E+00 7.19086E+00
 -1      1811 5.66330E+00 1.01410E+00 6.49349E+00
 -1      1812 4.84232E+00 1.80912E+00 5.90293E+00
 -1      1813 8.86783E+00 2.63615E+00 4.50745E+00
 -1      1814 7.68895E+00 3.57093E+00 4.40223E+00
 -1      1815 8.52680E-01 3.95125E+00 6.16327E+00
 -1      1816 8.52680E-01 4.03498E+00 6.85157E+00
 -1      1817 1.67284E+00 4.89644E+00 6.31265E+00
 -1      1818 9.16676E+00 6.02292E+00 4.15538E+00
 -1      1819 5.40337E+00 5.47554E+00 1.15617E+00
 -1      1820 4.49459E+00 8.82873E+00 5.38585E+00
 -1      1821 5.78857E+00 6.26758E+00 2.71223E+00
 -1      1822 4.45680E+00 3.24765E+00 2.81241E+00
 -1      1823 2.93385E+00 7.00274E+00 4.80844E+00
 -1      1824 4.05555E+00 7.95017E-01 5.51904E+00
 -1      1825 4.05323E+00 2.04508E+00 5.30561E+00
 -1      1826 9.15413E+00 9.27831E+00 5.02688E+00
 -1      1827 7.98811E+00 8.81863E+00 4.75293E+00
 -1      1828 5.29589E+00 3.52319E+00 7.73451E+00
 -1      1829 4.43229E+00 4.37309E+00 8.05921E+00
 -1      1830 3.34809E+00 7.95017E-01 5.21674E+00
 -1      1831 5.03377E+00 9.16243E+00 9.26692E+00
 -1      1832 1.12810E+00 4.66722E+00 7.46249E+00
 -1      1833 1.02577E+00 5.77737E+00 3.50110E+00
 -1      1834 9.19609E+00 4.36326E+00 5.42534E+00
 -1      1835 9.19609E+00 3.81481E+00 5.83345E+00
 -1      1836 9.19609E+00 3.65580E+00 5.12304E+00
 -1      1837 1.10150E+00 7.73885E+00 1.74022E+00
 -1      1838 9.15413E+00 9.27907E+00 4.19773E+00
 -1      1839 8.83398E+00 8.09770E+00 4.73023E+00
 -1      1840 7.25491E+00 3.33035E+00 2.92119E+00
 -1      1841 8.87050E+00 5.41009E+00 7.49137E+00
 -1      1842 9.16092E+00 5.87785E+00 6.75592E+00
 -1      1843 7.54213E-01 4.98784E+00 9.15901E+00
 -1      1844 4.76517E+00 7.95017E-01 5.93108E+00
 -1      1845 5.74703E+00 1.01410E+00 5.80519E+00
 -1      1846 7.26019E+00 5.32103E+00 6.84995E+00
 -1      1847 8.38994E-01 3.95207E+00 5.05704E+00
 -1      1848 7.98102E+00 9.18166E+00 3.94165E+00
 -1      1849 8.82690E+00 8.46073E+00 3.91896E+00
 -1      1850 8.50823E+00 1.16413E+00 6.04959E+00
 -1      1851 2.64339E+00 1.07972E+00 5.60801E+00
 -1      1852 3.50709E+00 7.95017E-01 5.92715E+00
 -1      1853 9.16676E+00 7.48292E+00 4.13179E+00
 -1      1854 7.99366E+00 7.38551E+00 3.87571E+00
 -1      1855 9.19609E+00 5.05701E+00 5.03181E+00
 -1      1856 9.19609E+00 5.07288E+00 5.83738E+00
 -1      1857 9.16676E+00 6.03879E+00 4.96094E+00
 -1      1858 8.36285E+00 5.44180E+00 4.96499E+00
 -1      1859 8.86783E+00 2.79515E+00 5.21786E+00
 -1      1860 8.06392E+00 3.45624E+00 5.22583E+00
 -1      1861 9.27907E+00 7.54213E-01 4.99507E+00
 -1      1862 9.27831E+00 7.54213E-01 5.82422E+00
 -1      1863 8.86783E+00 1.97250E+00 5.21268E+00
 -1      1864 8.14614E+00 1.21829E+00 5.22179E+00
 -1      1865 8.40994E-01 9.24579E+00 5.01216E+00
 -1      1866 2.61246E+00 6.23537E+00 5.45825E+00
 -1      1867 8.28188E+00 1.01259E+00 7.73388E+00
 -1      1868 8.52427E+00 1.16413E+00 6.87939E+00
 -1      1869 9.02745E+00 8.31246E+00 2.23466E+00
 -1      1870 8.82690E+00 7.66550E+00 3.37626E+00
 -1      1871 8.82690E+00 8.47601E+00 3.08497E+00
 -1      1872 8.17799E-01 5.46119E+00 2.51444E+00
 -1      1873 5.35600E+00 4.52058E+00 8.84441E+00
 -1      1874 4.40241E+00 6.99937E+00 9.09094E+00
 -1      1875 3.94846E+00 6.19773E+00 9.19844E+00
 -1      1876 5.10365E+00 4.24636E+00 6.97509E+00
 -1      1877 5.95852E+00 4.49522E+00 6.09422E+00
 -1      1878 9.22991E+00 1.91835E+00 6.04048E+00
 -1      1879 8.35701E+00 5.36459E+00 6.07166E+00
 -1      1880 9.16092E+00 5.96158E+00 6.06762E+00
 -1      1881 8.32768E+00 6.33050E+00 5.19523E+00
 -1      1882 5.32991E+00 2.94299E+00 7.02078E+00
 -1      1883 4.46631E+00 3.79289E+00 7.34548E+00
 -1      1884 6.68281E+00 4.64947E+00 7.16104E+00
 -1      1885 9.28224E+00 5.01446E+00 9.15901E+00
 -1      1886 1.39226E+00 5.47085E+00 8.13983E-01
 -1      1887 9.19609E+00 4.98915E+00 6.52568E+00
 -1      1888 6.06727E+00 4.12487E+00 7.13766E+00
 -1      1889 6.92214E+00 4.37373E+00 6.25679E+00
 -1      1890 7.26005E+00 6.58427E+00 6.67612E+00
 -1      1891 7.99490E+00 6.94527E+00 5.79366E+00
 -1      1892 9.22991E+00 2.74099E+00 6.04566E+00
 -1      1893 8.42601E+00 3.40208E+00 6.05363E+00
 -1      1894 8.01721E+00 4.59059E+00 5.01782E+00
 -1      1895 8.94906E+00 4.74347E+00 1.87493E+00
 -1      1896 9.30361E+00 9.27907E+00 3.36533E+00
 -1      1897 9.30361E+00 9.29436E+00 2.53134E+00
 -1      1898 8.13051E+00 9.18166E+00 3.10925E+00
 -1      1899 6.50872E+00 4.45515E+00 5.35743E+00
 -1      1900 2.80213E+00 4.41094E+00 6.44434E+00
 -1      1901 4.66049E+00 4.91728E+00 8.84441E+00
 -1      1902 3.96218E+00 5.41453E+00 9.19844E+00
 -1      1903 6.10129E+00 3.54467E+00 6.42393E+00
 -1      1904 8.83398E+00 7.36376E+00 5.16429E+00
 -1      1905 9.16092E+00 7.40496E+00 6.06762E+00
 -1      1906 9.16092E+00 6.67177E+00 5.67253E+00
 -1      1907 3.07755E+00 5.04317E+00 7.05526E+00
 -1      1908 2.36462E+00 4.83411E+00 6.55169E+00
 -1      1909 4.90663E+00 8.82873E+00 4.67623E+00
 -1      1910 5.43467E+00 9.18000E+00 4.00339E+00
 -1      1911 5.48093E+00 2.84718E+00 6.01920E+00
 -1      1912 4.49907E+00 2.62810E+00 6.14509E+00
 -1      1913 6.05799E-01 6.10042E-01 1.21584E+00
 -1      1914 6.56536E-01 6.10042E-01 1.81908E+00
 -1      1915 1.66884E+00 1.04643E+00 1.67896E+00
 -1      1916 1.06304E+00 1.65647E+00 1.68320E+00
 -1      1917 8.33106E+00 9.01810E+00 2.25894E+00
 -1      1918 1.21584E+00 6.10042E-01 6.05799E-01
 -1      1919 6.10042E-01 1.22008E+00 6.10042E-01
 -1      1920 1.67308E+00 1.65647E+00 1.07316E+00
 -1      1921 6.84747E-01 1.84563E+00 6.10042E-01
 -1      1922 4.56599E+00 7.41805E+00 3.83019E+00
 -1      1923 9.16676E+00 6.74898E+00 4.56586E+00
 -1      1924 9.29436E+00 6.84747E-01 7.51088E+00
 -1      1925 9.27831E+00 6.84747E-01 6.68108E+00
 -1      1926 9.22991E+00 1.84888E+00 6.89734E+00
 -1      1927 7.55060E+00 5.78879E+00 6.11449E+00
 -1      1928 5.04713E+00 9.18000E+00 3.44358E+00
 -1      1929 4.92037E+00 8.40169E+00 3.79301E+00
 -1      1930 5.68788E+00 3.62609E+00 5.52456E+00
 -1      1931 4.47644E+00 9.22169E+00 4.04026E+00
 -1      1932 7.98204E+00 5.47929E+00 5.24806E+00
 -1      1933 1.83944E+00 6.10042E-01 6.78151E-01
 -1      1934 8.98752E+00 1.69734E+00 7.75182E+00
 -1      1935 5.00376E+00 9.16243E+00 5.74373E-01
 -1      1936 6.09963E+00 4.98320E+00 8.06774E-01
 -1      1937 9.28224E+00 5.01181E+00 8.43926E-01
 -1      1938 7.58577E+00 4.90009E+00 5.88425E+00
 -1      1939 6.84747E-01 7.05643E-01 7.51088E+00
 -1      1940 6.84747E-01 7.21688E-01 6.68108E+00
 -1      1941 1.69167E+00 3.57319E+00 5.38698E+00
 -1      1942 5.86196E+00 3.82041E+00 7.32818E+00
 -1      1943 7.31513E+00 4.03095E+00 5.31459E+00
 -1      1944 7.54213E-01 7.20930E-01 4.99507E+00
 -1      1945 9.38996E+00 6.05799E-01 1.21584E+00
 -1      1946 9.38996E+00 6.56536E-01 1.81908E+00
 -1      1947 8.36879E+00 1.03375E+00 1.65160E+00
 -1      1948 8.97883E+00 1.63955E+00 1.64735E+00
 -1      1949 7.40029E+00 2.92988E+00 5.59837E+00
 -1      1950 6.65149E+00 3.50459E+00 5.68713E+00
 -1      1951 2.76961E+00 5.73501E+00 6.26378E+00
 -1      1952 4.02314E+00 4.46381E+00 9.21480E+00
 -1      1953 8.16748E+00 9.28512E+00 9.38996E+00
 -1      1954 8.36318E+00 8.96221E+00 8.35553E+00
 -1      1955 8.77991E+00 9.38996E+00 9.38996E+00
 -1      1956 8.36318E+00 8.35217E+00 8.96558E+00
 -1      1957 9.38996E+00 9.38996E+00 8.77991E+00
 -1      1958 9.38996E+00 8.77991E+00 9.38996E+00
 -1      1959 8.97322E+00 8.35217E+00 8.35553E+00
 -1      1960 8.77991E+00 6.10042E-01 6.10042E-01
 -1      1961 9.38996E+00 1.21584E+00 6.05799E-01
 -1      1962 8.36879E+00 1.64379E+00 1.04155E+00
 -1      1963 3.40217E+00 5.02002E+00 9.19844E+00
 -1      1964 3.73397E+00 4.87035E+00 8.41324E+00
 -1      1965 8.14728E+00 6.93603E-01 6.10042E-01
 -1      1966 9.30594E+00 9.38996E+00 8.14697E+00
 -1      1967 9.38996E+00 8.14744E+00 9.30678E+00
 -1      1968 3.84692E+00 4.58456E+00 7.41254E+00
 -1      1969 9.38996E+00 1.83944E+00 6.78151E-01
 -1      1970 3.77337E+00 7.34681E+00 4.30716E+00
 -1      1971 9.38996E+00 6.84747E-01 8.15437E+00
 -1      1972 8.37748E+00 1.01259E+00 8.37737E+00
 -1      1973 1.84563E+00 9.38996E+00 6.84747E-01
 -1      1974 1.71154E+00 8.35821E+00 1.06207E+00
 -1      1975 1.06653E+00 2.53459E+00 5.21685E+00
 -1      1976 8.38994E-01 3.24188E+00 4.66195E+00
 -1      1977 9.38996E+00 6.10042E-01 8.77991E+00
 -1      1978 8.98752E+00 1.62263E+00 8.37737E+00
 -1      1979 9.22991E+00 3.27738E+00 6.46626E+00
 -1      1980 9.38996E+00 1.84857E+00 9.30581E+00
 -1      1981 8.37748E+00 1.62263E+00 8.98741E+00
 -1      1982 6.10042E-01 9.39420E+00 1.21584E+00
 -1      1983 6.10042E-01 9.34346E+00 1.81908E+00
 -1      1984 1.71154E+00 8.96825E+00 1.67211E+00
 -1      1985 1.10150E+00 8.36245E+00 1.66786E+00
 -1      1986 9.38996E+00 1.22008E+00 9.38996E+00
 -1      1987 1.22008E+00 9.38996E+00 6.10042E-01
 -1      1988 8.77991E+00 6.10042E-01 9.38996E+00
 -1      1989 8.14728E+00 6.93603E-01 9.38996E+00
 -1      1990 6.84747E-01 6.10042E-01 8.15437E+00
 -1      1991 9.98277E-01 1.60550E+00 8.38759E+00
 -1      1992 6.84747E-01 1.84563E+00 9.38996E+00
 -1      1993 6.10042E-01 1.22008E+00 9.38996E+00
 -1      1994 1.60832E+00 1.60550E+00 8.99764E+00
 -1      1995 5.83980E+00 9.18000E+00 3.23918E+00
 -1      1996 6.10042E-01 6.10042E-01 8.77991E+00
 -1      1997 1.60832E+00 9.95462E-01 8.38759E+00
 -1      1998 1.86357E+00 9.38996E+00 9.29436E+00
 -1      1999 1.58485E+00 8.41588E+00 9.02442E+00
 -1      2000 6.10042E-01 8.78416E+00 6.05799E-01
 -1      2001 8.52680E-01 3.24106E+00 5.76819E+00
 -1      2002 1.84857E+00 6.10042E-01 9.30581E+00
 -1      2003 1.22008E+00 6.10042E-01 9.38996E+00
 -1      2004 9.38996E+00 9.29436E+00 1.86357E+00
 -1      2005 8.41741E+00 9.01810E+00 1.59117E+00
 -1      2006 7.50689E+00 5.14030E+00 1.03100E+00
 -1      2007 7.48590E+00 5.98108E+00 7.96987E-01
 -1      2008 6.76149E+00 5.57000E+00 7.96987E-01
 -1      2009 6.10042E-01 8.16056E+00 6.78151E-01
 -1      2010 1.22008E+00 9.38996E+00 9.38996E+00
 -1      2011 1.58485E+00 9.02592E+00 8.41438E+00
 -1      2012 9.38996E+00 9.38996E+00 1.22008E+00
 -1      2013 9.02745E+00 8.40806E+00 1.59117E+00
 -1      2014 9.22991E+00 2.58199E+00 5.33526E+00
 -1      2015 6.82252E+00 4.56531E+00 8.06774E-01
 -1      2016 4.22769E+00 7.30685E+00 4.06098E+00
 -1      2017 5.74460E-01 6.66428E+00 9.30581E+00
 -1      2018 5.74460E-01 5.80086E+00 8.43926E-01
 -1      2019 5.74460E-01 6.67341E+00 6.78151E-01
 -1      2020 8.17799E-01 5.06804E+00 8.13983E-01
 -1      2021 6.10042E-01 9.31525E+00 8.15437E+00
 -1      2022 6.10042E-01 9.38996E+00 8.77991E+00
 -1      2023 9.74811E-01 8.41588E+00 8.41438E+00
 -1      2024 8.16748E+00 9.28512E+00 6.10042E-01
 -1      2025 8.77991E+00 9.38996E+00 6.10042E-01
 -1      2026 8.41741E+00 8.40806E+00 9.81125E-01
 -1      2027 6.10042E-01 8.15143E+00 9.30581E+00
 -1      2028 6.10042E-01 8.77991E+00 9.38996E+00
 -1      2029 9.38996E+00 8.77991E+00 6.10042E-01
 -1      2030 9.38996E+00 8.14698E+00 6.94135E-01
 -1      2031 7.56540E-01 7.44960E+00 9.30581E+00
 -1      2032 7.56540E-01 7.45873E+00 6.78151E-01
 -1      2033 7.65577E+00 3.38431E+00 1.42120E+00
 -1      2034 8.17799E-01 6.33864E+00 1.49213E+00
 -3
    3C                          1095                                     1
 -1       621    6    0    1
 -2       484       466      1090      1094       601      1146      1147      1148      1150      1149
 -1       622    6    0    1
 -2       484       469      1094      1110       600      1151      1148      1152      1154      1153
 -1       623    6    0    1
 -2       484      1094      1090      1110      1148      1149      1147      1152      1153      1155
 -1       624    6    0    1
 -2       787      1086       473      1112      1156      1157      1158      1159      1161      1160
 -1       625    6    0    1
 -2       794      1100       628      1114      1162      1163      1164      1165      1167      1166
 -1       626    6    0    1
 -2       787       473      1086      1101      1158      1157      1156      1168      1170      1169
 -1       627    6    0    1
 -2      1094      1102       470      1111      1171      1172      1173      1174      1176      1175
 -1       628    6    0    1
 -2       152      1091      1095      1099      1177      1178      1179      1180      1182      1181
 -1       629    6    0    1
 -2       940       939       950      1143      1074      1078      1077      1183      1185      1184
 -1       630    6    0    1
 -2       940       950      1110      1143      1077      1186      1187      1183      1184      1188
 -1       631    6    0    1
 -2       481      1094       469      1110      1189      1151       609      1190      1153      1154
 -1       632    6    0    1
 -2       484       469       466      1094       600       599       601      1148      1151      1150
 -1       633    6    0    1
 -2       311      1089      1103      1123      1191      1192      1193      1194      1196      1195
 -1       634    6    0    1
 -2       481      1102      1094      1110      1197      1171      1189      1190      1198      1153
 -1       635    6    0    1
 -2       786      1091       160      1108      1199      1200      1201      1202      1204      1203
 -1       636    6    0    1
 -2      1084      1113      1107      1141      1205      1206      1207      1208      1210      1209
 -1       637    6    0    1
 -2       316       311      1089      1103       450      1191      1211      1212      1193      1192
 -1       638    6    0    1
 -2       316      1103      1089      1109      1212      1192      1211      1213      1215      1214
 -1       639    6    0    1
 -2       785      1100       794      1114      1216      1162       870      1217      1167      1165
 -1       640    6    0    1
 -2       481       470      1094      1102       608      1173      1189      1197      1172      1171
 -1       641    6    0    1
 -2       325       316       311      1089       426       450       449      1218      1211      1191
 -1       642    6    0    1
 -2       940      1096       939      1143      1219      1220      1074      1183      1221      1185
 -1       643    6    0    1
 -2      1090      1094       466      1118      1149      1150      1146      1222      1224      1223
 -1       644    6    0    1
 -2      1090       466      1106      1118      1146      1225      1226      1222      1223      1227
 -1       645    6    0    1
 -2       457       484      1090      1110       565      1147      1228      1229      1152      1155
 -1       646    6    0    1
 -2       940      1110      1096      1143      1187      1230      1219      1183      1188      1221
 -1       647    6    0    1
 -2       786       160      1091      1117      1201      1200      1199      1231      1233      1232
 -1       648    6    0    1
 -2       613      1098      1114      1124      1234      1235      1236      1237      1239      1238
 -1       649    6    0    1
 -2      1102      1111      1094      1129      1176      1174      1171      1240      1242      1241
 -1       650    6    0    1
 -2       316      1089       325      1109      1211      1218       426      1213      1214      1243
 -1       651    6    0    1
 -2       457      1090       927      1110      1228      1244      1245      1229      1155      1246
 -1       652    6    0    1
 -2       950      1087      1110      1143      1247      1248      1186      1184      1249      1188
 -1       653    6    0    1
 -2       149      1114      1098      1132      1250      1235      1251      1252      1254      1253
 -1       654    6    0    1
 -2       157      1091       152      1099      1255      1177       279      1256      1182      1180
 -1       655    6    0    1
 -2       927      1090       457      1104      1244      1228      1245      1257      1259      1258
 -1       656    6    0    1
 -2       628      1114      1100      1124      1166      1167      1163      1260      1238      1261
 -1       657    6    0    1
 -2       152      1095      1091      1132      1179      1178      1177      1262      1264      1263
 -1       658    6    0    1
 -2      1103      1109       316      1136      1215      1213      1212      1265      1267      1266
 -1       659    6    0    1
 -2      1086      1112       787      1145      1161      1159      1156      1268      1270      1269
 -1       660    6    0    1
 -2       473      1112      1086      1139      1160      1161      1157      1271      1273      1272
 -1       661    6    0    1
 -2      1099      1119      1095      1126      1274      1275      1181      1276      1278      1277
 -1       662    6    0    1
 -2      1087      1102      1094      1129      1279      1171      1280      1281      1240      1241
 -1       663    6    0    1
 -2       149       141      1098      1114       240      1282      1251      1250      1283      1235
 -1       664    6    0    1
 -2       952      1113      1084      1143      1284      1205      1285      1286      1288      1287
 -1       665    6    0    1
 -2       780      1097      1091      1103      1289      1290      1291      1292      1294      1293
 -1       666    6    0    1
 -2      1098      1114      1088      1132      1235      1295      1296      1253      1254      1297
 -1       667    6    0    1
 -2      1083      1092      1122      1138      1298      1299      1300      1301      1303      1302
 -1       668    6    0    1
 -2       787      1101      1086      1145      1168      1169      1156      1269      1304      1268
 -1       669    6    0    1
 -2       473      1086      1101      1139      1157      1169      1170      1271      1272      1305
 -1       670    6    0    1
 -2       141       613      1098      1114      1306      1234      1282      1283      1236      1235
 -1       671    6    0    1
 -2       149      1098       170      1132      1251      1307       241      1252      1253      1308
 -1       672    6    0    1
 -2       149       141       170      1098       240       242       241      1251      1282      1307
 -1       673    6    0    1
 -2       152      1091       150      1132      1177      1309       276      1262      1263      1310
 -1       674    6    0    1
 -2       777       316      1109      1136      1311      1213      1312      1313      1266      1267
 -1       675    6    0    1
 -2       785      1100      1114      1135      1216      1167      1217      1314      1316      1315
 -1       676    6    0    1
 -2      1084      1121      1087      1138      1317      1318      1319      1320      1322      1321
 -1       677    6    0    1
 -2      1107      1113       143      1141      1206      1323      1324      1209      1210      1325
 -1       678    6    0    1
 -2       631       641      1087      1120       726      1326      1327      1328      1330      1329
 -1       679    6    0    1
 -2      1100      1114      1088      1124      1167      1295      1331      1261      1238      1332
 -1       680    6    0    1
 -2      1084      1126      1121      1138      1333      1334      1317      1320      1335      1322
 -1       681    6    0    1
 -2      1083      1093      1094      1127      1336      1337      1338      1339      1341      1340
 -1       682    6    0    1
 -2       950       953      1087      1120      1042      1342      1247      1343      1344      1329
 -1       683    6    0    1
 -2      1088      1114      1098      1124      1295      1235      1296      1332      1238      1239
 -1       684    6    0    1
 -2       466       474      1090      1106       591      1345      1146      1225      1346      1226
 -1       685    6    0    1
 -2      1085      1119      1099      1126      1347      1274      1348      1349      1278      1276
 -1       686    6    0    1
 -2       631      1087      1102      1120      1327      1279      1350      1328      1329      1351
 -1       687    6    0    1
 -2       952       941      1113      1143      1025      1352      1284      1286      1353      1288
 -1       688    6    0    1
 -2       927      1090       955      1110      1244      1354      1032      1246      1155      1355
 -1       689    6    0    1
 -2       160      1091       157      1108      1200      1255       266      1203      1204      1356
 -1       690    6    0    1
 -2       169       157       152      1099       247       279       287      1357      1256      1180
 -1       691    6    0    1
 -2      1096      1110      1087      1143      1230      1248      1358      1221      1188      1249
 -1       692    6    0    1
 -2      1084      1087      1096      1138      1319      1358      1359      1320      1321      1360
 -1       693    6    0    1
 -2      1084      1096      1126      1138      1359      1361      1333      1320      1360      1335
 -1       694    6    0    1
 -2       780      1091       779      1103      1291      1362       905      1292      1293      1363
 -1       695    6    0    1
 -2       630      1111      1102      1129      1364      1176      1365      1366      1242      1240
 -1       696    6    0    1
 -2      1085      1096      1092      1126      1367      1368      1369      1349      1361      1370
 -1       697    6    0    1
 -2       482      1112       473      1139      1371      1160       583      1372      1273      1271
 -1       698    6    0    1
 -2       150      1091       160      1117      1309      1200       260      1373      1232      1233
 -1       699    6    0    1
 -2       157       150       152      1091       278       276       279      1255      1309      1177
 -1       700    6    0    1
 -2       953      1102      1087      1120      1374      1279      1342      1344      1351      1329
 -1       701    6    0    1
 -2       481       470       469      1094       608       605       609      1189      1173      1151
 -1       702    6    0    1
 -2       777      1103       316      1136      1375      1212      1311      1313      1265      1266
 -1       703    6    0    1
 -2       786      1091       797      1117      1199      1376       889      1231      1232      1377
 -1       704    6    0    1
 -2       630       479      1102      1111      1378      1379      1365      1364      1380      1176
 -1       705    6    0    1
 -2      1091      1095      1083      1137      1178      1381      1382      1383      1385      1384
 -1       706    6    0    1
 -2       470      1102       479      1111      1172      1379       558      1175      1176      1380
 -1       707    6    0    1
 -2       945       955       927      1090      1035      1032      1033      1386      1354      1244
 -1       708    6    0    1
 -2       152      1099      1095      1125      1180      1181      1179      1387      1389      1388
 -1       709    6    0    1
 -2      1089      1109      1103      1136      1214      1215      1192      1390      1267      1265
 -1       710    6    0    1
 -2       484       474       457      1090       569       568       565      1147      1345      1228
 -1       711    6    0    1
 -2      1086      1094      1093      1127      1391      1337      1392      1393      1340      1341
 -1       712    6    0    1
 -2       631      1102       614      1120      1350      1394       725      1328      1351      1395
 -1       713    6    0    1
 -2       786       779       797      1091       895       910       889      1199      1362      1376
 -1       714    6    0    1
 -2       631       614       641      1120       725       722       726      1328      1395      1330
 -1       715    6    0    1
 -2       167      1125      1115      1133      1396      1397      1398      1399      1401      1400
 -1       716    6    0    1
 -2      1085      1092      1096      1105      1369      1368      1367      1402      1404      1403
 -1       717    6    0    1
 -2       613      1114       639      1124      1236      1405       719      1237      1238      1406
 -1       718    6    0    1
 -2       639      1114       628      1124      1405      1166       737      1406      1238      1260
 -1       719    6    0    1
 -2       466       474       484      1090       591       569       601      1146      1345      1147
 -1       720    6    0    1
 -2       926       143      1107      1113      1407      1324      1408      1409      1323      1206
 -1       721    6    0    1
 -2      1095      1099      1091      1119      1181      1182      1178      1275      1274      1410
 -1       722    6    0    1
 -2      1092      1096      1090      1138      1368      1411      1412      1303      1360      1413
 -1       723    6    0    1
 -2      1092      1090      1122      1138      1412      1414      1299      1303      1413      1302
 -1       724    6    0    1
 -2      1088      1114      1100      1135      1295      1167      1331      1415      1315      1316
 -1       725    6    0    1
 -2       325      1109      1089      1142      1243      1214      1218      1416      1418      1417
 -1       726    6    0    1
 -2       796       787      1112      1145       901      1159      1419      1420      1269      1270
 -1       727    6    0    1
 -2       945      1090       927      1104      1386      1244      1033      1421      1259      1257
 -1       728    6    0    1
 -2       926       952       941      1113      1026      1025      1024      1409      1284      1352
 -1       729    6    0    1
 -2      1083      1094      1093      1138      1338      1337      1336      1301      1423      1422
 -1       730    6    0    1
 -2       786       779      1091      1108       895      1362      1199      1202      1424      1204
 -1       731    6    0    1
 -2       150       157       160      1091       278       266       260      1309      1255      1200
 -1       732    6    0    1
 -2       785       794       773      1114       870       859       891      1217      1165      1425
 -1       733    6    0    1
 -2      1088      1095      1091      1137      1426      1178      1427      1428      1385      1383
 -1       734    6    0    1
 -2      1097      1103       780      1136      1294      1292      1289      1429      1265      1430
 -1       735    6    0    1
 -2       950      1087       953      1110      1247      1342      1042      1186      1248      1431
 -1       736    6    0    1
 -2      1083      1093      1127      1137      1336      1341      1339      1384      1433      1432
 -1       737    6    0    1
 -2       143       168      1107      1141       254      1434      1324      1325      1435      1209
 -1       738    6    0    1
 -2      1094      1102      1087      1110      1171      1279      1280      1153      1198      1248
 -1       739    6    0    1
 -2       955      1090       945      1134      1354      1386      1035      1436      1438      1437
 -1       740    6    0    1
 -2      1084      1116      1087      1121      1439      1440      1319      1317      1441      1318
 -1       741    6    0    1
 -2       938      1096       940      1110      1442      1219      1073      1443      1230      1187
 -1       742    6    0    1
 -2       457      1090       474      1104      1228      1345       568      1258      1259      1444
 -1       743    6    0    1
 -2       461       776       787      1112      1445       846      1446      1447      1448      1159
 -1       744    6    0    1
 -2       152       169      1099      1125       287      1357      1180      1387      1449      1389
 -1       745    6    0    1
 -2       780      1091      1097      1117      1291      1290      1289      1450      1232      1451
 -1       746    6    0    1
 -2      1092      1119      1085      1126      1452      1347      1369      1370      1278      1349
 -1       747    6    0    1
 -2       157      1091      1099      1108      1255      1182      1256      1356      1204      1453
 -1       748    6    0    1
 -2      1096      1105      1092      1134      1403      1404      1368      1454      1456      1455
 -1       749    6    0    1
 -2       780       797      1091      1117       911      1376      1291      1450      1377      1232
 -1       750    6    0    1
 -2       638      1107      1098      1116      1457      1458      1459      1460      1462      1461
 -1       751    6    0    1
 -2      1083      1095      1119      1126      1381      1275      1463      1464      1277      1278
 -1       752    6    0    1
 -2       780       797       779      1091       911       910       905      1291      1376      1362
 -1       753    6    0    1
 -2       144       789       148      1114      1465      1466       224      1467      1469      1468
 -1       754    6    0    1
 -2       796      1112      1100      1145      1419      1470      1471      1420      1270      1472
 -1       755    6    0    1
 -2       459       472       933      1102       519      1473      1474      1475      1477      1476
 -1       756    6    0    1
 -2       150      1091      1117      1132      1309      1232      1373      1310      1263      1478
 -1       757    6    0    1
 -2       168      1098      1107      1141      1479      1458      1434      1435      1480      1209
 -1       758    6    0    1
 -2      1093      1094      1087      1138      1337      1280      1481      1422      1423      1321
 -1       759    6    0    1
 -2      1083      1095      1091      1119      1381      1178      1382      1463      1275      1410
 -1       760    6    0    1
 -2      1090      1096      1092      1134      1411      1368      1412      1438      1454      1455
 -1       761    6    0    1
 -2       933      1102       472      1110      1476      1477      1473      1482      1198      1483
 -1       762    6    0    1
 -2      1084      1107       952      1143      1207      1484      1285      1287      1485      1286
 -1       763    6    0    1
 -2      1099      1119      1085      1130      1274      1347      1348      1486      1488      1487
 -1       764    6    0    1
 -2       631      1087       641      1129      1327      1326       726      1489      1281      1490
 -1       765    6    0    1
 -2      1093      1094      1086      1111      1337      1391      1392      1491      1174      1492
 -1       766    6    0    1
 -2       772       789       144      1114       826      1465      1493      1494      1469      1467
 -1       767    6    0    1
 -2      1095      1125      1099      1126      1388      1389      1181      1277      1495      1276
 -1       768    6    0    1
 -2       304       775       777      1109      1496       833      1497      1498      1499      1312
 -1       769    6    0    1
 -2      1107      1116       638      1120      1462      1460      1457      1500      1502      1501
 -1       770    6    0    1
 -2      1085      1105      1096      1140      1402      1403      1367      1503      1505      1504
 -1       771    6    0    1
 -2      1096      1110       938      1134      1230      1443      1442      1454      1507      1506
 -1       772    6    0    1
 -2       772       795       789      1114       884       890       826      1494      1508      1469
 -1       773    6    0    1
 -2      1087      1094      1093      1129      1280      1337      1481      1281      1241      1509
 -1       774    6    0    1
 -2       461       787       473      1112      1446      1158       532      1447      1159      1160
 -1       775    6    0    1
 -2      1099      1125      1085      1126      1389      1510      1348      1276      1495      1349
 -1       776    6    0    1
 -2      1084      1096      1087      1143      1359      1358      1319      1287      1221      1249
 -1       777    6    0    1
 -2      1086      1127      1093      1137      1393      1341      1392      1511      1432      1433
 -1       778    6    0    1
 -2      1090      1104       945      1134      1259      1421      1386      1438      1512      1437
 -1       779    6    0    1
 -2      1087      1102       953      1110      1279      1374      1342      1248      1198      1431
 -1       780    6    0    1
 -2       158      1098       636      1107      1513      1514      1515      1516      1458      1517
 -1       781    6    0    1
 -2      1101      1109       463      1118      1518      1519      1520      1521      1523      1522
 -1       782    6    0    1
 -2      1083      1119      1092      1126      1463      1452      1298      1464      1278      1370
 -1       783    6    0    1
 -2       143       163       946      1107       198      1524      1525      1324      1527      1526
 -1       784    6    0    1
 -2       614      1102       928      1120      1394      1528      1529      1395      1351      1530
 -1       785    6    0    1
 -2       464      1106       466      1118      1531      1225       590      1532      1227      1223
 -1       786    6    0    1
 -2      1092      1085      1119      1130      1369      1347      1452      1533      1487      1488
 -1       787    6    0    1
 -2       926       946       952      1107       983      1030      1026      1408      1526      1484
 -1       788    6    0    1
 -2       953       928      1102      1120      1040      1528      1374      1344      1530      1351
 -1       789    6    0    1
 -2       932      1104       302      1131      1534      1535      1536      1537      1539      1538
 -1       790    6    0    1
 -2       785      1114       795      1135      1217      1508       892      1314      1315      1540
 -1       791    6    0    1
 -2       142      1099       298      1108      1541      1542      1543      1544      1453      1545
 -1       792    6    0    1
 -2       615      1100       769      1112      1546      1547      1548      1549      1470      1550
 -1       793    6    0    1
 -2      1087      1121      1093      1138      1318      1551      1481      1321      1322      1422
 -1       794    6    0    1
 -2       772      1114       144      1117      1494      1467      1493      1552      1554      1553
 -1       795    6    0    1
 -2      1093      1121      1083      1138      1551      1555      1336      1422      1322      1301
 -1       796    6    0    1
 -2       926       143       946      1107      1407      1525       983      1408      1324      1526
 -1       797    6    0    1
 -2       168      1098       158      1107      1479      1513       269      1434      1458      1516
 -1       798    6    0    1
 -2       940       938       939      1096      1073      1069      1074      1219      1442      1220
 -1       799    6    0    1
 -2       933       472       944      1110      1473      1556      1003      1482      1483      1557
 -1       800    6    0    1
 -2       641      1116      1087      1120      1558      1440      1326      1330      1502      1329
 -1       801    6    0    1
 -2       614       634       947      1102       695      1559      1560      1394      1562      1561
 -1       802    6    0    1
 -2       463      1118      1109      1142      1522      1523      1519      1563      1564      1418
 -1       803    6    0    1
 -2       144      1117      1114      1132      1553      1554      1467      1565      1478      1254
 -1       804    6    0    1
 -2      1091      1095      1088      1132      1178      1426      1427      1263      1264      1297
 -1       805    6    0    1
 -2       304       777       316      1109      1497      1311       375      1498      1312      1213
 -1       806    6    0    1
 -2      1091      1083      1119      1137      1382      1463      1410      1383      1384      1566
 -1       807    6    0    1
 -2       779      1103      1091      1108      1363      1293      1362      1424      1567      1204
 -1       808    6    0    1
 -2       473      1101       468      1139      1170      1568       607      1271      1305      1569
 -1       809    6    0    1
 -2       769      1100       796      1112      1547      1471       872      1550      1470      1419
 -1       810    6    0    1
 -2       636      1098       638      1107      1514      1459       768      1517      1458      1457
 -1       811    6    0    1
 -2       932       302       934      1131      1536      1570       990      1537      1538      1571
 -1       812    6    0    1
 -2       474      1104      1090      1106      1444      1259      1345      1346      1572      1226
 -1       813    6    0    1
 -2       954      1113       941      1140      1573      1352      1028      1574      1576      1575
 -1       814    6    0    1
 -2       772       795      1114      1117       884      1508      1494      1552      1577      1554
 -1       815    6    0    1
 -2       641      1087      1116      1129      1326      1440      1558      1490      1281      1578
 -1       816    6    0    1
 -2      1100      1112       615      1144      1470      1549      1546      1579      1581      1580
 -1       817    6    0    1
 -2       479       470       481      1102       558       608       611      1379      1172      1197
 -1       818    6    0    1
 -2       790       632       615      1112      1582       708      1583      1584      1585      1549
 -1       819    6    0    1
 -2      1094      1111      1093      1129      1174      1491      1337      1241      1242      1509
 -1       820    6    0    1
 -2       141       161       633      1114       211      1586      1587      1283      1589      1588
 -1       821    6    0    1
 -2       786       160       146      1108      1201       218      1590      1202      1203      1591
 -1       822    6    0    1
 -2       151      1132       170      1141      1592      1308       275      1593      1595      1594
 -1       823    6    0    1
 -2       478       618       479      1102      1596      1597       545      1598      1599      1379
 -1       824    6    0    1
 -2       141       633       613      1114      1587       669      1306      1283      1588      1236
 -1       825    6    0    1
 -2       466       464       474      1106       590       592       591      1225      1531      1346
 -1       826    6    0    1
 -2       771       301      1103      1108      1600      1601      1602      1603      1604      1567
 -1       827    6    0    1
 -2       955       938       940      1110      1075      1073      1076      1355      1443      1187
 -1       828    6    0    1
 -2       950      1120      1087      1143      1343      1329      1247      1184      1605      1249
 -1       829    6    0    1
 -2       170      1132      1098      1141      1308      1253      1307      1594      1595      1480
 -1       830    6    0    1
 -2      1088      1091      1117      1137      1427      1232      1606      1428      1383      1607
 -1       831    6    0    1
 -2       941      1140      1113      1143      1575      1576      1352      1353      1608      1288
 -1       832    6    0    1
 -2       929      1105       300      1115      1609      1610      1611      1612      1614      1613
 -1       833    6    0    1
 -2       146       774       786      1108      1615       820      1590      1591      1616      1202
 -1       834    6    0    1
 -2       322       321       460      1104       388      1617      1618      1619      1621      1620
 -1       835    6    0    1
 -2       631      1102      1087      1129      1350      1279      1327      1489      1240      1281
 -1       836    6    0    1
 -2       614       947       928      1102      1560      1022      1529      1394      1561      1528
 -1       837    6    0    1
 -2      1089      1109      1101      1118      1214      1518      1622      1623      1523      1521
 -1       838    6    0    1
 -2       157      1099       142      1108      1256      1541       245      1356      1453      1544
 -1       839    6    0    1
 -2       142       298       305      1108      1543       355      1624      1544      1545      1625
 -1       840    6    0    1
 -2       457       927       944      1110      1245      1006      1626      1229      1246      1557
 -1       841    6    0    1
 -2       787       783      1101      1145       925      1627      1168      1269      1628      1304
 -1       842    6    0    1
 -2       631       630      1102      1129       739      1365      1350      1489      1366      1240
 -1       843    6    0    1
 -2       927       476       949      1104      1629      1630      1009      1257      1632      1631
 -1       844    6    0    1
 -2       770       458      1101      1109      1633      1634      1635      1636      1637      1518
 -1       845    6    0    1
 -2       457       472       484      1110       522       566       565      1229      1483      1152
 -1       846    6    0    1
 -2       142       305       162      1108      1624      1638       237      1544      1625      1639
 -1       847    6    0    1
 -2       317      1115      1105      1130      1640      1614      1641      1642      1644      1643
 -1       848    6    0    1
 -2      1098      1107      1084      1116      1458      1207      1645      1461      1462      1439
 -1       849    6    0    1
 -2       929       300       948      1115      1611      1646       996      1612      1613      1647
 -1       850    6    0    1
 -2      1103      1108       301      1128      1567      1604      1601      1648      1650      1649
 -1       851    6    0    1
 -2       629      1107       638      1120      1651      1457       732      1652      1500      1501
 -1       852    6    0    1
 -2       635       147       636      1107      1653      1654       663      1655      1656      1517
 -1       853    6    0    1
 -2       475       458       792      1109       538      1657      1658      1659      1637      1660
 -1       854    6    0    1
 -2       955       938      1110      1134      1075      1443      1355      1436      1506      1507
 -1       855    6    0    1
 -2       152       154       169      1125       285       288       287      1387      1661      1449
 -1       856    6    0    1
 -2       457       944       472      1110      1626      1556       522      1229      1557      1483
 -1       857    6    0    1
 -2       158       636       147      1107      1515      1654       205      1516      1517      1656
 -1       858    6    0    1
 -2      1114      1117       795      1135      1554      1577      1508      1315      1662      1540
 -1       859    6    0    1
 -2       771       791       301      1108       839      1663      1600      1603      1664      1604
 -1       860    6    0    1
 -2       638      1098       627      1116      1459      1665       765      1460      1461      1666
 -1       861    6    0    1
 -2       615       769       790      1112      1548       865      1583      1549      1550      1584
 -1       862    6    0    1
 -2      1109      1118      1089      1142      1523      1623      1214      1418      1564      1417
 -1       863    6    0    1
 -2       778       780      1103      1136       906      1292      1667      1668      1430      1265
 -1       864    6    0    1
 -2       936      1115      1113      1140      1669      1670      1671      1672      1673      1576
 -1       865    6    0    1
 -2       318       301       791      1108       381      1663      1674      1675      1604      1664
 -1       866    6    0    1
 -2       322      1104       471      1106      1619      1676      1677      1678      1572      1679
 -1       867    6    0    1
 -2       955      1110      1090      1134      1355      1155      1354      1436      1507      1438
 -1       868    6    0    1
 -2       942       952      1107      1143      1050      1484      1680      1681      1286      1485
 -1       869    6    0    1
 -2       300       319       948      1115       368      1682      1646      1613      1683      1647
 -1       870    6    0    1
 -2       168       143       165      1141       254       249       255      1435      1325      1684
 -1       871    6    0    1
 -2      1091      1119      1097      1137      1410      1685      1290      1383      1566      1686
 -1       872    6    0    1
 -2      1083      1095      1121      1137      1381      1687      1555      1384      1385      1688
 -1       873    6    0    1
 -2       618       630       479      1102       676      1378      1597      1599      1365      1379
 -1       874    6    0    1
 -2       456      1111       612      1112      1689      1690      1691      1692      1694      1693
 -1       875    6    0    1
 -2       778       780       779      1103       906       905       882      1667      1292      1363
 -1       876    6    0    1
 -2       623       624      1093      1116       751      1695      1696      1697      1699      1698
 -1       877    6    0    1
 -2       144       148       149      1114       224       257       256      1467      1468      1250
 -1       878    6    0    1
 -2       464      1118       463      1142      1532      1522       555      1700      1564      1563
 -1       879    6    0    1
 -2       471       322       460      1104      1677      1618       506      1676      1619      1620
 -1       880    6    0    1
 -2       950       928       953      1120      1038      1040      1042      1343      1530      1344
 -1       881    6    0    1
 -2       167       156       145      1115       262       261       263      1398      1702      1701
 -1       882    6    0    1
 -2       785       773       795      1114       891       893       892      1217      1425      1508
 -1       883    6    0    1
 -2       798      1136      1101      1145      1703      1704      1705      1706      1707      1304
 -1       884    6    0    1
 -2       466      1094       467      1118      1150      1708       594      1223      1224      1709
 -1       885    6    0    1
 -2      1097      1117      1091      1137      1451      1232      1290      1686      1607      1383
 -1       886    6    0    1
 -2       476       927       457      1104      1629      1245       525      1632      1257      1258
 -1       887    6    0    1
 -2       168       158      1098      1141       269      1513      1479      1435      1710      1480
 -1       888    6    0    1
 -2       300      1105       317      1115      1610      1641       411      1613      1614      1640
 -1       889    6    0    1
 -2       469       467       466      1094       598       594       599      1151      1708      1150
 -1       890    6    0    1
 -2       145      1113       943      1115      1711      1712      1713      1701      1670      1714
 -1       891    6    0    1
 -2       770       792       458      1109       852      1657      1633      1636      1660      1637
 -1       892    6    0    1
 -2       780      1117      1097      1135      1450      1451      1289      1715      1662      1716
 -1       893    6    0    1
 -2       943      1113       936      1115      1712      1671      1053      1714      1670      1669
 -1       894    6    0    1
 -2      1087      1116      1084      1143      1440      1439      1319      1249      1717      1287
 -1       895    6    0    1
 -2       637       613       639      1124       718       719       721      1718      1237      1406
 -1       896    6    0    1
 -2      1105      1115      1085      1130      1614      1719      1402      1643      1644      1487
 -1       897    6    0    1
 -2      1091      1088      1117      1132      1427      1606      1232      1263      1297      1478
 -1       898    6    0    1
 -2       771      1103       779      1108      1602      1363       881      1603      1567      1424
 -1       899    6    0    1
 -2       942      1107      1120      1143      1680      1500      1720      1681      1485      1605
 -1       900    6    0    1
 -2       306       301      1108      1128       414      1604      1721      1722      1649      1650
 -1       901    6    0    1
 -2      1094      1118      1090      1122      1224      1222      1149      1723      1724      1414
 -1       902    6    0    1
 -2       315       934       302      1131      1725      1570       362      1726      1571      1538
 -1       903    6    0    1
 -2       637      1098       613      1124      1727      1234       718      1718      1239      1237
 -1       904    6    0    1
 -2       154      1099       169      1125      1728      1357       288      1661      1389      1449
 -1       905    6    0    1
 -2       629       638      1116      1120       732      1460      1729      1652      1501      1502
 -1       906    6    0    1
 -2       474       471      1104      1106       579      1676      1444      1346      1679      1572
 -1       907    6    0    1
 -2       627       624      1116      1124       761      1699      1666      1730      1732      1731
 -1       908    6    0    1
 -2       143      1113       165      1141      1323      1733       249      1325      1210      1684
 -1       909    6    0    1
 -2      1090      1118      1106      1122      1222      1227      1226      1414      1724      1734
 -1       910    6    0    1
 -2       620       619       612      1112       710       682       711      1735      1736      1693
 -1       911    6    0    1
 -2      1087      1116      1093      1121      1440      1698      1481      1318      1441      1551
 -1       912    6    0    1
 -2       936       929       948      1115      1046       996      1047      1669      1612      1647
 -1       913    6    0    1
 -2      1084      1107      1098      1141      1207      1458      1645      1208      1209      1480
 -1       914    6    0    1
 -2       166       943       145      1113      1737      1713       192      1738      1712      1711
 -1       915    6    0    1
 -2       310      1092       312      1131      1739      1740       441      1741      1743      1742
 -1       916    6    0    1
 -2       777       775       788      1109       833       899       898      1312      1499      1744
 -1       917    6    0    1
 -2      1113      1140      1096      1143      1576      1504      1745      1288      1608      1221
 -1       918    6    0    1
 -2       468       482       473      1139       606       583       607      1569      1372      1271
 -1       919    6    0    1
 -2       155      1098       158      1141      1746      1513       297      1747      1480      1710
 -1       920    6    0    1
 -2       144      1114       149      1132      1467      1250       256      1565      1254      1252
 -1       921    6    0    1
 -2       639       613       633      1114       719       669       720      1405      1236      1588
 -1       922    6    0    1
 -2       157       169       142      1099       247       246       245      1256      1357      1541
 -1       923    6    0    1
 -2       313      1092       310      1131      1748      1739       447      1749      1743      1741
 -1       924    6    0    1
 -2       781      1136       798      1145      1750      1703       919      1751      1707      1706
 -1       925    6    0    1
 -2       464      1106      1118      1142      1531      1227      1532      1700      1752      1564
 -1       926    6    0    1
 -2       168       155       158      1141       296       297       269      1435      1747      1710
 -1       927    6    0    1
 -2       950       953       940      1110      1042      1082      1077      1186      1431      1187
 -1       928    6    0    1
 -2       469       484       472      1110       600       566       610      1154      1152      1483
 -1       929    6    0    1
 -2       627      1116      1098      1124      1666      1461      1665      1730      1731      1239
 -1       930    6    0    1
 -2       769       796      1100      1145       872      1471      1547      1753      1420      1472
 -1       931    6    0    1
 -2       930       942       952      1107      1048      1050      1049      1754      1680      1484
 -1       932    6    0    1
 -2       463      1101       458      1109      1520      1634       571      1519      1518      1637
 -1       933    6    0    1
 -2      1121      1126      1083      1138      1334      1464      1555      1322      1335      1301
 -1       934    6    0    1
 -2       770      1101       788      1109      1635      1755       877      1636      1518      1744
 -1       935    6    0    1
 -2       769       793       796      1145       867       873       872      1753      1756      1420
 -1       936    6    0    1
 -2      1111      1112       482      1139      1694      1371      1757      1758      1273      1372
 -1       937    6    0    1
 -2       628       639       617      1114       737       736       702      1166      1405      1759
 -1       938    6    0    1
 -2      1096      1113      1084      1126      1745      1205      1359      1361      1760      1333
 -1       939    6    0    1
 -2       298       306       305      1108       397       396       355      1545      1721      1625
 -1       940    6    0    1
 -2       941       937      1140      1143      1072      1761      1575      1353      1762      1608
 -1       941    6    0    1
 -2       769      1100       793      1145      1547      1763       867      1753      1472      1756
 -1       942    6    0    1
 -2      1115      1125      1085      1133      1397      1510      1719      1400      1401      1764
 -1       943    6    0    1
 -2       636       627       638      1098       715       765       768      1514      1665      1459
 -1       944    6    0    1
 -2      1084      1113      1096      1143      1205      1745      1359      1287      1288      1221
 -1       945    6    0    1
 -2       160       157       146      1108       266       267       218      1203      1356      1591
 -1       946    6    0    1
 -2       622       625       640      1124       752       754       745      1765      1767      1766
 -1       947    6    0    1
 -2       620      1112      1111      1144      1735      1694      1768      1769      1581      1770
 -1       948    6    0    1
 -2       456       477       482      1112       551       563       562      1692      1771      1371
 -1       949    6    0    1
 -2       776       796       787      1112       902       901       846      1448      1419      1159
 -1       950    6    0    1
 -2       930       942      1107      1120      1048      1680      1754      1772      1720      1500
 -1       951    6    0    1
 -2      1088      1121      1095      1137      1773      1687      1426      1428      1688      1385
 -1       952    6    0    1
 -2       953       928       947      1102      1040      1022      1041      1374      1528      1561
 -1       953    6    0    1
 -2      1098      1132      1095      1141      1253      1264      1774      1480      1595      1775
 -1       954    6    0    1
 -2       620       612      1111      1112       711      1690      1768      1735      1693      1694
 -1       955    6    0    1
 -2       324      1104       322      1106      1776      1619       454      1777      1572      1678
 -1       956    6    0    1
 -2       456       482      1111      1112       562      1757      1689      1692      1371      1694
 -1       957    6    0    1
 -2       777      1109       788      1136      1312      1744       898      1313      1267      1778
 -1       958    6    0    1
 -2       771       779       791      1108       881       883       839      1603      1424      1664
 -1       959    6    0    1
 -2       623       624       622      1093       751       750       746      1696      1695      1779
 -1       960    6    0    1
 -2       156      1113       145      1115      1780      1711       261      1702      1670      1701
 -1       961    6    0    1
 -2       769       796       790      1112       872       871       865      1550      1419      1584
 -1       962    6    0    1
 -2       470       467       469      1094       604       598       605      1173      1708      1151
 -1       963    6    0    1
 -2      1097      1119      1083      1137      1685      1463      1781      1686      1566      1384
 -1       964    6    0    1
 -2       460       474       471      1104       580       579       506      1620      1444      1676
 -1       965    6    0    1
 -2       481       469       472      1110       609       610       575      1190      1154      1483
 -1       966    6    0    1
 -2       482       461       473      1112       582       532       583      1371      1447      1160
 -1       967    6    0    1
 -2      1085      1115      1113      1125      1719      1670      1782      1510      1397      1783
 -1       968    6    0    1
 -2       931       145       943      1115      1784      1713       977      1785      1701      1714
 -1       969    6    0    1
 -2       327      1105      1092      1130      1786      1404      1787      1788      1643      1533
 -1       970    6    0    1
 -2       624      1093      1116      1124      1695      1698      1699      1732      1789      1731
 -1       971    6    0    1
 -2       481       472      1102      1110       575      1477      1197      1190      1483      1198
 -1       972    6    0    1
 -2       304       316       325      1109       375       426       425      1498      1213      1243
 -1       973    6    0    1
 -2      1097      1135      1117      1137      1716      1662      1451      1686      1790      1607
 -1       974    6    0    1
 -2       954       941       937      1140      1028      1072      1067      1574      1575      1761
 -1       975    6    0    1
 -2      1100      1112      1086      1145      1470      1161      1791      1472      1270      1268
 -1       976    6    0    1
 -2       618       631       630      1102       740       739       676      1599      1350      1365
 -1       977    6    0    1
 -2       163       143       168      1107       198       254       253      1527      1324      1434
 -1       978    6    0    1
 -2       327       312      1092      1131       443      1740      1787      1792      1742      1743
 -1       979    6    0    1
 -2       623      1116      1093      1129      1697      1698      1696      1793      1578      1509
 -1       980    6    0    1
 -2       327      1092      1105      1131      1787      1404      1786      1792      1743      1794
 -1       981    6    0    1
 -2      1086      1093      1111      1144      1392      1491      1492      1795      1796      1770
 -1       982    6    0    1
 -2       324      1104      1106      1131      1776      1572      1777      1797      1539      1798
 -1       983    6    0    1
 -2       313       310       312      1131       447       441       448      1749      1741      1742
 -1       984    6    0    1
 -2       458       787       770      1101      1799       849      1633      1634      1168      1635
 -1       985    6    0    1
 -2       312       309       327      1092       442       444       443      1740      1800      1787
 -1       986    6    0    1
 -2       783       798      1101      1145       918      1705      1627      1628      1706      1304
 -1       987    6    0    1
 -2       154       169      1099      1133       288      1357      1728      1801      1803      1802
 -1       988    6    0    1
 -2       483       468      1101      1139       597      1568      1804      1805      1569      1305
 -1       989    6    0    1
 -2       934      1131      1105      1134      1571      1794      1806      1807      1808      1456
 -1       990    6    0    1
 -2      1105      1134      1096      1140      1456      1454      1403      1505      1809      1504
 -1       991    6    0    1
 -2       628      1100       625      1124      1163      1810       764      1260      1261      1767
 -1       992    6    0    1
 -2       483      1101      1118      1139      1804      1521      1811      1805      1305      1812
 -1       993    6    0    1
 -2       168       158       147      1107       269       205       270      1434      1516      1656
 -1       994    6    0    1
 -2       313      1106      1092      1131      1813      1814      1748      1749      1798      1743
 -1       995    6    0    1
 -2       458       473       787      1101       535      1158      1799      1634      1170      1168
 -1       996    6    0    1
 -2      1088      1117      1114      1135      1606      1554      1295      1415      1662      1315
 -1       997    6    0    1
 -2       931       943       936      1115       977      1053      1052      1785      1714      1669
 -1       998    6    0    1
 -2       622      1124       640      1144      1765      1766       745      1815      1817      1816
 -1       999    6    0    1
 -2       953      1102       933      1110      1374      1476      1058      1431      1198      1482
 -1      1000    6    0    1
 -2       309       327      1092      1130       444      1787      1800      1818      1788      1533
 -1      1001    6    0    1
 -2       783       787       796      1145       925       901       924      1628      1269      1420
 -1      1002    6    0    1
 -2      1096      1140       937      1143      1504      1761      1819      1221      1608      1762
 -1      1003    6    0    1
 -2       151      1095      1132      1141      1820      1264      1592      1593      1775      1595
 -1      1004    6    0    1
 -2       473       483       468      1101       574       597       607      1170      1804      1568
 -1      1005    6    0    1
 -2      1113      1126      1096      1140      1760      1361      1745      1576      1821      1504
 -1      1006    6    0    1
 -2       149       161       141      1114       239       211       240      1250      1589      1283
 -1      1007    6    0    1
 -2       787       783       798      1101       925       918       875      1168      1627      1705
 -1      1008    6    0    1
 -2      1113      1115      1085      1140      1670      1719      1782      1576      1673      1503
 -1      1009    6    0    1
 -2       620       615      1112      1144       728      1549      1735      1769      1580      1581
 -1      1010    6    0    1
 -2       788      1109      1101      1136      1744      1518      1755      1778      1267      1704
 -1      1011    6    0    1
 -2      1087      1110      1096      1138      1248      1230      1358      1321      1822      1360
 -1      1012    6    0    1
 -2      1099      1125       154      1133      1389      1661      1728      1802      1401      1801
 -1      1013    6    0    1
 -2      1088      1098      1095      1121      1296      1774      1426      1773      1823      1687
 -1      1014    6    0    1
 -2       467      1118      1094      1139      1709      1224      1708      1824      1812      1825
 -1      1015    6    0    1
 -2      1088      1117      1135      1137      1606      1662      1415      1428      1607      1790
 -1      1016    6    0    1
 -2       620       615       632      1112       728       708       727      1735      1549      1585
 -1      1017    6    0    1
 -2       783       781       798      1145       917       919       918      1628      1751      1706
 -1      1018    6    0    1
 -2       635       636       638      1107       663       768       734      1655      1517      1457
 -1      1019    6    0    1
 -2       945       927       949      1104      1033      1009      1034      1421      1257      1631
 -1      1020    6    0    1
 -2       151       170       155      1141       275       284       283      1593      1594      1747
 -1      1021    6    0    1
 -2       639       628       625      1124       737       764       763      1406      1260      1767
 -1      1022    6    0    1
 -2       622      1093       624      1124      1779      1695       750      1765      1789      1732
 -1      1023    6    0    1
 -2       322       324       321      1104       454       420       388      1619      1776      1621
 -1      1024    6    0    1
 -2       475       463       458      1109       570       571       538      1659      1519      1637
 -1      1025    6    0    1
 -2       478       479       481      1102       545       611       577      1598      1379      1197
 -1      1026    6    0    1
 -2       317      1105       327      1130      1641      1786       412      1642      1643      1788
 -1      1027    6    0    1
 -2       142       159       298      1099       234      1826      1543      1541      1827      1542
 -1      1028    6    0    1
 -2       786       774       779      1108       820       896       895      1202      1616      1424
 -1      1029    6    0    1
 -2       792       770       788      1109       852       877       876      1660      1636      1744
 -1      1030    6    0    1
 -2       463       483      1101      1118       573      1804      1520      1522      1811      1521
 -1      1031    6    0    1
 -2      1101      1136      1097      1145      1704      1429      1828      1304      1707      1829
 -1      1032    6    0    1
 -2      1095      1098      1088      1132      1774      1296      1426      1264      1253      1297
 -1      1033    6    0    1
 -2      1094      1111       470      1139      1174      1175      1173      1825      1758      1830
 -1      1034    6    0    1
 -2       786       772       160      1117       823      1831      1201      1231      1552      1233
 -1      1035    6    0    1
 -2      1090      1110      1096      1134      1155      1230      1411      1438      1507      1454
 -1      1036    6    0    1
 -2       641      1116       623      1129      1558      1697       758      1490      1578      1793
 -1      1037    6    0    1
 -2       640      1124      1100      1144      1766      1261      1832      1816      1817      1579
 -1      1038    6    0    1
 -2       629       638       626      1116       732       766       767      1729      1460      1833
 -1      1039    6    0    1
 -2       310       313       323      1123       447       403       446      1834      1836      1835
 -1      1040    6    0    1
 -2       470       467      1094      1139       604      1708      1173      1830      1824      1825
 -1      1041    6    0    1
 -2       616       638       629      1107       733       732       689      1837      1457      1651
 -1      1042    6    0    1
 -2       631       634       614      1102       724       695       725      1350      1562      1394
 -1      1043    6    0    1
 -2       300       317       319      1115       411       410       368      1613      1640      1683
 -1      1044    6    0    1
 -2       298       159       314      1099      1826      1838       352      1542      1827      1839
 -1      1045    6    0    1
 -2      1092      1131      1090      1134      1743      1840      1412      1455      1808      1438
 -1      1046    6    0    1
 -2       326      1103       301      1128      1841      1601       415      1842      1648      1649
 -1      1047    6    0    1
 -2       794       769       628      1100       862      1843      1164      1162      1547      1163
 -1      1048    6    0    1
 -2       457       474       476      1104       568       567       525      1258      1444      1632
 -1      1049    6    0    1
 -2       459       481       472      1102       576       575       519      1475      1197      1477
 -1      1050    6    0    1
 -2       483       465       468      1139       588       595       597      1805      1844      1569
 -1      1051    6    0    1
 -2       144       160       772      1117       221      1831      1493      1553      1233      1552
 -1      1052    6    0    1
 -2       465       466       467      1118       589       594       593      1845      1223      1709
 -1      1053    6    0    1
 -2       625      1100       640      1124      1810      1832       754      1767      1261      1766
 -1      1054    6    0    1
 -2      1091      1103      1097      1119      1293      1294      1290      1410      1846      1685
 -1      1055    6    0    1
 -2       157       142       162      1108       245       237       244      1356      1544      1639
 -1      1056    6    0    1
 -2       318       306       301      1108       413       414       381      1675      1721      1604
 -1      1057    6    0    1
 -2       622       623      1093      1129       746      1696      1779      1847      1793      1509
 -1      1058    6    0    1
 -2       944       953       933      1110      1059      1058      1003      1557      1431      1482
 -1      1059    6    0    1
 -2      1086      1112      1100      1144      1161      1470      1791      1795      1581      1579
 -1      1060    6    0    1
 -2       622      1093      1124      1144      1779      1789      1765      1815      1796      1817
 -1      1061    6    0    1
 -2       170      1098       155      1141      1307      1746       284      1594      1480      1747
 -1      1062    6    0    1
 -2       159       314      1099      1133      1838      1839      1827      1848      1849      1802
 -1      1063    6    0    1
 -2       463       455       464      1142       554       556       555      1563      1850      1700
 -1      1064    6    0    1
 -2       480      1111       482      1139      1851      1757       564      1852      1758      1372
 -1      1065    6    0    1
 -2      1092      1105      1131      1134      1404      1794      1743      1455      1456      1808
 -1      1066    6    0    1
 -2       317       300       327      1105       411       408       412      1641      1610      1786
 -1      1067    6    0    1
 -2       314      1130      1099      1133      1853      1486      1839      1849      1854      1802
 -1      1068    6    0    1
 -2       308       309      1123      1130       432      1855      1856      1857      1818      1858
 -1      1069    6    0    1
 -2       313      1106       323      1123      1813      1859       403      1836      1860      1835
 -1      1070    6    0    1
 -2       299       471       455      1106      1861       509      1862      1863      1679      1864
 -1      1071    6    0    1
 -2      1096      1110      1090      1138      1230      1155      1411      1360      1822      1413
 -1      1072    6    0    1
 -2      1085      1115      1105      1140      1719      1614      1402      1503      1673      1505
 -1      1073    6    0    1
 -2       141       613       158      1098      1306      1865       208      1282      1234      1513
 -1      1074    6    0    1
 -2       954       936      1113      1140      1068      1671      1573      1574      1672      1576
 -1      1075    6    0    1
 -2      1116      1121      1098      1124      1441      1823      1461      1731      1866      1239
 -1      1076    6    0    1
 -2       463      1109       462      1142      1519      1867       553      1563      1418      1868
 -1      1077    6    0    1
 -2       471       299       322      1106      1861       391      1677      1679      1863      1678
 -1      1078    6    0    1
 -2      1086      1112      1111      1139      1161      1694      1492      1272      1273      1758
 -1      1079    6    0    1
 -2       483      1118       465      1139      1811      1845       588      1805      1812      1844
 -1      1080    6    0    1
 -2       317       303      1115      1133       423      1869      1640      1870      1871      1400
 -1      1081    6    0    1
 -2       629      1116       626      1120      1729      1833       767      1652      1502      1872
 -1      1082    6    0    1
 -2      1097      1136       781      1145      1429      1750      1873      1829      1707      1751
 -1      1083    6    0    1
 -2       780       784      1117      1135       914      1874      1450      1715      1875      1662
 -1      1084    6    0    1
 -2       326       301       306      1128       415       414       416      1842      1649      1722
 -1      1085    6    0    1
 -2      1083      1119      1097      1127      1463      1685      1781      1339      1877      1876
 -1      1086    6    0    1
 -2      1115      1130       317      1133      1644      1642      1640      1400      1854      1870
 -1      1087    6    0    1
 -2       299      1106       455      1142      1863      1864      1862      1878      1752      1850
 -1      1088    6    0    1
 -2       308      1123      1128      1130      1856      1879      1880      1857      1858      1881
 -1      1089    6    0    1
 -2      1097      1127      1101      1145      1876      1882      1828      1829      1883      1304
 -1      1090    6    0    1
 -2       158       613       636      1098      1865       666      1515      1513      1234      1514
 -1      1091    6    0    1
 -2      1097      1119      1103      1136      1685      1846      1294      1429      1884      1265
 -1      1092    6    0    1
 -2       771       301       316      1103      1600       378      1885      1602      1601      1212
 -1      1093    6    0    1
 -2       930       951       942      1120      1016      1039      1048      1772      1886      1720
 -1      1094    6    0    1
 -2       326       311      1103      1123       440      1193      1841      1887      1194      1195
 -1      1095    6    0    1
 -2      1097      1089      1119      1136      1888      1889      1685      1429      1390      1884
 -1      1096    6    0    1
 -2      1091      1099      1108      1128      1182      1453      1204      1890      1891      1650
 -1      1097    6    0    1
 -2       316       326       311      1103       417       440       450      1212      1841      1193
 -1      1098    6    0    1
 -2       166       145       156      1113       192       261       252      1738      1711      1780
 -1      1099    6    0    1
 -2       943       954       936      1113      1029      1068      1053      1712      1573      1671
 -1      1100    6    0    1
 -2      1114      1117      1088      1132      1554      1606      1295      1254      1478      1297
 -1      1101    6    0    1
 -2       323      1123      1106      1142      1835      1860      1859      1892      1893      1752
 -1      1102    6    0    1
 -2      1092      1123       309      1130      1894      1855      1800      1533      1858      1818
 -1      1103    6    0    1
 -2      1101      1127      1086      1145      1882      1393      1169      1304      1883      1268
 -1      1104    6    0    1
 -2       934       315      1105      1131      1725      1895      1806      1571      1726      1794
 -1      1105    6    0    1
 -2       310       309       312      1092       437       442       441      1739      1800      1740
 -1      1106    6    0    1
 -2       303       314       164      1133       349      1896      1897      1871      1849      1898
 -1      1107    6    0    1
 -2      1083      1092      1119      1122      1298      1452      1463      1300      1299      1899
 -1      1108    6    0    1
 -2       927       955       944      1110      1032      1031      1006      1246      1355      1557
 -1      1109    6    0    1
 -2       777       771       316      1103       836      1885      1311      1375      1602      1212
 -1      1110    6    0    1
 -2      1093      1121      1116      1124      1551      1441      1698      1789      1866      1731
 -1      1111    6    0    1
 -2       309      1092       310      1123      1800      1739       437      1855      1894      1834
 -1      1112    6    0    1
 -2      1094      1110      1087      1138      1153      1248      1280      1423      1822      1321
 -1      1113    6    0    1
 -2       769       615       628      1100      1548       705      1843      1547      1546      1163
 -1      1114    6    0    1
 -2       150       160       144      1117       260       221       258      1373      1233      1553
 -1      1115    6    0    1
 -2       776        98       461       787       841       528      1445       846       845      1446
 -1      1116    6    0    1
 -2      1086      1137      1093      1144      1511      1433      1392      1795      1900      1796
 -1      1117    6    0    1
 -2       626      1116       641      1120      1833      1558       757      1872      1502      1330
 -1      1118    6    0    1
 -2        99       787       770       458       844       849       848       533      1799      1633
 -1      1119    6    0    1
 -2       463       483       458      1101       573       572       571      1520      1804      1634
 -1      1120    6    0    1
 -2       770       798       788      1101       874       878       877      1635      1705      1755
 -1      1121    6    0    1
 -2       459       472        87       933       519       518       514      1474      1473       999
 -1      1122    6    0    1
 -2       324       322       313      1106       454       401       451      1777      1678      1813
 -1      1123    6    0    1
 -2       782       780      1097      1135       912      1289      1901      1902      1715      1716
 -1      1124    6    0    1
 -2       781      1097       780      1136      1873      1289       907      1750      1429      1430
 -1      1125    6    0    1
 -2      1085      1126      1113      1140      1349      1760      1782      1503      1821      1576
 -1      1126    6    0    1
 -2       927       944        88       457      1006      1002      1004      1245      1626       521
 -1      1127    6    0    1
 -2       480       456       482      1111       561       562       564      1851      1689      1757
 -1      1128    6    0    1
 -2      1089      1097      1119      1127      1888      1685      1889      1903      1876      1877
 -1      1129    6    0    1
 -2       298      1099       307      1128      1542      1904       399      1905      1891      1906
 -1      1130    6    0    1
 -2       787        99       473       458       844       531      1158      1799       533       535
 -1      1131    6    0    1
 -2      1091      1108      1103      1128      1204      1567      1293      1890      1650      1648
 -1      1132    6    0    1
 -2      1093      1137      1100      1144      1433      1907      1908      1796      1900      1579
 -1      1133    6    0    1
 -2       314       317      1130      1133       422      1642      1853      1849      1870      1854
 -1      1134    6    0    1
 -2       465      1118       467      1139      1845      1709       593      1844      1812      1824
 -1      1135    6    0    1
 -2      1090      1110      1094      1138      1155      1153      1149      1413      1822      1423
 -1      1136    6    0    1
 -2       317       314       303      1133       422       349       423      1870      1849      1871
 -1      1137    6    0    1
 -2       153       152       151      1095       280       277       281      1909      1179      1820
 -1      1138    6    0    1
 -2       472        88       944       457       517      1002      1556       522       521      1626
 -1      1139    6    0    1
 -2       153       152      1095      1125       280      1179      1909      1910      1387      1388
 -1      1140    6    0    1
 -2       474       464       471      1106       592       557       579      1346      1531      1679
 -1      1141    6    0    1
 -2       455      1106       464      1142      1864      1531       556      1850      1752      1700
 -1      1142    6    0    1
 -2       641       626       623      1116       757       756       758      1558      1833      1697
 -1      1143    6    0    1
 -2       455       463       462      1142       554       553       512      1850      1563      1868
 -1      1144    6    0    1
 -2      1101      1127      1118      1139      1882      1911      1521      1305      1912      1812
 -1      1145    6    0    1
 -2       151      1095       152      1132      1820      1179       277      1592      1264      1262
 -1      1146    6    0    1
 -2       488       643       478      1102      1913      1914       542      1915      1916      1598
 -1      1147    6    0    1
 -2       303       164      1115      1133      1897      1917      1869      1871      1898      1400
 -1      1148    6    0    1
 -2       488       959       643      1102      1918      1919      1913      1915      1920      1916
 -1      1149    6    0    1
 -2       643       959       947      1102      1919      1023      1921      1916      1920      1561
 -1      1150    6    0    1
 -2       623       626       624      1116       756       755       751      1697      1833      1699
 -1      1151    6    0    1
 -2      1086      1100      1137      1144      1791      1907      1511      1795      1579      1900
 -1      1152    6    0    1
 -2      1084      1126      1113      1141      1333      1760      1205      1208      1922      1210
 -1      1153    6    0    1
 -2       307      1099       314      1130      1904      1839       400      1923      1486      1853
 -1      1154    6    0    1
 -2       618       478       643      1102      1596      1914       673      1599      1598      1916
 -1      1155    6    0    1
 -2       455       462       320      1142       512      1924      1925      1850      1868      1926
 -1      1156    6    0    1
 -2      1083      1127      1097      1137      1339      1876      1781      1384      1432      1686
 -1      1157    6    0    1
 -2       324      1106       313      1131      1777      1813       451      1797      1798      1749
 -1      1158    6    0    1
 -2      1101      1086      1127      1139      1169      1393      1882      1305      1272      1912
 -1      1159    6    0    1
 -2       939      1096       937      1143      1220      1819      1070      1185      1221      1762
 -1      1160    6    0    1
 -2       169       159       142      1099       248       234       246      1357      1827      1541
 -1      1161    6    0    1
 -2       937       939       938      1096      1070      1069      1065      1819      1220      1442
 -1      1162    6    0    1
 -2       637       627      1098      1124       717      1665      1727      1718      1730      1239
 -1      1163    6    0    1
 -2      1099      1128      1119      1130      1891      1927      1274      1486      1881      1488
 -1      1164    6    0    1
 -2       782       780       781      1097       912       907       913      1901      1289      1873
 -1      1165    6    0    1
 -2       165      1113      1125      1141      1733      1783      1928      1684      1210      1929
 -1      1166    6    0    1
 -2       640      1100       615      1144      1832      1546       729      1816      1579      1580
 -1      1167    6    0    1
 -2      1086      1111      1094      1139      1492      1174      1391      1272      1758      1825
 -1      1168    6    0    1
 -2      1113      1126      1125      1141      1760      1495      1783      1210      1922      1929
 -1      1169    6    0    1
 -2        98       473       461       787       530       532       528       845      1158      1446
 -1      1170    6    0    1
 -2      1101      1109      1089      1136      1518      1214      1622      1704      1267      1390
 -1      1171    6    0    1
 -2       933       472        87       944      1473       518       999      1003      1556      1001
 -1      1172    6    0    1
 -2      1083      1094      1122      1127      1338      1723      1300      1339      1340      1930
 -1      1173    6    0    1
 -2      1090      1092      1106      1131      1412      1814      1226      1840      1743      1798
 -1      1174    6    0    1
 -2       153      1095       151      1141      1909      1820       281      1931      1775      1593
 -1      1175    6    0    1
 -2       625       628       640      1100       764       731       754      1810      1163      1832
 -1      1176    6    0    1
 -2      1103      1119      1089      1136      1846      1889      1192      1265      1884      1390
 -1      1177    6    0    1
 -2       947       634       643      1102      1559       696      1921      1561      1562      1916
 -1      1178    6    0    1
 -2      1092      1128      1123      1130      1932      1879      1894      1533      1881      1858
 -1      1179    6    0    1
 -2      1119      1128      1092      1130      1927      1932      1452      1488      1881      1533
 -1      1180    6    0    1
 -2      1083      1122      1094      1138      1300      1723      1338      1301      1302      1423
 -1      1181    6    0    1
 -2       788      1101       798      1136      1755      1705       878      1778      1704      1703
 -1      1182    6    0    1
 -2       941       954       926      1113      1028      1027      1024      1352      1573      1409
 -1      1183    6    0    1
 -2       959       488       459      1102      1918       516      1933      1920      1915      1475
 -1      1184    6    0    1
 -2       780       784       797      1117       914       887       911      1450      1874      1377
 -1      1185    6    0    1
 -2       462      1109       320      1142      1867      1934      1924      1868      1418      1926
 -1      1186    6    0    1
 -2       926       943       166      1113       980      1737      1935      1409      1712      1738
 -1      1187    6    0    1
 -2       938       937      1096      1134      1065      1819      1442      1506      1936      1454
 -1      1188    6    0    1
 -2       306       298       307      1128       397       399       398      1722      1905      1906
 -1      1189    6    0    1
 -2      1085      1130      1115      1133      1487      1644      1719      1764      1854      1400
 -1      1190    6    0    1
 -2      1083      1121      1095      1126      1555      1687      1381      1464      1334      1277
 -1      1191    6    0    1
 -2      1090      1106      1092      1122      1226      1814      1412      1414      1734      1299
 -1      1192    6    0    1
 -2       929       315       300      1105      1937       365      1611      1609      1895      1610
 -1      1193    6    0    1
 -2      1119      1123      1092      1128      1938      1894      1452      1927      1879      1932
 -1      1194    6    0    1
 -2       159      1099       169      1133      1827      1357       248      1848      1802      1803
 -1      1195    6    0    1
 -2       111       619       477       612       681      1939       549       677       682      1940
 -1      1196    6    0    1
 -2       462        78       455       320       511       507       512      1924       392      1925
 -1      1197    6    0    1
 -2      1092      1105      1085      1130      1404      1402      1369      1533      1643      1487
 -1      1198    6    0    1
 -2       159       164       314      1133       231      1896      1838      1848      1898      1849
 -1      1199    6    0    1
 -2       937      1096      1134      1140      1819      1454      1936      1761      1504      1809
 -1      1200    6    0    1
 -2       459       933       959      1102      1474      1000      1933      1475      1476      1920
 -1      1201    6    0    1
 -2       144       150      1117      1132       258      1373      1553      1565      1310      1478
 -1      1202    6    0    1
 -2      1090      1106      1104      1131      1226      1572      1259      1840      1798      1539
 -1      1203    6    0    1
 -2      1093       622      1129      1144      1779      1847      1509      1796      1815      1941
 -1      1204    6    0    1
 -2       637       624       627      1124       760       761       717      1718      1732      1730
 -1      1205    6    0    1
 -2       315       929       934      1105      1937       993      1725      1895      1609      1806
 -1      1206    6    0    1
 -2      1101      1127      1097      1136      1882      1876      1828      1704      1942      1429
 -1      1207    6    0    1
 -2       627       624       626      1116       761       755       762      1666      1699      1833
 -1      1208    6    0    1
 -2      1087      1120      1116      1143      1329      1502      1440      1249      1605      1717
 -1      1209    6    0    1
 -2      1092      1122      1106      1123      1299      1734      1814      1894      1943      1860
 -1      1210    6    0    1
 -2      1100      1124      1093      1144      1261      1789      1908      1579      1817      1796
 -1      1211    6    0    1
 -2       630       456       479      1111      1944       548      1378      1364      1689      1380
 -1      1212    6    0    1
 -2       143       926       166      1113      1407      1935       195      1323      1409      1738
 -1      1213    6    0    1
 -2       779       771       778      1103       881       879       882      1363      1602      1667
 -1      1214    6    0    1
 -2       321       331       487      1104       385      1945      1946      1621      1948      1947
 -1      1215    6    0    1
 -2       786       772        33       160       823       822       818      1201      1831       217
 -1      1216    6    0    1
 -2       627       613       637      1098       716       718       717      1665      1234      1727
 -1      1217    6    0    1
 -2      1098      1116      1084      1121      1461      1439      1645      1823      1441      1317
 -1      1218    6    0    1
 -2       612       456       630      1111      1691      1944       679      1690      1689      1364
 -1      1219    6    0    1
 -2       463       465       483      1118       586       588       573      1522      1845      1811
 -1      1220    6    0    1
 -2      1089      1106      1122      1123      1949      1734      1950      1196      1860      1943
 -1      1221    6    0    1
 -2       460       321       487      1104      1617      1946       503      1620      1621      1947
 -1      1222    6    0    1
 -2      1093      1124      1100      1137      1789      1261      1908      1433      1951      1907
 -1      1223    6    0    1
 -2       782      1097       781      1145      1901      1873       913      1952      1829      1751
 -1      1224    6    0    1
 -2       172       774       146      1108      1953      1615       215      1954      1616      1591
 -1      1225    6    0    1
 -2      1088      1098      1121      1124      1296      1823      1773      1332      1239      1866
 -1      1226    6    0    1
 -2       774       172       800      1108      1953      1955       817      1616      1954      1956
 -1      1227    6    0    1
 -2       800       172       328      1108      1955      1957      1958      1956      1954      1959
 -1      1228    6    0    1
 -2       958       487       331      1104      1960      1945      1961      1962      1947      1948
 -1      1229    6    0    1
 -2      1111      1112      1086      1144      1694      1161      1492      1770      1581      1795
 -1      1230    6    0    1
 -2       629       626       641      1120       767       757       723      1652      1872      1330
 -1      1231    6    0    1
 -2      1089      1127      1101      1136      1903      1882      1622      1390      1942      1704
 -1      1232    6    0    1
 -2       772       144        33       160      1493       219       822      1831       221       217
 -1      1233    6    0    1
 -2       326      1123      1103      1128      1887      1195      1841      1842      1879      1648
 -1      1234    6    0    1
 -2      1100      1135       793      1145      1316      1963      1763      1472      1964      1756
 -1      1235    6    0    1
 -2      1100      1124      1088      1137      1261      1332      1331      1907      1951      1428
 -1      1236    6    0    1
 -2       487       958       949      1104      1960      1010      1965      1947      1962      1631
 -1      1237    6    0    1
 -2      1099      1091      1119      1128      1182      1410      1274      1891      1890      1927
 -1      1238    6    0    1
 -2       638       627       626      1116       765       762       766      1460      1666      1833
 -1      1239    6    0    1
 -2       464       465       463      1118       587       586       555      1532      1845      1522
 -1      1240    6    0    1
 -2       625       622       624      1124       752       750       753      1767      1765      1732
 -1      1241    6    0    1
 -2       162       305       328      1108      1638       356      1966      1639      1625      1959
 -1      1242    6    0    1
 -2       308       309       310      1123       432       437       436      1856      1855      1834
 -1      1243    6    0    1
 -2       464       455       471      1106       556       509       557      1531      1864      1679
 -1      1244    6    0    1
 -2       455       320       299      1142      1925       394      1862      1850      1926      1878
 -1      1245    6    0    1
 -2       800       328       318      1108      1958       382      1967      1956      1959      1675
 -1      1246    6    0    1
 -2       172       162       328      1108       238      1966      1957      1954      1639      1959
 -1      1247    6    0    1
 -2       155       170       158      1098       284       243       297      1746      1307      1513
 -1      1248    6    0    1
 -2       464       466       465      1118       590       589       587      1532      1223      1845
 -1      1249    6    0    1
 -2      1093      1116      1087      1129      1698      1440      1481      1509      1578      1281
 -1      1250    6    0    1
 -2       480       470      1111      1139       560      1175      1851      1852      1830      1758
 -1      1251    6    0    1
 -2      1086      1137      1100      1145      1511      1907      1791      1268      1968      1472
 -1      1252    6    0    1
 -2       939       937       941      1143      1070      1072      1071      1185      1762      1353
 -1      1253    6    0    1
 -2       958       331       302      1104      1961       359      1969      1962      1948      1535
 -1      1254    6    0    1
 -2       302       932       958      1104      1536       987      1969      1535      1534      1962
 -1      1255    6    0    1
 -2       791       800       318      1108       840      1967      1674      1664      1956      1675
 -1      1256    6    0    1
 -2      1093      1129      1111      1144      1509      1242      1491      1796      1941      1770
 -1      1257    6    0    1
 -2      1095      1121      1098      1141      1687      1823      1774      1775      1970      1480
 -1      1258    6    0    1
 -2       462       485       320      1109       513      1971      1924      1867      1972      1934
 -1      1259    6    0    1
 -2       946       163       956      1107      1524      1973       984      1526      1527      1974
 -1      1260    6    0    1
 -2       458       483       473      1101       572       574       535      1634      1804      1170
 -1      1261    6    0    1
 -2       621      1111       630      1129      1975      1364       714      1976      1242      1366
 -1      1262    6    0    1
 -2       141       158       170      1098       208       243       242      1282      1513      1307
 -1      1263    6    0    1
 -2        22       158       141       613       203       208       207       664      1865      1306
 -1      1264    6    0    1
 -2       787       798       770      1101       875       874       849      1168      1705      1635
 -1      1265    6    0    1
 -2       949       476       487      1104      1630       526      1965      1631      1632      1947
 -1      1266    6    0    1
 -2      1099      1085      1125      1133      1348      1510      1389      1802      1764      1401
 -1      1267    6    0    1
 -2       485       329       320      1109      1977       395      1971      1972      1978      1934
 -1      1268    6    0    1
 -2       794       785       769      1100       870       869       862      1162      1216      1547
 -1      1269    6    0    1
 -2       311      1123       323      1142      1194      1835       445      1979      1893      1892
 -1      1270    6    0    1
 -2       304       801       775      1109      1980       830      1496      1498      1981      1499
 -1      1271    6    0    1
 -2      1090      1131      1104      1134      1840      1539      1259      1438      1808      1512
 -1      1272    6    0    1
 -2       635       645       174      1107       660      1982      1983      1655      1985      1984
 -1      1273    6    0    1
 -2       329       801       304      1109      1986      1980       372      1978      1981      1498
 -1      1274    6    0    1
 -2      1106      1089      1118      1142      1949      1623      1227      1752      1417      1564
 -1      1275    6    0    1
 -2       174       956       163      1107      1987      1973       199      1984      1974      1527
 -1      1276    6    0    1
 -2       158        22       636       613       203       662      1515      1865       664       666
 -1      1277    6    0    1
 -2        65       304       775       777       371      1496       828       832      1497       833
 -1      1278    6    0    1
 -2       801       485       792      1109      1988      1989       853      1981      1972      1660
 -1      1279    6    0    1
 -2      1083      1121      1093      1137      1555      1551      1336      1384      1688      1433
 -1      1280    6    0    1
 -2       456       111       477       612       547       549       551      1691       677      1940
 -1      1281    6    0    1
 -2       299       455        78       320      1862       507       390       394      1925       392
 -1      1282    6    0    1
 -2       305       162        45       142      1638       235       354      1624       237       233
 -1      1283    6    0    1
 -2       932        54       934       302       986       988       990      1536       357      1570
 -1      1284    6    0    1
 -2       329       485       801      1109      1977      1988      1986      1978      1972      1981
 -1      1285    6    0    1
 -2      1084      1098      1121      1141      1645      1823      1317      1208      1480      1970
 -1      1286    6    0    1
 -2       142        44       298       159       232       351      1543       234       230      1826
 -1      1287    6    0    1
 -2        32       786       146       774       819      1590       214       815       820      1615
 -1      1288    6    0    1
 -2       777       778      1103      1136       880      1667      1375      1313      1668      1265
 -1      1289    6    0    1
 -2       300       929        55       315      1611       991       364       365      1937       360
 -1      1290    6    0    1
 -2       316        66       301       771       374       376       378      1885       835      1600
 -1      1291    6    0    1
 -2       143        12       946       163       193       981      1525       198       197      1524
 -1      1292    6    0    1
 -2       301       326       316      1103       415       417       378      1601      1841      1212
 -1      1293    6    0    1
 -2      1086      1094      1127      1139      1391      1340      1393      1272      1825      1912
 -1      1294    6    0    1
 -2      1089      1097      1127      1136      1888      1876      1903      1390      1429      1942
 -1      1295    6    0    1
 -2       615       640       628      1100       729       731       705      1546      1832      1163
 -1      1296    6    0    1
 -2       477       619       642      1112      1939       683      1990      1771      1736      1991
 -1      1297    6    0    1
 -2       642       790       802      1112      1992       866      1993      1991      1584      1994
 -1      1298    6    0    1
 -2       620       640       615      1144       730       729       728      1769      1816      1580
 -1      1299    6    0    1
 -2       133       632       615       790       706       708       704       864      1582      1583
 -1      1300    6    0    1
 -2       161        23       141       633       210       206       211      1586       667      1587
 -1      1301    6    0    1
 -2       174       147       635      1107       202      1653      1983      1984      1656      1655
 -1      1302    6    0    1
 -2       156       165      1113      1125       250      1733      1780      1995      1928      1783
 -1      1303    6    0    1
 -2       458       792       100       475      1657       851       534       538      1658       536
 -1      1304    6    0    1
 -2       460       322        76       321      1618       386       501      1617       388       384
 -1      1305    6    0    1
 -2       618       109       478       479       671       541      1596      1597       543       545
 -1      1306    6    0    1
 -2       144        34       148       789       220       222       224      1465       825      1466
 -1      1307    6    0    1
 -2      1085      1096      1126      1140      1367      1361      1349      1503      1504      1821
 -1      1308    6    0    1
 -2       785       793      1100      1135       868      1763      1216      1314      1963      1316
 -1      1309    6    0    1
 -2       298       314       307      1099       352       400       399      1542      1839      1904
 -1      1310    6    0    1
 -2       486       477       642      1112       552      1990      1996      1997      1771      1991
 -1      1311    6    0    1
 -2       475       792       485      1109      1658      1989       539      1659      1660      1972
 -1      1312    6    0    1
 -2       799       148       789      1114      1998      1466       827      1999      1468      1469
 -1      1313    6    0    1
 -2       159        44       298       314       230       351      1826      1838       347       352
 -1      1314    6    0    1
 -2       956       174       645      1107      1987      1982      2000      1974      1984      1985
 -1      1315    6    0    1
 -2       927       476        89       949      1629       524      1005      1009      1630      1007
 -1      1316    6    0    1
 -2       782       784       780      1135       915       914       912      1902      1875      1715
 -1      1317    6    0    1
 -2       634       614       947       122       695      1560      1559       694       690      1020
 -1      1318    6    0    1
 -2       934        55       929       315       989       991       993      1725       360      1937
 -1      1319    6    0    1
 -2      1094      1122      1090      1138      1723      1414      1149      1423      1302      1413
 -1      1320    6    0    1
 -2      1119      1122      1092      1123      1899      1299      1452      1938      1943      1894
 -1      1321    6    0    1
 -2       621       620      1111      1144       712      1768      1975      2001      1769      1770
 -1      1322    6    0    1
 -2       802       461       486      1112      2002       529      2003      1994      1447      1997
 -1      1323    6    0    1
 -2       303       164       173      1115      1897       228      2004      1869      1917      2005
 -1      1324    6    0    1
 -2       929       935      1105      1140      1044      2006      1609      2007      2008      1505
 -1      1325    6    0    1
 -2        66       316       777       771       374      1311       831       835      1885       836
 -1      1326    6    0    1
 -2       645       616       956      1107       686      2009      2000      1985      1837      1974
 -1      1327    6    0    1
 -2       785       793       769      1100       868       867       869      1216      1763      1547
 -1      1328    6    0    1
 -2       632       790       642      1112      1582      1992       709      1585      1584      1991
 -1      1329    6    0    1
 -2       784       795      1117      1135       885      1577      1874      1875      1540      1662
 -1      1330    6    0    1
 -2       166       926        11       943      1935       978       190      1737       980       976
 -1      1331    6    0    1
 -2      1089      1122      1119      1123      1950      1899      1889      1196      1943      1938
 -1      1332    6    0    1
 -2       313       322       299      1106       401       391       402      1813      1678      1863
 -1      1333    6    0    1
 -2       303       314        43       164       349       348       344      1897      1896       227
 -1      1334    6    0    1
 -2       461       802       776      1112      2002       843      1445      1447      1994      1448
 -1      1335    6    0    1
 -2       171       148       799      1114       225      1998      2010      2011      1468      1999
 -1      1336    6    0    1
 -2        67       318       301       791       379       381       377       838      1674      1663
 -1      1337    6    0    1
 -2       303       173       330      1115      2004      2012       346      1869      2005      2013
 -1      1338    6    0    1
 -2       323      1106       313      1142      1859      1813       403      1892      1752      2014
 -1      1339    6    0    1
 -2       327      1105       315      1131      1786      1895       409      1792      1794      1726
 -1      1340    6    0    1
 -2        32       786       160       146       819      1201       216       214      1590       218
 -1      1341    6    0    1
 -2       298       305        45       142       355       354       350      1543      1624       233
 -1      1342    6    0    1
 -2       642       802       486      1112      1993      2003      1996      1991      1994      1997
 -1      1343    6    0    1
 -2       778       781       780      1136       908       907       906      1668      1750      1430
 -1      1344    6    0    1
 -2       612       621       620      1111       713       712       711      1690      1975      1768
 -1      1345    6    0    1
 -2       300        56       948       319       363       994      1646       368       367      1682
 -1      1346    6    0    1
 -2       470       480       467      1139       560       603       604      1830      1852      1824
 -1      1347    6    0    1
 -2        65       304       777       316       371      1497       832       373       375      1311
 -1      1348    6    0    1
 -2       935       934      1105      1134      1043      1806      2006      2015      1807      1456
 -1      1349    6    0    1
 -2       627       636       613      1098       715       666       716      1665      1514      1234
 -1      1350    6    0    1
 -2      1118      1127      1094      1139      1911      1340      1224      1812      1912      1825
 -1      1351    6    0    1
 -2       792       458       100       770      1657       534       851       852      1633       847
 -1      1352    6    0    1
 -2       315       934        54       302      1725       988       361       362      1570       357
 -1      1353    6    0    1
 -2      1084      1121      1095      1141      1317      1687      2016      1208      1970      1775
 -1      1354    6    0    1
 -2       628       617       131       794       702       698       700      1164      2017       858
 -1      1355    6    0    1
 -2       613       141        23       633      1306       206       665       669      1587       667
 -1      1356    6    0    1
 -2       299       313      1106      1142       402      1813      1863      1878      2014      1752
 -1      1357    6    0    1
 -2       630       110       456       612       674       546      1944       679       678      1691
 -1      1358    6    0    1
 -2       471       299       455        77      1861      1862       509       504       389       508
 -1      1359    6    0    1
 -2       143       926        11       166      1407       978       194       195      1935       190
 -1      1360    6    0    1
 -2       630       110       479       456       674       544      1378      1944       546       548
 -1      1361    6    0    1
 -2        77       471       299       322       504      1861       389       387      1677       391
 -1      1362    6    0    1
 -2        12       946       926       143       981       983       979       193      1525      1407
 -1      1363    6    0    1
 -2       951       120       629       616      1014       688      2018      2019       684       689
 -1      1364    6    0    1
 -2       476       927        89       457      1629      1005       524       525      1245       520
 -1      1365    6    0    1
 -2       951       629       121      1120      2018       687      1015      1886      1652      2020
 -1      1366    6    0    1
 -2       644       633       171      1114       670      2021      2022      2023      1588      2011
 -1      1367    6    0    1
 -2       173       931       957      1115      2024       974      2025      2005      1785      2026
 -1      1368    6    0    1
 -2      1100      1137      1135      1145      1907      1790      1316      1472      1968      1964
 -1      1369    6    0    1
 -2       307       308      1128      1130       430      1880      1906      1923      1857      1881
 -1      1370    6    0    1
 -2        34       144       772       789       220      1493       821       825      1465       826
 -1      1371    6    0    1
 -2      1084      1095      1121      1126      2016      1687      1317      1333      1277      1334
 -1      1372    6    0    1
 -2       153      1125      1095      1141      1910      1388      1909      1931      1929      1775
 -1      1373    6    0    1
 -2       799       617       644      1114      2027       699      2028      1999      1759      2023
 -1      1374    6    0    1
 -2       631       618       634      1102       740       741       724      1350      1599      1562
 -1      1375    6    0    1
 -2       959       933       947      1102      1000      1060      1023      1920      1476      1561
 -1      1376    6    0    1
 -2       311       323       325      1142       445       407       449      1979      1892      1416
 -1      1377    6    0    1
 -2       932       945       949      1104      1055      1034      1057      1534      1421      1631
 -1      1378    6    0    1
 -2       330       957       319      1115      2029      2030       369      2013      2026      1683
 -1      1379    6    0    1
 -2      1084      1095      1126      1141      2016      1277      1333      1208      1775      1922
 -1      1380    6    0    1
 -2       488       478       459      1102       542       578       516      1915      1598      1475
 -1      1381    6    0    1
 -2       161       171       633      1114       212      2021      1586      1589      2011      1588
 -1      1382    6    0    1
 -2       791       301        67       771      1663       377       838       839      1600       834
 -1      1383    6    0    1
 -2       948       929        56       300       996       992       994      1646      1611       363
 -1      1384    6    0    1
 -2       133       615       769       790       704      1548       860       864      1583       865
 -1      1385    6    0    1
 -2       131       617       773       794       698      2031       854       858      2017       859
 -1      1386    6    0    1
 -2       153       154       152      1125       286       285       280      1910      1661      1387
 -1      1387    6    0    1
 -2       314       159        43       164      1838       229       348      1896       231       227
 -1      1388    6    0    1
 -2       948       319       957      1115      1682      2030       997      1647      1683      2026
 -1      1389    6    0    1
 -2       302      1104       324      1131      1535      1776       419      1538      1539      1797
 -1      1390    6    0    1
 -2       122       614       947       928       690      1560      1020      1018      1529      1022
 -1      1391    6    0    1
 -2      1085      1125      1113      1126      1510      1783      1782      1349      1495      1760
 -1      1392    6    0    1
 -2       929       936       935      1140      1046      1045      1044      2007      1672      2008
 -1      1393    6    0    1
 -2       120       951       930       616      1014      1016      1012       684      2019      2032
 -1      1394    6    0    1
 -2       468       465       467      1139       595       593       596      1569      1844      1824
 -1      1395    6    0    1
 -2       631       621       630      1129       749       714       739      1489      1976      1366
 -1      1396    6    0    1
 -2       166        10       145       943       191       187       192      1737       975      1713
 -1      1397    6    0    1
 -2       307       314       317      1130       400       422       435      1923      1853      1642
 -1      1398    6    0    1
 -2       940       953       944      1110      1082      1059      1081      1187      1431      1557
 -1      1399    6    0    1
 -2       146       157       162      1108       267       244       268      1591      1356      1639
 -1      1400    6    0    1
 -2       779       774       791      1108       896       897       883      1424      1616      1664
 -1      1401    6    0    1
 -2       167      1115       164      1133      1398      1917       264      1399      1400      1898
 -1      1402    6    0    1
 -2       618       643       634      1102       673       696       741      1599      1916      1562
 -1      1403    6    0    1
 -2       475       462       463      1109       585       553       570      1659      1867      1519
 -1      1404    6    0    1
 -2      1106      1123      1089      1142      1860      1196      1949      1752      1893      1417
 -1      1405    6    0    1
 -2       788       775       792      1109       899       900       876      1744      1499      1660
 -1      1406    6    0    1
 -2      1125      1126      1095      1141      1495      1277      1388      1929      1922      1775
 -1      1407    6    0    1
 -2       173       957       330      1115      2025      2029      2012      2005      2026      2013
 -1      1408    6    0    1
 -2        21       635       147       636       659      1653       200       661       663      1654
 -1      1409    6    0    1
 -2      1089      1118      1101      1127      1623      1521      1622      1903      1911      1882
 -1      1410    6    0    1
 -2       318       305       306      1108       428       396       413      1675      1625      1721
 -1      1411    6    0    1
 -2      1083      1122      1119      1127      1300      1899      1463      1339      1930      1877
 -1      1412    6    0    1
 -2      1103      1119      1091      1128      1846      1410      1293      1648      1927      1890
 -1      1413    6    0    1
 -2       474       460       476      1104       580       581       567      1444      1620      1632
 -1      1414    6    0    1
 -2       799       644       171      1114      2028      2022      2010      1999      2023      2011
 -1      1415    6    0    1
 -2       153       165      1125      1141       291      1928      1910      1931      1684      1929
 -1      1416    6    0    1
 -2       620       632       619      1112       727       742       710      1735      1585      1736
 -1      1417    6    0    1
 -2       153       151       155      1141       281       283       282      1931      1593      1747
 -1      1418    6    0    1
 -2       778       771       777      1103       879       836       880      1667      1602      1375
 -1      1419    6    0    1
 -2      1089      1119      1103      1123      1889      1846      1192      1196      1938      1195
 -1      1420    6    0    1
 -2       783       782       781      1145       916       913       917      1628      1952      1751
 -1      1421    6    0    1
 -2      1119      1122      1089      1127      1899      1950      1889      1877      1930      1903
 -1      1422    6    0    1
 -2       456       480       470      1111       561       560       559      1689      1851      1175
 -1      1423    6    0    1
 -2      1089      1106      1118      1122      1949      1227      1623      1950      1734      1724
 -1      1424    6    0    1
 -2       307      1128      1099      1130      1906      1891      1904      1923      1881      1486
 -1      1425    6    0    1
 -2       928       951       121      1120      1019      1015      1017      1530      1886      2020
 -1      1426    6    0    1
 -2       109       618       630       479       671       676       675       543      1597      1378
 -1      1427    6    0    1
 -2       471       460       322        76       506      1618      1677       505       501       386
 -1      1428    6    0    1
 -2       621      1129       622      1144      1976      1847       744      2001      1941      1815
 -1      1429    6    0    1
 -2       956       616       930      1107      2009      2032      1013      1974      1837      1754
 -1      1430    6    0    1
 -2       121       629       614      1120       687       692       691      2020      1652      1395
 -1      1431    6    0    1
 -2      1118      1122      1094      1127      1724      1723      1224      1911      1930      1340
 -1      1432    6    0    1
 -2       149       148       161      1114       257       272       239      1250      1468      1589
 -1      1433    6    0    1
 -2      1135      1137      1097      1145      1790      1686      1716      1964      1968      1829
 -1      1434    6    0    1
 -2       470       479       456      1111       558       548       559      1175      1380      1689
 -1      1435    6    0    1
 -2       931       936       948      1115      1052      1047      1054      1785      1669      1647
 -1      1436    6    0    1
 -2       947       933       953      1102      1060      1058      1041      1561      1476      1374
 -1      1437    6    0    1
 -2        10       931       145       943       973      1784       187       975       977      1713
 -1      1438    6    0    1
 -2       782      1135      1097      1145      1902      1716      1901      1952      1964      1829
 -1      1439    6    0    1
 -2       327       300       315      1105       408       365       409      1786      1610      1895
 -1      1440    6    0    1
 -2       307       309       308      1130       433       432       430      1923      1818      1857
 -1      1441    6    0    1
 -2       955       940       944      1110      1076      1081      1031      1355      1187      1557
 -1      1442    6    0    1
 -2       786       797       772      1117       889       888       823      1231      1377      1552
 -1      1443    6    0    1
 -2       935       937      1134      1140      1062      1936      2015      2008      1761      1809
 -1      1444    6    0    1
 -2       326       308      1123      1128       431      1856      1887      1842      1880      1879
 -1      1445    6    0    1
 -2       631       641       623      1129       726       758       748      1489      1490      1793
 -1      1446    6    0    1
 -2       173       145       931      1115       189      1784      2024      2005      1701      1785
 -1      1447    6    0    1
 -2       317       303       319      1115       423       424       410      1640      1869      1683
 -1      1448    6    0    1
 -2       315       302       324      1131       362       419       418      1726      1538      1797
 -1      1449    6    0    1
 -2       156       165       143      1113       250       249       251      1780      1733      1323
 -1      1450    6    0    1
 -2      1088      1135      1100      1137      1415      1316      1331      1428      1790      1907
 -1      1451    6    0    1
 -2       799       773       617      1114       856      2031      2027      1999      1425      1759
 -1      1452    6    0    1
 -2       636       147        21       158      1654       200       661      1515       205       204
 -1      1453    6    0    1
 -2       302       331       321      1104       359       385       421      1535      1948      1621
 -1      1454    6    0    1
 -2       327       315       312      1131       409       453       443      1792      1726      1742
 -1      1455    6    0    1
 -2       614       928       121      1120      1529      1017       691      1395      1530      2020
 -1      1456    6    0    1
 -2       151       152       150      1132       277       276       273      1592      1262      1310
 -1      1457    6    0    1
 -2       949       958       932      1104      1010       987      1057      1631      1962      1534
 -1      1458    6    0    1
 -2       938       935       937      1134      1064      1062      1065      1506      2015      1936
 -1      1459    6    0    1
 -2       154       159       169      1133       295       248       288      1801      1848      1803
 -1      1460    6    0    1
 -2       478       481       459      1102       577       576       578      1598      1197      1475
 -1      1461    6    0    1
 -2       930       952       946      1107      1049      1030      1051      1754      1484      1526
 -1      1462    6    0    1
 -2       172       146       162      1108       215       268       238      1954      1591      1639
 -1      1463    6    0    1
 -2       328       305       318      1108       356       428       382      1959      1625      1675
 -1      1464    6    0    1
 -2       791       774       800      1108       897       817       840      1664      1616      1956
 -1      1465    6    0    1
 -2       476       460       487      1104       581       503       526      1632      1620      1947
 -1      1466    6    0    1
 -2       326       308       311      1123       431       438       440      1887      1856      1194
 -1      1467    6    0    1
 -2      1085      1099      1130      1133      1348      1486      1487      1764      1802      1854
 -1      1468    6    0    1
 -2       621      1111      1129      1144      1975      1242      1976      2001      1770      1941
 -1      1469    6    0    1
 -2       942      1120       950      1143      1720      1343      1037      1681      1605      1184
 -1      1470    6    0    1
 -2       167       154      1125      1133       293      1661      1396      1399      1801      1401
 -1      1471    6    0    1
 -2       935       945       934      1134      1061      1056      1043      2015      1437      1807
 -1      1472    6    0    1
 -2       164       167       145      1115       264       263       265      1917      1398      1701
 -1      1473    6    0    1
 -2       795       773       789      1114       893       894       890      1508      1425      1469
 -1      1474    6    0    1
 -2       782       793      1135      1145       920      1963      1902      1952      1756      1964
 -1      1475    6    0    1
 -2       943       926       954      1113       980      1027      1029      1712      1409      1573
 -1      1476    6    0    1
 -2       325       320       304      1109       406       427       425      1243      1934      1498
 -1      1477    6    0    1
 -2       321       324       302      1104       420       419       421      1621      1776      1535
 -1      1478    6    0    1
 -2       772       784       795      1117       886       885       884      1552      1874      1577
 -1      1479    6    0    1
 -2       790       796       776      1112       871       902       903      1584      1419      1448
 -1      1480    6    0    1
 -2       612       630       621      1111       679       714       713      1690      1364      1975
 -1      1481    6    0    1
 -2       475       485       462      1109       539       513       585      1659      1972      1867
 -1      1482    6    0    1
 -2       329       304       320      1109       372       427       395      1978      1498      1934
 -1      1483    6    0    1
 -2       320      1109       325      1142      1934      1243       406      1926      1418      1416
 -1      1484    6    0    1
 -2       147       163       168      1107       271       253       270      1656      1527      1434
 -1      1485    6    0    1
 -2       792       775       801      1109       900       830       853      1660      1499      1981
 -1      1486    6    0    1
 -2       645       635       616      1107       660       735       686      1985      1655      1837
 -1      1487    6    0    1
 -2       299       323       313      1142       404       403       402      1878      1892      2014
 -1      1488    6    0    1
 -2       166       156       143      1113       252       251       195      1738      1780      1323
 -1      1489    6    0    1
 -2       482       477       461      1112       563       584       582      1371      1771      1447
 -1      1490    6    0    1
 -2       163       147       174      1107       271       202       199      1527      1656      1984
 -1      1491    6    0    1
 -2       148        35       799       789       223       804      1998      1466       824       827
 -1      1492    6    0    1
 -2       156       153       165      1125       290       291       250      1995      1910      1928
 -1      1493    6    0    1
 -2       635       638       616      1107       734       733       735      1655      1457      1837
 -1      1494    6    0    1
 -2        42       303       164       173       345      1897       226       177      2004       228
 -1      1495    6    0    1
 -2       633       617       639      1114       738       736       720      1588      1759      1405
 -1      1496    6    0    1
 -2       790       776       802      1112       903       843       866      1584      1448      1994
 -1      1497    6    0    1
 -2       632       642       619      1112       709       683       742      1585      1991      1736
 -1      1498    6    0    1
 -2       799       171        35       148      2010       183       804      1998       225       223
 -1      1499    6    0    1
 -2        42       303       173       330       345      2004       177       332       346      2012
 -1      1500    6    0    1
 -2       486       461       477      1112       529       584       552      1997      1447      1771
 -1      1501    6    0    1
 -2       935      1134      1105      1140      2015      1456      2006      2008      1809      1505
 -1      1502    6    0    1
 -2      1103      1123      1119      1128      1195      1938      1846      1648      1879      1927
 -1      1503    6    0    1
 -2       614       629       641      1120       692       723       722      1395      1652      1330
 -1      1504    6    0    1
 -2       777       788       778      1136       898       904       880      1313      1778      1668
 -1      1505    6    0    1
 -2       929       935       934      1105      1044      1043       993      1609      2006      1806
 -1      1506    6    0    1
 -2       956       930       946      1107      1013      1051       984      1974      1754      1526
 -1      1507    6    0    1
 -2       309       317       327      1130       434       412       444      1818      1642      1788
 -1      1508    6    0    1
 -2       622       621       623      1129       744       747       746      1847      1976      1793
 -1      1509    6    0    1
 -2       956       946        13       163       984       982       963      1973      1524       196
 -1      1510    6    0    1
 -2      1089      1122      1118      1127      1950      1724      1623      1903      1930      1911
 -1      1511    6    0    1
 -2       774       146        31       172      1615       213       816      1953       215       185
 -1      1512    6    0    1
 -2       800       774        31       172       817       816       806      1955      1953       185
 -1      1513    6    0    1
 -2       312       324       313      1131       452       451       448      1742      1797      1749
 -1      1514    6    0    1
 -2       801        64       304       775       809       370      1980       830       829      1496
 -1      1515    6    0    1
 -2       462       320       485        79      1924      1971       513       510       393       493
 -1      1516    6    0    1
 -2       642       477       112       619      1990       550       656       683      1939       680
 -1      1517    6    0    1
 -2        46       328       162       305       336      1966       236       353       356      1638
 -1      1518    6    0    1
 -2       161       148       171      1114       272       225       212      1589      1468      2011
 -1      1519    6    0    1
 -2       801        64       329       304       809       342      1986      1980       370       372
 -1      1520    6    0    1
 -2       802        97       486       461       812       499      2003      2002       527       529
 -1      1521    6    0    1
 -2       156       167       154      1125       262       293       289      1995      1396      1661
 -1      1522    6    0    1
 -2       144       149       150      1132       256       259       258      1565      1252      1310
 -1      1523    6    0    1
 -2       644       617       633      1114       699       738       670      2023      1759      1588
 -1      1524    6    0    1
 -2       800        68       318       328       808       380      1967      1958       337       382
 -1      1525    6    0    1
 -2       958       487       949        90      1960      1965      1010       968       491      1008
 -1      1526    6    0    1
 -2       485       792       101       801      1989       850       494      1988       853       811
 -1      1527    6    0    1
 -2       123       959       947       643       971      1023      1021       654      1919      1921
 -1      1528    6    0    1
 -2       174       956        13       163      1987       963       179       199      1973       196
 -1      1529    6    0    1
 -2       320       329       485        79       395      1977      1971       393       343       493
 -1      1530    6    0    1
 -2       112       486       477       642       500       552       550       656      1996      1990
 -1      1531    6    0    1
 -2       134       790       802       642       863       866       814       657      1992      1993
 -1      1532    6    0    1
 -2       633       171        24       644      2021       182       668       670      2022       649
 -1      1533    6    0    1
 -2       948       957       931      1115       997       974      1054      1647      2026      1785
 -1      1534    6    0    1
 -2        46       328       172       162       336      1957       186       236      1966       238
 -1      1535    6    0    1
 -2        57       330       957       319       334      2029       962       366       369      2030
 -1      1536    6    0    1
 -2       149       170       151      1132       241       275       274      1252      1308      1592
 -1      1537    6    0    1
 -2       318       791        68       800      1674       837       380      1967       840       808
 -1      1538    6    0    1
 -2       802        97       461       776       812       527      2002       843       842      1445
 -1      1539    6    0    1
 -2       330       319       303      1115       369       424       346      2013      1683      1869
 -1      1540    6    0    1
 -2       948        57       957       319       995       962       997      1682       366      2030
 -1      1541    6    0    1
 -2       171        24       161       633       182       209       212      2021       668      1586
 -1      1542    6    0    1
 -2       790       134       632       642       863       707      1582      1992       657       709
 -1      1543    6    0    1
 -2       955       945       938      1134      1035      1066      1075      1436      1437      1506
 -1      1544    6    0    1
 -2       792       485       101       475      1989       494       850      1658       539       537
 -1      1545    6    0    1
 -2       164       145       173      1115       265       189       228      1917      1701      2005
 -1      1546    6    0    1
 -2       947       123       643       634      1021       654      1921      1559       693       696
 -1      1547    6    0    1
 -2       476       949       487        90      1630      1965       526       523      1008       491
 -1      1548    6    0    1
 -2       785       782       793      1135       923       920       868      1314      1902      1963
 -1      1549    6    0    1
 -2       167       164       159      1133       264       231       294      1399      1898      1848
 -1      1550    6    0    1
 -2       302       932        53       958      1536       985       358      1969       987       967
 -1      1551    6    0    1
 -2       799       789       773      1114       827       894       856      1999      1469      1425
 -1      1552    6    0    1
 -2       931         9       173       957       972       175      2024       974       961      2025
 -1      1553    6    0    1
 -2       460        75       487       321       502       489       503      1617       383      1946
 -1      1554    6    0    1
 -2       108       478       643       618       540      1914       652       672      1596       673
 -1      1555    6    0    1
 -2       959       488        86       459      1918       495       970      1933       516       515
 -1      1556    6    0    1
 -2        53       302       958       331       358      1969       967       338       359      1961
 -1      1557    6    0    1
 -2       644       799       130       617      2028       805       651       699      2027       697
 -1      1558    6    0    1
 -2        98        99       473       787       104       531       530       845       844      1158
 -1      1559    6    0    1
 -2       472        88        87       944       517        93       518      1556      1002      1001
 -1      1560    6    0    1
 -2       928       950       942      1120      1038      1037      1036      1530      1343      1720
 -1      1561    6    0    1
 -2       635       645        20       174       660       647       658      1983      1982       180
 -1      1562    6    0    1
 -2       478       643       488       108      1914      1913       542       540       652       497
 -1      1563    6    0    1
 -2        75       487       321       331       489      1946       383       340      1945       385
 -1      1564    6    0    1
 -2       310       311       308      1123       439       438       436      1834      1194      1856
 -1      1565    6    0    1
 -2       459        86       959       933       515       970      1933      1474       998      1000
 -1      1566    6    0    1
 -2       621       622       620      1144       744       743       712      2001      1815      1769
 -1      1567    6    0    1
 -2       174        20       635       147       180       658      1983       202       201      1653
 -1      1568    6    0    1
 -2       784       785       795      1135       922       892       885      1875      1314      1540
 -1      1569    6    0    1
 -2       772       797       784      1117       888       887       886      1552      1377      1874
 -1      1570    6    0    1
 -2       307       308       306      1128       430       429       398      1906      1880      1722
 -1      1571    6    0    1
 -2       939       942       950      1143      1079      1037      1078      1185      1681      1184
 -1      1572    6    0    1
 -2       624       637       625      1124       760       759       753      1732      1718      1767
 -1      1573    6    0    1
 -2       645       119       956       616       648       965      2000       686       685      2009
 -1      1574    6    0    1
 -2       931       173         9       145      2024       175       972      1784       189       188
 -1      1575    6    0    1
 -2       310       323       311      1123       446       445       439      1834      1835      1194
 -1      1576    6    0    1
 -2       942       941       952      1143      1080      1025      1050      1681      1353      1286
 -1      1577    6    0    1
 -2       480       482       468      1139       564       606       602      1852      1372      1569
 -1      1578    6    0    1
 -2       773       130       799       617       855       805       856      2031       697      2027
 -1      1579    6    0    1
 -2       781       788       798      1136       909       878       919      1750      1778      1703
 -1      1580    6    0    1
 -2       637       639       625      1124       721       763       759      1718      1406      1767
 -1      1581    6    0    1
 -2       623       621       631      1129       747       749       748      1793      1976      1489
 -1      1582    6    0    1
 -2       168       165       155      1141       255       292       296      1435      1684      1747
 -1      1583    6    0    1
 -2       317       309       307      1130       434       433       435      1642      1818      1923
 -1      1584    6    0    1
 -2       928       942       951      1120      1036      1039      1019      1530      1720      1886
 -1      1585    6    0    1
 -2       937       935       936      1140      1062      1045      1063      1761      2008      1672
 -1      1586    6    0    1
 -2       956       119       930       616       965      1011      1013      2009       685      2032
 -1      1587    6    0    1
 -2       167       159       154      1133       294       295       293      1399      1848      1801
 -1      1588    6    0    1
 -2       954       937       936      1140      1067      1063      1068      1574      1761      1672
 -1      1589    6    0    1
 -2       146        31        32       774       213        37       214      1615       816       815
 -1      1590    6    0    1
 -2       796       793       783      1145       873       921       924      1420      1756      1628
 -1      1591    6    0    1
 -2       480       468       467      1139       602       596       603      1852      1569      1824
 -1      1592    6    0    1
 -2       299       320       325      1142       394       406       405      1878      1926      1416
 -1      1593    6    0    1
 -2       783       793       782      1145       921       920       916      1628      1756      1952
 -1      1594    6    0    1
 -2       935       938       945      1134      1064      1066      1061      2015      1506      1437
 -1      1595    6    0    1
 -2       324       312       315      1131       452       453       418      1797      1742      1726
 -1      1596    6    0    1
 -2       306       308       326      1128       429       431       416      1722      1880      1842
 -1      1597    6    0    1
 -2       162        45        46       305       235        51       236      1638       354       353
 -1      1598    6    0    1
 -2       460        76        75       321       501        81       502      1617       384       383
 -1      1599    6    0    1
 -2       478       108       109       618       540       114       541      1596       672       671
 -1      1600    6    0    1
 -2       154       153       156      1125       286       290       289      1661      1910      1995
 -1      1601    6    0    1
 -2       622       640       620      1144       745       730       743      1815      1816      1769
 -1      1602    6    0    1
 -2        99       770       100       458       848       847       105       533      1633       534
 -1      1603    6    0    1
 -2       330       173         1       957      2012       176       333      2029      2025       960
 -1      1604    6    0    1
 -2       644       171         3       799      2022       181       650      2028      2010       803
 -1      1605    6    0    1
 -2         6       329       485       801       341      1977       492       810      1986      1988
 -1      1606    6    0    1
 -2       328       800         4       172      1958       807       335      1957      1955       184
 -1      1607    6    0    1
 -2       486         8       802       642       498       813      2003      1996       655      1993
 -1      1608    6    0    1
 -2       320       462        78        79      1924       511       392       393       510        84
 -1      1609    6    0    1
 -2       619       477       112       111      1939       550       680       681       549       117
 -1      1610    6    0    1
 -2       958       487         5       331      1960       490       966      1961      1945       339
 -1      1611    6    0    1
 -2         7       488       959       643       496      1918       969       653      1913      1919
 -1      1612    6    0    1
 -2         2       645       956       174       646      2000       964       178      1982      1987
 -1      1613    6    0    1
 -2       165       153       155      1141       291       282       292      1684      1931      1747
 -1      1614    6    0    1
 -2       926        11        12       143       978        17       979      1407       194       193
 -1      1615    6    0    1
 -2        89       927        88       457      1005      1004        94       520      1245       521
 -1      1616    6    0    1
 -2       781       778       788      1136       908       904       909      1750      1668      1778
 -1      1617    6    0    1
 -2       144        33        34       772       219        39       220      1493       822       821
 -1      1618    6    0    1
 -2       931         9        10       145       972        15       973      1784       188       187
 -1      1619    6    0    1
 -2        43        44       159       314        49       230       229       348       347      1838
 -1      1620    6    0    1
 -2       316       777        65        66      1311       832       373       374       831        71
 -1      1621    6    0    1
 -2       934        54        55       315       988        60       989      1725       361       360
 -1      1622    6    0    1
 -2       792       100       475       101       851       536      1658       850       106       537
 -1      1623    6    0    1
 -2        34        35       148       789        40       223       222       825       824      1466
 -1      1624    6    0    1
 -2       949       476        89        90      1630       524      1007      1008       523        95
 -1      1625    6    0    1
 -2        67       318       791        68       379      1674       838        73       380       837
 -1      1626    6    0    1
 -2       786        33        32       160       818        38       819      1201       217       216
 -1      1627    6    0    1
 -2       948        56        57       319       994        62       995      1682       367       366
 -1      1628    6    0    1
 -2       151       150       149      1132       273       259       274      1592      1310      1252
 -1      1629    6    0    1
 -2        23        22       141       613        28       207       206       665       664      1306
 -1      1630    6    0    1
 -2       632       133       134       790       706       139       707      1582       864       863
 -1      1631    6    0    1
 -2        24        23       161       633        29       210       209       668       667      1586
 -1      1632    6    0    1
 -2        43        42       303       164        48       345       344       227       226      1897
 -1      1633    6    0    1
 -2       947       123       634       122      1021       693      1559      1020       128       694
 -1      1634    6    0    1
 -2       456       110       111       612       546       116       547      1691       678       677
 -1      1635    6    0    1
 -2        78       455       299        77       507      1862       390        83       508       389
 -1      1636    6    0    1
 -2        12        13       946       163        18       982       981       197       196      1524
 -1      1637    6    0    1
 -2       298        45        44       142       350        50       351      1543       233       232
 -1      1638    6    0    1
 -2       782       785       784      1135       923       922       915      1902      1314      1875
 -1      1639    6    0    1
 -2       304        64        65       775       370        70       371      1496       829       828
 -1      1640    6    0    1
 -2       636        21        22       158       661        27       662      1515       204       203
 -1      1641    6    0    1
 -2        66        67       301       771        72       377       376       835       834      1600
 -1      1642    6    0    1
 -2       132       615       769       133       703      1548       861       138       704       860
 -1      1643    6    0    1
 -2       929        55        56       300       991        61       992      1611       364       363
 -1      1644    6    0    1
 -2       928       122       614       121      1018       690      1529      1017       127       691
 -1      1645    6    0    1
 -2       942       939       941      1143      1079      1071      1080      1681      1185      1353
 -1      1646    6    0    1
 -2       121       951       120       629      1015      1014       126       687      2018       688
 -1      1647    6    0    1
 -2       628       131       132       794       700       137       701      1164       858       857
 -1      1648    6    0    1
 -2       932        53        54       302       985        59       986      1536       358       357
 -1      1649    6    0    1
 -2        98       461        97       776       528       527       103       841      1445       842
 -1      1650    6    0    1
 -2        20        21       635       147        26       659       658       201       200      1653
 -1      1651    6    0    1
 -2       323       299       325      1142       404       405       407      1892      1878      1416
 -1      1652    6    0    1
 -2       773       130       617       131       855       697      2031       854       136       698
 -1      1653    6    0    1
 -2        86       459        87       933       515       514        92       998      1474       999
 -1      1654    6    0    1
 -2       173         1        42       330       176        47       177      2012       333       332
 -1      1655    6    0    1
 -2        35         3       171       799        41       181       183       804       803      2010
 -1      1656    6    0    1
 -2        97         8       802       486       102       813       812       499       498      2003
 -1      1657    6    0    1
 -2       800        31         4       172       806        36       807      1955       185       184
 -1      1658    6    0    1
 -2       329         6        64       801       341        69       342      1986       810       809
 -1      1659    6    0    1
 -2         4        46       328       172        52       336       335       184       186      1957
 -1      1660    6    0    1
 -2       958         5       487        90       966       490      1960       968        96       491
 -1      1661    6    0    1
 -2       123         7       959       643       129       969       971       654       653      1919
 -1      1662    6    0    1
 -2       486       112         8       642       500       118       498      1996       656       655
 -1      1663    6    0    1
 -2       171         3        24       644       181        30       182      2022       650       649
 -1      1664    6    0    1
 -2         6       485       101       801       492       494       107       810      1988       811
 -1      1665    6    0    1
 -2       802         8       134       642       813       140       814      1993       655       657
 -1      1666    6    0    1
 -2       800         4        68       328       807        74       808      1958       335       337
 -1      1667    6    0    1
 -2         1        57       330       957        63       334       333       960       962      2029
 -1      1668    6    0    1
 -2       956        13         2       174       963        19       964      1987       179       178
 -1      1669    6    0    1
 -2       485       329         6        79      1977       341       492       493       343        85
 -1      1670    6    0    1
 -2         7       488        86       959       496       495        91       969      1918       970
 -1      1671    6    0    1
 -2       487        75         5       331       489        80       490      1945       340       339
 -1      1672    6    0    1
 -2         7       488       643       108       496      1913       653       113       497       652
 -1      1673    6    0    1
 -2         2        20       645       174        25       647       646       178       180      1982
 -1      1674    6    0    1
 -2         5        53       958       331        58       967       966       339       338      1961
 -1      1675    6    0    1
 -2       109       630       110       479       675       674       115       543      1378       544
 -1      1676    6    0    1
 -2       322        77       471        76       387       504      1677       386        82       505
 -1      1677    6    0    1
 -2        11        10       166       943        16       191       190       976       975      1737
 -1      1678    6    0    1
 -2       119       120       930       616       125      1012      1011       685       684      2032
 -1      1679    6    0    1
 -2       173         9         1       957       175        14       176      2025       961       960
 -1      1680    6    0    1
 -2       799         3       644       130       803       650      2028       805       135       651
 -1      1681    6    0    1
 -2         2       645       119       956       646       648       124       964      2000       965
 -1      1682    6    0    1
 -2      1113       952      1107       926      1284      1484      1206      1409      1026      1408
 -1      1683    6    0    1
 -2      1113      1107       952      1084      1206      1484      1284      1205      1207      1285
 -1      1684    6    0    1
 -2       311      1089      1142       325      1191      1417      1979       449      1218      1416
 -1      1685    6    0    1
 -2      1142      1089       311      1123      1417      1191      1979      1893      1196      1194
 -1      1686    6    0    1
 -2      1115       156      1125       167      1702      1995      1397      1398       262      1396
 -1      1687    6    0    1
 -2      1115      1125       156      1113      1397      1995      1702      1670      1783      1780
 -1      1688    6    0    1
 -2      1134      1131       945       934      1808      2033      1437      1807      1571      1056
 -1      1689    6    0    1
 -2      1134       945      1131      1104      1437      2033      1808      1512      1421      1539
 -1      1690    6    0    1
 -2       932       945      1131       934      1055      2033      1537       990      1056      1571
 -1      1691    6    0    1
 -2       932      1131       945      1104      1537      2033      1055      1534      1539      1421
 -1      1692    6    0    1
 -2      1143      1116      1107      1120      1717      1462      1485      1605      1502      1500
 -1      1693    6    0    1
 -2      1143      1107      1116      1084      1485      1462      1717      1287      1207      1439
 -1      1694    6    0    1
 -2       477       612      1112       456      1940      1693      1771       551      1691      1692
 -1      1695    6    0    1
 -2      1112       612       477       619      1693      1940      1771      1736       682      1939
 -1      1696    6    0    1
 -2      1138      1126      1092      1096      1335      1370      1303      1360      1361      1368
 -1      1697    6    0    1
 -2      1138      1092      1126      1083      1303      1370      1335      1301      1298      1464
 -1      1698    6    0    1
 -2       794       617      1114       628      2017      1759      1165      1164       702      1166
 -1      1699    6    0    1
 -2       794      1114       617       773      1165      1759      2017       859      1425      2031
 -1      1700    6    0    1
 -2       616      1107      1120       930      1837      1500      2034      2032      1754      1772
 -1      1701    6    0    1
 -2      1120      1107       616       629      1500      1837      2034      1652      1651       689
 -1      1702    6    0    1
 -2      1120       951       616       930      1886      2019      2034      1772      1016      2032
 -1      1703    6    0    1
 -2       616       951      1120       629      2019      1886      2034       689      2018      1652
 -1      1704    6    0    1
 -2      1123       313      1092       310      1836      1748      1894      1834       447      1739
 -1      1705    6    0    1
 -2      1123      1092       313      1106      1894      1748      1836      1860      1814      1813
 -1      1706    6    0    1
 -2      1128       298      1108       306      1905      1545      1650      1722       397      1721
 -1      1707    6    0    1
 -2      1128      1108       298      1099      1650      1545      1905      1891      1453      1542
 -1      1708    6    0    1
 -2       769       628       132       794      1843       701       861       862      1164       857
 -1      1709    6    0    1
 -2       769       132       628       615       861       701      1843      1548       703       705
 -1      1710    6    0    1
 -2      1140       929      1115      1105      2007      1612      1673      1505      1609      1614
 -1      1711    6    0    1
 -2      1140      1115       929       936      1673      1612      2007      1672      1669      1046
 -1      1712    6    0    1
 -2      1137      1124      1121      1093      1951      1866      1688      1433      1789      1551
 -1      1713    6    0    1
 -2      1137      1121      1124      1088      1688      1866      1951      1428      1773      1332
 -1      1714    6    0    1
 -2      1145      1127      1137      1097      1883      1432      1968      1829      1876      1686
 -1      1715    6    0    1
 -2      1145      1137      1127      1086      1968      1432      1883      1268      1511      1393
 -3
    1PSTEP                         1           1           1          
  100CL  101 1.000000000        2034                     0    1           1
 -4  DISP        4    1
 -5  D1          1    2    1    0
 -5  D2          1    2    2    0
 -5  D3          1    2    3    0
 -5  ALL         1    2    0    0    1ALL
 -1         1 0.00000E+00 0.00000E+00 0.00000E+00
 -1         2 0.00000E+00 0.00000E+00 0.00000E+00
 -1         3 0.00000E+00 0.00000E+00-5.00000E-03
 -1         4 0.00000E+00 0.00000E+00-5.00000E-03
 -1         5 0.00000E+00 0.00000E+00 0.00000E+00
 -1         6 0.00000E+00 0.00000E+00-5.00000E-03
 -1         7 0.00000E+00 0.00000E+00 0.00000E+00
 -1         8 0.00000E+00 0.00000E+00-5.00000E-03
 -1         9 0.00000E+00 0.00000E+00 0.00000E+00
 -1        10 0.00000E+00 0.00000E+00 0.00000E+00
 -1        11 0.00000E+00 0.00000E+00 0.00000E+00
 -1        12 0.00000E+00 0.00000E+00 0.00000E+00
 -1        13 0.00000E+00 0.00000E+00 0.00000E+00
 -1        14 0.00000E+00 0.00000E+00 0.00000E+00
 -1        15 0.00000E+00 0.00000E+00 0.00000E+00
 -1        16 0.00000E+00 0.00000E+00 0.00000E+00
 -1        17 0.00000E+00 0.00000E+00 0.00000E+00
 -1        18 0.00000E+00 0.00000E+00 0.00000E+00
 -1        19 0.00000E+00 0.00000E+00 0.00000E+00
 -1        20-1.02581E-03 1.03666E-03-1.11387E-03
 -1        21-1.31182E-03 1.32677E-03-1.79895E-03
 -1        22-1.38651E-03 1.39150E-03-2.49883E-03
 -1        23-1.31696E-03 1.31908E-03-3.19791E-03
 -1        24-1.02894E-03 1.03402E-03-3.89070E-03
 -1        25-7.69957E-04 7.71124E-04-6.13421E-04
 -1        26-1.19782E-03 1.19773E-03-1.45828E-03
 -1        27-1.36341E-03 1.37107E-03-2.14472E-03
 -1        28-1.36419E-03 1.36959E-03-2.85149E-03
 -1        29-1.19672E-03 1.19916E-03-3.54295E-03
 -1        30-7.74209E-04 7.72570E-04-4.39072E-03
 -1        31 0.00000E+00 0.00000E+00-5.00000E-03
 -1        32 0.00000E+00 0.00000E+00-5.00000E-03
 -1        33 0.00000E+00 0.00000E+00-5.00000E-03
 -1        34 0.00000E+00 0.00000E+00-5.00000E-03
 -1        35 0.00000E+00 0.00000E+00-5.00000E-03
 -1        36 0.00000E+00 0.00000E+00-5.00000E-03
 -1        37 0.00000E+00 0.00000E+00-5.00000E-03
 -1        38 0.00000E+00 0.00000E+00-5.00000E-03
 -1        39 0.00000E+00 0.00000E+00-5.00000E-03
 -1        40 0.00000E+00 0.00000E+00-5.00000E-03
 -1        41 0.00000E+00 0.00000E+00-5.00000E-03
 -1        42 1.03253E-03 1.03564E-03-1.11085E-03
 -1        43 1.32036E-03 1.31589E-03-1.80261E-03
 -1        44 1.38830E-03 1.39153E-03-2.50308E-03
 -1        45 1.32024E-03 1.31902E-03-3.20179E-03
 -1        46 1.03452E-03 1.03579E-03-3.88972E-03
 -1        47 7.73245E-04 7.72234E-04-6.08685E-04
 -1        48 1.20112E-03 1.19521E-03-1.45894E-03
 -1        49 1.36632E-03 1.36506E-03-2.14991E-03
 -1        50 1.36515E-03 1.36812E-03-2.85382E-03
 -1        51 1.19508E-03 1.20524E-03-3.54218E-03
 -1        52 7.71131E-04 7.75027E-04-4.38694E-03
 -1        53 0.00000E+00 0.00000E+00 0.00000E+00
 -1        54 0.00000E+00 0.00000E+00 0.00000E+00
 -1        55 0.00000E+00 0.00000E+00 0.00000E+00
 -1        56 0.00000E+00 0.00000E+00 0.00000E+00
 -1        57 0.00000E+00 0.00000E+00 0.00000E+00
 -1        58 0.00000E+00 0.00000E+00 0.00000E+00
 -1        59 0.00000E+00 0.00000E+00 0.00000E+00
 -1        60 0.00000E+00 0.00000E+00 0.00000E+00
 -1        61 0.00000E+00 0.00000E+00 0.00000E+00
 -1        62 0.00000E+00 0.00000E+00 0.00000E+00
 -1        63 0.00000E+00 0.00000E+00 0.00000E+00
 -1        64 0.00000E+00 0.00000E+00-5.00000E-03
 -1        65 0.00000E+00 0.00000E+00-5.00000E-03
 -1        66 0.00000E+00 0.00000E+00-5.00000E-03
 -1        67 0.00000E+00 0.00000E+00-5.00000E-03
 -1        68 0.00000E+00 0.00000E+00-5.00000E-03
 -1        69 0.00000E+00 0.00000E+00-5.00000E-03
 -1        70 0.00000E+00 0.00000E+00-5.00000E-03
 -1        71 0.00000E+00 0.00000E+00-5.00000E-03
 -1        72 0.00000E+00 0.00000E+00-5.00000E-03
 -1        73 0.00000E+00 0.00000E+00-5.00000E-03
 -1        74 0.00000E+00 0.00000E+00-5.00000E-03
 -1        75 1.02792E-03-1.03683E-03-1.11248E-03
 -1        76 1.31124E-03-1.32937E-03-1.80090E-03
 -1        77 1.38670E-03-1.39091E-03-2.49578E-03
 -1        78 1.31617E-03-1.31736E-03-3.19400E-03
 -1        79 1.03134E-03-1.03579E-03-3.88960E-03
 -1        80 7.70160E-04-7.71682E-04-6.13736E-04
 -1        81 1.19677E-03-1.19927E-03-1.45958E-03
 -1        82 1.36213E-03-1.37410E-03-2.14414E-03
 -1        83 1.36538E-03-1.36640E-03-2.84685E-03
 -1        84 1.19861E-03-1.19967E-03-3.53789E-03
 -1        85 7.72650E-04-7.72639E-04-4.38949E-03
 -1        86 0.00000E+00 0.00000E+00 0.00000E+00
 -1        87 0.00000E+00 0.00000E+00 0.00000E+00
 -1        88 0.00000E+00 0.00000E+00 0.00000E+00
 -1        89 0.00000E+00 0.00000E+00 0.00000E+00
 -1        90 0.00000E+00 0.00000E+00 0.00000E+00
 -1        91 0.00000E+00 0.00000E+00 0.00000E+00
 -1        92 0.00000E+00 0.00000E+00 0.00000E+00
 -1        93 0.00000E+00 0.00000E+00 0.00000E+00
 -1        94 0.00000E+00 0.00000E+00 0.00000E+00
 -1        95 0.00000E+00 0.00000E+00 0.00000E+00
 -1        96 0.00000E+00 0.00000E+00 0.00000E+00
 -1        97 0.00000E+00 0.00000E+00-5.00000E-03
 -1        98 0.00000E+00 0.00000E+00-5.00000E-03
 -1        99 0.00000E+00 0.00000E+00-5.00000E-03
 -1       100 0.00000E+00 0.00000E+00-5.00000E-03
 -1       101 0.00000E+00 0.00000E+00-5.00000E-03
 -1       102 0.00000E+00 0.00000E+00-5.00000E-03
 -1       103 0.00000E+00 0.00000E+00-5.00000E-03
 -1       104 0.00000E+00 0.00000E+00-5.00000E-03
 -1       105 0.00000E+00 0.00000E+00-5.00000E-03
 -1       106 0.00000E+00 0.00000E+00-5.00000E-03
 -1       107 0.00000E+00 0.00000E+00-5.00000E-03
 -1       108-1.03137E-03-1.03401E-03-1.11239E-03
 -1       109-1.32395E-03-1.31527E-03-1.80034E-03
 -1       110-1.38762E-03-1.38980E-03-2.49944E-03
 -1       111-1.31682E-03-1.31898E-03-3.19728E-03
 -1       112-1.03509E-03-1.03125E-03-3.89303E-03
 -1       113-7.69452E-04-7.72755E-04-6.13548E-04
 -1       114-1.19396E-03-1.20201E-03-1.45938E-03
 -1       115-1.36783E-03-1.36620E-03-2.14471E-03
 -1       116-1.36594E-03-1.36771E-03-2.85127E-03
 -1       117-1.19847E-03-1.19767E-03-3.54199E-03
 -1       118-7.72627E-04-7.74329E-04-4.39003E-03
 -1       119 0.00000E+00 0.00000E+00 0.00000E+00
 -1       120 0.00000E+00 0.00000E+00 0.00000E+00
 -1       121 0.00000E+00 0.00000E+00 0.00000E+00
 -1       122 0.00000E+00 0.00000E+00 0.00000E+00
 -1       123 0.00000E+00 0.00000E+00 0.00000E+00
 -1       124 0.00000E+00 0.00000E+00 0.00000E+00
 -1       125 0.00000E+00 0.00000E+00 0.00000E+00
 -1       126 0.00000E+00 0.00000E+00 0.00000E+00
 -1       127 0.00000E+00 0.00000E+00 0.00000E+00
 -1       128 0.00000E+00 0.00000E+00 0.00000E+00
 -1       129 0.00000E+00 0.00000E+00 0.00000E+00
 -1       130 0.00000E+00 0.00000E+00-5.00000E-03
 -1       131 0.00000E+00 0.00000E+00-5.00000E-03
 -1       132 0.00000E+00 0.00000E+00-5.00000E-03
 -1       133 0.00000E+00 0.00000E+00-5.00000E-03
 -1       134 0.00000E+00 0.00000E+00-5.00000E-03
 -1       135 0.00000E+00 0.00000E+00-5.00000E-03
 -1       136 0.00000E+00 0.00000E+00-5.00000E-03
 -1       137 0.00000E+00 0.00000E+00-5.00000E-03
 -1       138 0.00000E+00 0.00000E+00-5.00000E-03
 -1       139 0.00000E+00 0.00000E+00-5.00000E-03
 -1       140 0.00000E+00 0.00000E+00-5.00000E-03
 -1       141-1.00976E-03 1.41268E-03-2.98107E-03
 -1       142 1.00834E-03 1.41437E-03-2.97927E-03
 -1       143-1.21738E-04 1.14214E-03-7.21914E-04
 -1       144-1.11994E-04 1.11296E-03-4.33277E-03
 -1       145 3.97812E-04 1.10710E-03-7.31180E-04
 -1       146 3.92897E-04 1.05493E-03-4.30035E-03
 -1       147-8.67616E-04 1.25410E-03-1.27502E-03
 -1       148-3.88609E-04 1.06662E-03-4.28162E-03
 -1       149-5.15877E-04 1.41367E-03-3.54099E-03
 -1       150 5.44158E-06 1.43848E-03-3.60991E-03
 -1       151-2.50264E-04 1.52689E-03-2.86944E-03
 -1       152 2.40704E-04 1.53797E-03-2.82811E-03
 -1       153-1.75975E-06 1.53350E-03-2.08101E-03
 -1       154 4.88161E-04 1.50036E-03-2.06614E-03
 -1       155-5.16764E-04 1.49356E-03-2.08101E-03
 -1       156 2.08664E-04 1.41958E-03-1.30227E-03
 -1       157 5.04816E-04 1.41088E-03-3.54166E-03
 -1       158-9.75436E-04 1.42584E-03-2.10498E-03
 -1       159 9.76346E-04 1.42078E-03-2.10792E-03
 -1       160 1.49675E-04 1.10610E-03-4.31607E-03
 -1       161-8.71579E-04 1.24337E-03-3.72261E-03
 -1       162 8.61579E-04 1.24404E-03-3.72603E-03
 -1       163-3.86310E-04 1.04318E-03-6.98556E-04
 -1       164 8.85642E-04 1.26914E-03-1.31039E-03
 -1       165-2.14615E-04 1.46565E-03-1.50558E-03
 -1       166 1.03463E-04 9.68002E-04-5.43878E-04
 -1       167 6.21035E-04 1.39610E-03-1.48141E-03
 -1       168-5.45507E-04 1.38118E-03-1.36437E-03
 -1       169 6.84036E-04 1.47008E-03-2.71818E-03
 -1       170-6.77610E-04 1.47654E-03-2.76459E-03
 -1       171-5.82219E-04 9.53428E-04-4.34285E-03
 -1       172 5.78068E-04 9.53010E-04-4.36731E-03
 -1       173 5.75983E-04 9.55080E-04-6.38722E-04
 -1       174-5.77624E-04 9.46641E-04-6.53523E-04
 -1       175 2.94348E-04 6.22936E-04-2.05595E-04
 -1       176 4.12764E-04 5.85720E-04-2.56472E-04
 -1       177 8.19158E-04 9.88643E-04-8.29881E-04
 -1       178-4.11538E-04 5.86890E-04-2.58614E-04
 -1       179-2.91461E-04 6.42637E-04-2.11055E-04
 -1       180-8.16981E-04 9.88986E-04-8.36897E-04
 -1       181-4.16582E-04 5.91429E-04-4.74009E-03
 -1       182-8.19821E-04 9.90479E-04-4.16518E-03
 -1       183-2.92501E-04 6.45922E-04-4.78751E-03
 -1       184 4.10908E-04 5.89744E-04-4.74406E-03
 -1       185 2.94399E-04 6.24632E-04-4.79800E-03
 -1       186 8.29062E-04 9.92143E-04-4.17535E-03
 -1       187 1.87614E-04 7.32546E-04-2.41851E-04
 -1       188 2.64527E-04 7.36851E-04-2.57987E-04
 -1       189 4.92056E-04 1.04856E-03-6.87142E-04
 -1       190 3.53162E-05 6.30585E-04-1.83470E-04
 -1       191 9.73885E-05 6.44323E-04-1.89008E-04
 -1       192 2.33413E-04 1.04597E-03-6.40327E-04
 -1       193-1.15597E-04 7.37499E-04-2.36782E-04
 -1       194-3.96902E-05 7.79712E-04-2.50041E-04
 -1       195-3.41277E-06 1.07251E-03-6.40732E-04
 -1       196-2.63612E-04 6.84329E-04-2.29421E-04
 -1       197-1.74948E-04 6.92006E-04-2.39272E-04
 -1       198-2.54264E-04 1.10560E-03-6.97824E-04
 -1       199-4.85915E-04 1.00678E-03-6.67009E-04
 -1       200-1.10787E-03 1.27846E-03-1.53618E-03
 -1       201-9.64994E-04 1.15208E-03-1.14111E-03
 -1       202-7.59611E-04 1.12856E-03-9.64887E-04
 -1       203-1.19634E-03 1.39639E-03-2.31320E-03
 -1       204-1.16008E-03 1.36156E-03-1.92650E-03
 -1       205-9.48583E-04 1.35752E-03-1.68161E-03
 -1       206-1.17994E-03 1.35828E-03-3.11222E-03
 -1       207-1.21331E-03 1.38969E-03-2.72584E-03
 -1       208-1.01492E-03 1.42637E-03-2.54565E-03
 -1       209-9.67687E-04 1.15429E-03-3.85705E-03
 -1       210-1.11032E-03 1.27500E-03-3.46647E-03
 -1       211-9.65847E-04 1.34227E-03-3.35725E-03
 -1       212-7.62604E-04 1.12864E-03-4.02799E-03
 -1       213 2.56963E-04 7.03646E-04-4.75662E-03
 -1       214 1.81578E-04 6.88549E-04-4.76936E-03
 -1       215 4.86159E-04 1.01619E-03-4.32534E-03
 -1       216 1.09056E-04 7.35479E-04-4.75824E-03
 -1       217 4.56783E-05 7.24414E-04-4.77682E-03
 -1       218 2.55253E-04 1.09007E-03-4.30483E-03
 -1       219-2.47367E-05 7.43325E-04-4.77003E-03
 -1       220-1.05966E-04 7.17712E-04-4.78256E-03
 -1       221 1.31135E-05 1.11951E-03-4.32925E-03
 -1       222-1.74639E-04 7.10882E-04-4.75470E-03
 -1       223-2.68987E-04 7.03839E-04-4.76372E-03
 -1       224-2.45018E-04 1.09967E-03-4.31738E-03
 -1       225-4.90200E-04 1.02398E-03-4.32576E-03
 -1       226 9.76926E-04 1.15637E-03-1.15810E-03
 -1       227 1.12013E-03 1.28123E-03-1.55601E-03
 -1       228 7.72630E-04 1.13320E-03-9.76110E-04
 -1       229 1.16440E-03 1.35861E-03-1.93275E-03
 -1       230 1.19810E-03 1.39585E-03-2.31845E-03
 -1       231 9.58048E-04 1.35860E-03-1.70265E-03
 -1       232 1.21400E-03 1.38803E-03-2.72640E-03
 -1       233 1.18114E-03 1.35640E-03-3.11307E-03
 -1       234 1.01516E-03 1.42570E-03-2.54659E-03
 -1       235 1.11201E-03 1.27348E-03-3.46644E-03
 -1       236 9.62118E-04 1.14143E-03-3.85728E-03
 -1       237 9.67857E-04 1.34421E-03-3.35552E-03
 -1       238 7.65730E-04 1.14025E-03-4.03689E-03
 -1       239-7.04644E-04 1.32010E-03-3.64886E-03
 -1       240-7.72986E-04 1.41205E-03-3.26504E-03
 -1       241-6.10083E-04 1.45301E-03-3.15534E-03
 -1       242-8.50924E-04 1.44109E-03-2.88233E-03
 -1       243-8.41551E-04 1.45472E-03-2.42559E-03
 -1       244 6.97819E-04 1.32463E-03-3.64890E-03
 -1       245 7.69559E-04 1.41107E-03-3.26443E-03
 -1       246 8.56468E-04 1.43926E-03-2.85945E-03
 -1       247 6.10233E-04 1.44596E-03-3.13019E-03
 -1       248 8.45696E-04 1.45320E-03-2.40537E-03
 -1       249-1.76201E-04 1.33449E-03-1.09577E-03
 -1       250 6.36159E-06 1.44308E-03-1.39909E-03
 -1       251-6.50247E-07 1.29076E-03-9.96809E-04
 -1       252 1.59816E-04 1.25063E-03-9.03476E-04
 -1       253-5.01008E-04 1.22914E-03-1.01857E-03
 -1       254-3.23015E-04 1.29153E-03-1.03538E-03
 -1       255-3.85040E-04 1.41740E-03-1.42915E-03
 -1       256-3.13577E-04 1.30992E-03-3.94220E-03
 -1       257-4.98262E-04 1.25583E-03-3.92078E-03
 -1       258-7.53891E-05 1.29960E-03-3.98317E-03
 -1       259-2.57558E-04 1.42128E-03-3.58672E-03
 -1       260 9.57010E-05 1.30708E-03-3.96949E-03
 -1       261 3.41768E-04 1.28116E-03-1.00589E-03
 -1       262 4.10077E-04 1.41046E-03-1.38746E-03
 -1       263 5.43707E-04 1.26557E-03-1.10153E-03
 -1       264 7.63304E-04 1.33325E-03-1.38724E-03
 -1       265 6.45112E-04 1.18685E-03-1.00976E-03
 -1       266 3.14590E-04 1.31265E-03-3.94480E-03
 -1       267 4.94226E-04 1.25699E-03-3.92564E-03
 -1       268 6.37203E-04 1.16868E-03-4.02035E-03
 -1       269-7.73917E-04 1.41529E-03-1.73471E-03
 -1       270-7.13524E-04 1.30726E-03-1.30152E-03
 -1       271-6.24598E-04 1.16638E-03-9.67448E-04
 -1       272-6.28604E-04 1.16753E-03-4.01960E-03
 -1       273-1.20083E-04 1.48909E-03-3.25025E-03
 -1       274-4.06762E-04 1.47406E-03-3.21899E-03
 -1       275-4.67123E-04 1.50551E-03-2.81891E-03
 -1       276 1.15078E-04 1.49845E-03-3.22875E-03
 -1       277-3.79911E-06 1.53242E-03-2.85816E-03
 -1       278 2.50364E-04 1.41799E-03-3.58221E-03
 -1       279 3.89787E-04 1.48115E-03-3.19525E-03
 -1       280 1.21860E-04 1.53581E-03-2.45818E-03
 -1       281-1.27756E-04 1.53578E-03-2.47653E-03
 -1       282-2.61624E-04 1.51777E-03-2.08307E-03
 -1       283-3.94459E-04 1.51900E-03-2.47486E-03
 -1       284-6.04694E-04 1.49523E-03-2.42368E-03
 -1       285 3.74070E-04 1.51825E-03-2.44849E-03
 -1       286 2.46459E-04 1.52028E-03-2.06939E-03
 -1       287 4.64743E-04 1.50330E-03-2.77247E-03
 -1       288 5.92429E-04 1.49261E-03-2.39457E-03
 -1       289 3.45404E-04 1.46424E-03-1.67347E-03
 -1       290 1.18034E-04 1.47992E-03-1.68025E-03
 -1       291-1.16860E-04 1.50507E-03-1.78792E-03
 -1       292-3.63325E-04 1.47831E-03-1.78704E-03
 -1       293 5.69648E-04 1.45365E-03-1.76747E-03
 -1       294 8.11910E-04 1.40469E-03-1.79891E-03
 -1       295 7.41149E-04 1.45436E-03-2.08778E-03
 -1       296-5.48437E-04 1.44726E-03-1.71360E-03
 -1       297-7.50654E-04 1.46056E-03-2.08904E-03
 -1       298 1.41319E-03 1.03815E-03-2.91393E-03
 -1       299 1.40604E-03-1.02421E-03-2.90372E-03
 -1       300 1.13324E-03 1.54752E-04-6.87037E-04
 -1       301 1.12814E-03 1.49753E-04-4.29000E-03
 -1       302 1.01726E-03-3.88671E-04-6.47720E-04
 -1       303 1.26207E-03 8.74862E-04-1.28346E-03
 -1       304 1.06375E-03-3.83009E-04-4.31425E-03
 -1       305 1.25446E-03 8.72291E-04-3.71745E-03
 -1       306 1.41224E-03 5.41177E-04-3.51082E-03
 -1       307 1.49003E-03 6.51216E-04-2.52610E-03
 -1       308 1.52969E-03 2.09121E-04-2.95955E-03
 -1       309 1.52603E-03 1.97786E-04-2.07497E-03
 -1       310 1.52838E-03-2.34733E-04-2.50669E-03
 -1       311 1.47136E-03-2.26986E-04-3.39171E-03
 -1       312 1.47803E-03-2.20662E-04-1.62654E-03
 -1       313 1.47485E-03-6.68526E-04-2.17925E-03
 -1       314 1.40114E-03 1.03283E-03-2.10311E-03
 -1       315 1.19718E-03-1.40104E-04-8.19358E-04
 -1       316 1.20836E-03-1.54339E-04-4.23554E-03
 -1       317 1.42276E-03 5.35686E-04-1.50962E-03
 -1       318 1.05127E-03 3.90610E-04-4.29122E-03
 -1       319 1.05460E-03 3.92560E-04-7.07242E-04
 -1       320 1.25590E-03-8.73685E-04-3.72068E-03
 -1       321 1.22671E-03-8.79025E-04-1.24601E-03
 -1       322 1.40723E-03-1.05754E-03-2.04402E-03
 -1       323 1.48680E-03-5.64089E-04-2.94584E-03
 -1       324 1.37675E-03-5.65479E-04-1.36182E-03
 -1       325 1.37817E-03-5.60599E-04-3.60870E-03
 -1       326 1.42118E-03 1.29317E-04-3.67507E-03
 -1       327 1.42599E-03 9.90867E-05-1.32135E-03
 -1       328 9.53914E-04 5.78766E-04-4.35125E-03
 -1       329 9.40005E-04-5.86831E-04-4.35258E-03
 -1       330 9.44357E-04 5.83483E-04-6.39240E-04
 -1       331 9.34115E-04-5.84098E-04-6.45113E-04
 -1       332 9.90925E-04 8.28157E-04-8.21876E-04
 -1       333 5.94394E-04 4.14304E-04-2.55899E-04
 -1       334 6.41282E-04 2.92365E-04-2.06302E-04
 -1       335 5.90191E-04 4.12953E-04-4.74257E-03
 -1       336 9.90620E-04 8.23549E-04-4.16761E-03
 -1       337 6.46017E-04 2.89258E-04-4.78958E-03
 -1       338 6.34976E-04-2.86840E-04-2.06768E-04
 -1       339 5.88076E-04-4.11364E-04-2.56114E-04
 -1       340 9.86944E-04-8.31448E-04-8.23628E-04
 -1       341 5.92279E-04-4.15688E-04-4.74253E-03
 -1       342 6.38030E-04-2.89644E-04-4.79166E-03
 -1       343 9.89113E-04-8.30242E-04-4.17633E-03
 -1       344 1.27064E-03 1.10928E-03-1.53743E-03
 -1       345 1.14802E-03 9.66321E-04-1.14649E-03
 -1       346 1.14327E-03 7.68188E-04-9.65762E-04
 -1       347 1.38426E-03 1.22317E-03-2.31141E-03
 -1       348 1.35213E-03 1.19042E-03-1.92669E-03
 -1       349 1.34666E-03 9.78650E-04-1.69427E-03
 -1       350 1.35132E-03 1.19050E-03-3.07803E-03
 -1       351 1.39148E-03 1.22817E-03-2.69546E-03
 -1       352 1.41244E-03 1.05492E-03-2.50977E-03
 -1       353 1.15455E-03 9.72792E-04-3.85531E-03
 -1       354 1.27664E-03 1.11390E-03-3.46109E-03
 -1       355 1.34589E-03 9.81674E-04-3.31845E-03
 -1       356 1.13182E-03 7.63778E-04-4.03415E-03
 -1       357 6.62013E-04-1.85707E-04-2.17780E-04
 -1       358 6.66692E-04-2.60712E-04-2.13970E-04
 -1       359 9.93204E-04-4.89807E-04-6.44056E-04
 -1       360 7.87785E-04-3.93456E-05-2.71479E-04
 -1       361 7.94636E-04-1.19041E-04-2.89214E-04
 -1       362 1.12442E-03-2.70516E-04-7.47609E-04
 -1       363 7.31114E-04 1.19411E-04-2.24949E-04
 -1       364 7.41158E-04 4.20606E-05-2.44712E-04
 -1       365 1.18200E-03 2.10742E-05-7.52375E-04
 -1       366 6.92301E-04 2.66338E-04-2.32495E-04
 -1       367 6.96244E-04 1.72719E-04-2.40943E-04
 -1       368 1.10155E-03 2.69830E-04-6.87455E-04
 -1       369 1.01132E-03 4.91633E-04-6.62469E-04
 -1       370 6.83035E-04-2.61096E-04-4.77269E-03
 -1       371 6.75348E-04-1.81926E-04-4.76993E-03
 -1       372 1.01187E-03-4.91411E-04-4.34331E-03
 -1       373 7.97754E-04-1.14292E-04-4.72417E-03
 -1       374 7.79028E-04-3.53770E-05-4.75170E-03
 -1       375 1.14077E-03-2.58910E-04-4.26807E-03
 -1       376 7.37371E-04 3.90724E-05-4.75040E-03
 -1       377 7.27696E-04 1.20145E-04-4.76775E-03
 -1       378 1.17972E-03 1.59849E-05-4.25685E-03
 -1       379 6.94830E-04 1.74525E-04-4.75733E-03
 -1       380 6.90770E-04 2.63280E-04-4.76665E-03
 -1       381 1.10190E-03 2.67608E-04-4.29796E-03
 -1       382 1.01494E-03 4.88265E-04-4.33145E-03
 -1       383 1.12650E-03-9.68650E-04-1.13129E-03
 -1       384 1.26197E-03-1.12165E-03-1.51939E-03
 -1       385 1.12464E-03-7.73739E-04-9.53115E-04
 -1       386 1.35215E-03-1.20918E-03-1.90004E-03
 -1       387 1.38481E-03-1.23710E-03-2.28227E-03
 -1       388 1.33394E-03-1.00177E-03-1.64206E-03
 -1       389 1.39070E-03-1.22085E-03-2.68701E-03
 -1       390 1.35341E-03-1.18420E-03-3.06768E-03
 -1       391 1.41557E-03-1.05955E-03-2.47390E-03
 -1       392 1.27351E-03-1.11362E-03-3.45953E-03
 -1       393 1.13893E-03-9.66111E-04-3.85764E-03
 -1       394 1.34529E-03-9.78204E-04-3.31697E-03
 -1       395 1.13582E-03-7.73344E-04-4.03135E-03
 -1       396 1.32907E-03 7.19839E-04-3.63103E-03
 -1       397 1.42134E-03 8.01391E-04-3.21466E-03
 -1       398 1.46602E-03 6.17566E-04-3.02776E-03
 -1       399 1.45257E-03 8.59898E-04-2.73465E-03
 -1       400 1.44889E-03 8.57745E-04-2.29988E-03
 -1       401 1.43375E-03-8.69781E-04-2.10164E-03
 -1       402 1.44726E-03-8.66409E-04-2.55327E-03
 -1       403 1.48990E-03-6.28759E-04-2.56174E-03
 -1       404 1.44192E-03-8.00766E-04-2.92926E-03
 -1       405 1.39487E-03-8.10094E-04-3.25647E-03
 -1       406 1.32143E-03-7.23601E-04-3.67475E-03
 -1       407 1.43451E-03-5.81186E-04-3.28371E-03
 -1       408 1.28093E-03 1.50170E-04-9.93319E-04
 -1       409 1.31647E-03-3.71475E-05-1.07111E-03
 -1       410 1.25082E-03 5.11502E-04-1.09022E-03
 -1       411 1.31548E-03 3.38770E-04-1.08130E-03
 -1       412 1.43086E-03 3.12470E-04-1.40660E-03
 -1       413 1.25811E-03 5.09752E-04-3.91499E-03
 -1       414 1.31521E-03 3.41948E-04-3.90640E-03
 -1       415 1.29810E-03 1.54792E-04-3.99255E-03
 -1       416 1.41515E-03 3.32376E-04-3.60081E-03
 -1       417 1.30817E-03-3.29347E-05-3.95185E-03
 -1       418 1.31479E-03-3.39805E-04-1.07278E-03
 -1       419 1.24576E-03-5.19743E-04-9.95123E-04
 -1       420 1.29715E-03-7.29535E-04-1.28657E-03
 -1       421 1.14809E-03-6.40587E-04-9.37428E-04
 -1       422 1.41295E-03 7.96290E-04-1.80788E-03
 -1       423 1.34411E-03 7.14588E-04-1.37775E-03
 -1       424 1.15822E-03 6.35063E-04-9.72259E-04
 -1       425 1.23296E-03-5.15546E-04-3.96679E-03
 -1       426 1.31998E-03-3.39316E-04-3.93033E-03
 -1       427 1.16220E-03-6.40315E-04-4.03278E-03
 -1       428 1.17101E-03 6.28545E-04-4.02373E-03
 -1       429 1.47200E-03 3.89545E-04-3.24931E-03
 -1       430 1.51216E-03 4.33308E-04-2.74154E-03
 -1       431 1.48581E-03 1.70369E-04-3.32567E-03
 -1       432 1.53604E-03 2.09376E-04-2.51790E-03
 -1       433 1.50841E-03 4.31181E-04-2.30161E-03
 -1       434 1.47109E-03 3.87154E-04-1.77815E-03
 -1       435 1.46245E-03 6.19839E-04-2.01201E-03
 -1       436 1.53340E-03-9.76738E-06-2.73297E-03
 -1       437 1.53637E-03-1.67636E-05-2.29143E-03
 -1       438 1.49866E-03-1.94378E-05-3.17780E-03
 -1       439 1.51287E-03-2.37649E-04-2.95705E-03
 -1       440 1.45079E-03-4.13545E-05-3.53210E-03
 -1       441 1.51933E-03-2.40521E-04-2.06094E-03
 -1       442 1.50317E-03-2.02050E-05-1.84867E-03
 -1       443 1.45947E-03-4.79086E-05-1.47141E-03
 -1       444 1.48711E-03 1.49858E-04-1.68909E-03
 -1       445 1.48581E-03-3.94014E-04-3.17028E-03
 -1       446 1.51311E-03-4.07536E-04-2.72906E-03
 -1       447 1.51045E-03-4.58781E-04-2.33883E-03
 -1       448 1.48559E-03-4.50275E-04-1.90233E-03
 -1       449 1.42521E-03-4.01363E-04-3.50442E-03
 -1       450 1.36991E-03-1.94178E-04-3.82513E-03
 -1       451 1.43635E-03-6.36578E-04-1.76625E-03
 -1       452 1.43133E-03-4.06606E-04-1.48796E-03
 -1       453 1.37370E-03-1.88263E-04-1.20384E-03
 -1       454 1.39222E-03-8.24131E-04-1.69905E-03
 -1       455 1.03474E-03-1.40509E-03-2.90942E-03
 -1       456-1.02151E-03-1.41843E-03-2.90113E-03
 -1       457 1.71021E-04-1.11250E-03-6.91365E-04
 -1       458 1.54276E-04-1.14361E-03-4.30655E-03
 -1       459-3.89339E-04-1.02723E-03-6.81448E-04
 -1       460 8.66292E-04-1.25719E-03-1.28323E-03
 -1       461-3.86381E-04-1.05588E-03-4.31990E-03
 -1       462 8.76142E-04-1.25916E-03-3.71403E-03
 -1       463 5.37509E-04-1.42288E-03-3.51052E-03
 -1       464 6.37676E-04-1.48934E-03-2.51797E-03
 -1       465 2.07149E-04-1.51852E-03-2.96078E-03
 -1       466 1.95143E-04-1.53609E-03-2.08396E-03
 -1       467-2.34761E-04-1.53333E-03-2.50946E-03
 -1       468-2.21543E-04-1.47919E-03-3.38502E-03
 -1       469-2.21535E-04-1.48038E-03-1.65063E-03
 -1       470-6.52285E-04-1.49315E-03-2.19496E-03
 -1       471 1.02607E-03-1.41946E-03-2.09025E-03
 -1       472-1.43573E-04-1.20414E-03-7.80480E-04
 -1       473-1.49392E-04-1.17450E-03-4.20921E-03
 -1       474 5.22004E-04-1.41731E-03-1.49059E-03
 -1       475 3.99268E-04-1.04015E-03-4.29488E-03
 -1       476 3.85288E-04-1.04831E-03-6.89449E-04
 -1       477-8.66944E-04-1.24537E-03-3.72496E-03
 -1       478-8.72265E-04-1.22828E-03-1.24925E-03
 -1       479-1.05184E-03-1.41170E-03-2.04351E-03
 -1       480-5.72359E-04-1.48159E-03-2.94707E-03
 -1       481-5.69969E-04-1.36926E-03-1.36625E-03
 -1       482-5.67561E-04-1.37773E-03-3.60891E-03
 -1       483 1.28998E-04-1.41491E-03-3.67838E-03
 -1       484 1.13367E-04-1.41658E-03-1.31557E-03
 -1       485 5.82058E-04-9.57610E-04-4.35521E-03
 -1       486-5.88967E-04-9.40792E-04-4.35308E-03
 -1       487 5.69567E-04-9.56077E-04-6.44431E-04
 -1       488-5.77079E-04-9.32496E-04-6.44820E-04
 -1       489 8.16990E-04-9.91642E-04-8.35409E-04
 -1       490 4.08431E-04-5.84372E-04-2.57511E-04
 -1       491 2.90465E-04-6.25878E-04-2.06491E-04
 -1       492 4.12687E-04-5.86591E-04-4.74150E-03
 -1       493 8.21189E-04-9.91276E-04-4.16772E-03
 -1       494 2.89497E-04-6.30450E-04-4.79325E-03
 -1       495-2.89740E-04-6.33924E-04-2.06630E-04
 -1       496-4.10687E-04-5.86088E-04-2.55640E-04
 -1       497-8.25313E-04-9.86634E-04-8.24152E-04
 -1       498-4.15566E-04-5.92385E-04-4.74265E-03
 -1       499-2.90111E-04-6.37324E-04-4.79138E-03
 -1       500-8.31710E-04-9.89509E-04-4.17825E-03
 -1       501 1.10667E-03-1.28061E-03-1.53976E-03
 -1       502 9.65345E-04-1.15477E-03-1.14652E-03
 -1       503 7.57878E-04-1.13243E-03-9.67096E-04
 -1       504 1.22123E-03-1.39366E-03-2.30548E-03
 -1       505 1.18504E-03-1.35798E-03-1.92187E-03
 -1       506 9.76137E-04-1.35360E-03-1.68287E-03
 -1       507 1.19058E-03-1.35351E-03-3.07479E-03
 -1       508 1.22320E-03-1.38643E-03-2.69068E-03
 -1       509 1.04941E-03-1.42009E-03-2.49895E-03
 -1       510 9.69357E-04-1.15645E-03-3.85210E-03
 -1       511 1.11250E-03-1.27548E-03-3.46088E-03
 -1       512 9.81102E-04-1.35032E-03-3.31154E-03
 -1       513 7.63296E-04-1.13024E-03-4.03345E-03
 -1       514-1.74077E-04-6.76330E-04-2.35354E-04
 -1       515-2.62259E-04-6.77367E-04-2.24256E-04
 -1       516-4.85206E-04-9.90867E-04-6.56186E-04
 -1       517-3.97584E-05-7.88974E-04-2.67768E-04
 -1       518-1.29408E-04-7.86348E-04-2.54940E-04
 -1       519-2.76518E-04-1.12226E-03-7.18482E-04
 -1       520 1.15176E-04-7.41558E-04-2.43904E-04
 -1       521 5.36884E-05-7.20647E-04-2.24558E-04
 -1       522 2.98496E-05-1.17830E-03-7.27793E-04
 -1       523 2.52052E-04-6.99623E-04-2.40741E-04
 -1       524 1.76922E-04-6.79752E-04-2.26932E-04
 -1       525 2.63650E-04-1.08794E-03-6.94758E-04
 -1       526 4.78701E-04-1.01740E-03-6.73861E-04
 -1       527-2.61230E-04-6.80396E-04-4.77453E-03
 -1       528-1.86224E-04-6.83022E-04-4.77069E-03
 -1       529-4.93713E-04-1.01092E-03-4.34319E-03
 -1       530-1.18978E-04-8.14157E-04-4.72411E-03
 -1       531-3.93393E-05-8.10756E-04-4.72876E-03
 -1       532-2.64711E-04-1.12588E-03-4.26184E-03
 -1       533 4.95172E-05-7.30036E-04-4.76803E-03
 -1       534 1.17869E-04-7.28001E-04-4.76900E-03
 -1       535 4.33892E-06-1.17539E-03-4.25428E-03
 -1       536 1.69072E-04-7.00352E-04-4.76202E-03
 -1       537 2.55112E-04-7.13271E-04-4.75661E-03
 -1       538 2.72741E-04-1.10179E-03-4.30844E-03
 -1       539 4.89772E-04-1.01277E-03-4.32451E-03
 -1       540-9.62847E-04-1.12852E-03-1.13271E-03
 -1       541-1.11673E-03-1.26394E-03-1.51972E-03
 -1       542-7.65195E-04-1.12635E-03-9.52601E-04
 -1       543-1.20347E-03-1.35429E-03-1.90009E-03
 -1       544-1.23091E-03-1.38423E-03-2.28239E-03
 -1       545-9.96625E-04-1.33740E-03-1.64264E-03
 -1       546-1.21829E-03-1.39265E-03-2.68782E-03
 -1       547-1.18344E-03-1.35313E-03-3.07072E-03
 -1       548-1.05552E-03-1.41655E-03-2.47147E-03
 -1       549-1.11177E-03-1.26966E-03-3.46206E-03
 -1       550-9.63808E-04-1.13418E-03-3.86150E-03
 -1       551-9.77023E-04-1.34740E-03-3.31759E-03
 -1       552-7.72585E-04-1.13391E-03-4.03223E-03
 -1       553 7.19972E-04-1.34278E-03-3.62901E-03
 -1       554 8.00313E-04-1.40356E-03-3.21119E-03
 -1       555 6.15260E-04-1.46894E-03-3.01730E-03
 -1       556 8.48595E-04-1.44567E-03-2.72579E-03
 -1       557 8.47402E-04-1.44696E-03-2.29240E-03
 -1       558-8.60304E-04-1.44430E-03-2.10493E-03
 -1       559-8.59903E-04-1.44580E-03-2.56239E-03
 -1       560-6.26198E-04-1.49264E-03-2.57289E-03
 -1       561-8.03885E-04-1.44327E-03-2.93171E-03
 -1       562-8.11051E-04-1.40436E-03-3.25732E-03
 -1       563-7.28359E-04-1.30375E-03-3.68560E-03
 -1       564-5.88527E-04-1.44046E-03-3.28266E-03
 -1       565 1.52447E-04-1.29990E-03-9.97955E-04
 -1       566-4.08879E-05-1.29671E-03-1.04737E-03
 -1       567 5.01654E-04-1.25918E-03-1.07926E-03
 -1       568 3.32508E-04-1.32096E-03-1.07062E-03
 -1       569 3.09185E-04-1.40915E-03-1.39296E-03
 -1       570 5.12101E-04-1.25481E-03-3.92423E-03
 -1       571 3.41725E-04-1.32031E-03-3.92360E-03
 -1       572 1.62134E-04-1.29026E-03-4.00006E-03
 -1       573 3.30167E-04-1.42588E-03-3.59471E-03
 -1       574-3.21059E-05-1.31187E-03-3.95104E-03
 -1       575-3.33960E-04-1.30441E-03-1.05375E-03
 -1       576-5.12448E-04-1.21866E-03-1.01051E-03
 -1       577-7.28233E-04-1.29458E-03-1.28807E-03
 -1       578-6.28014E-04-1.14541E-03-9.47496E-04
 -1       579 7.86997E-04-1.41886E-03-1.79112E-03
 -1       580 7.11222E-04-1.32996E-03-1.36913E-03
 -1       581 6.31634E-04-1.17358E-03-9.75404E-04
 -1       582-5.18420E-04-1.23449E-03-3.97068E-03
 -1       583-3.44328E-04-1.30323E-03-3.91396E-03
 -1       584-6.38223E-04-1.16190E-03-4.03328E-03
 -1       585 6.35648E-04-1.16496E-03-4.02695E-03
 -1       586 3.88606E-04-1.47089E-03-3.24110E-03
 -1       587 4.28876E-04-1.50798E-03-2.73653E-03
 -1       588 1.70420E-04-1.48317E-03-3.32591E-03
 -1       589 2.05338E-04-1.52659E-03-2.52295E-03
 -1       590 4.23699E-04-1.51128E-03-2.30530E-03
 -1       591 3.72581E-04-1.48397E-03-1.77924E-03
 -1       592 6.07598E-04-1.45970E-03-2.00085E-03
 -1       593-1.33478E-05-1.53425E-03-2.74052E-03
 -1       594-1.99037E-05-1.53960E-03-2.29875E-03
 -1       595-2.10046E-05-1.50436E-03-3.18248E-03
 -1       596-2.39893E-04-1.51381E-03-2.95670E-03
 -1       597-3.83269E-05-1.45488E-03-3.53811E-03
 -1       598-2.37519E-04-1.50697E-03-2.07274E-03
 -1       599-2.27443E-05-1.49801E-03-1.85922E-03
 -1       600-4.50791E-05-1.45437E-03-1.48184E-03
 -1       601 1.53029E-04-1.48401E-03-1.68974E-03
 -1       602-3.95174E-04-1.48161E-03-3.17271E-03
 -1       603-4.11630E-04-1.51030E-03-2.73262E-03
 -1       604-4.48824E-04-1.51578E-03-2.34857E-03
 -1       605-4.40660E-04-1.47523E-03-1.91802E-03
 -1       606-4.03751E-04-1.42996E-03-3.50713E-03
 -1       607-1.87712E-04-1.36537E-03-3.80965E-03
 -1       608-6.30572E-04-1.44352E-03-1.77712E-03
 -1       609-4.06383E-04-1.43357E-03-1.50509E-03
 -1       610-1.89907E-04-1.34829E-03-1.20609E-03
 -1       611-8.22263E-04-1.38259E-03-1.69863E-03
 -1       612-1.41074E-03-1.03348E-03-2.91168E-03
 -1       613-1.41478E-03 1.02486E-03-2.90309E-03
 -1       614-1.14979E-03-1.53198E-04-6.97364E-04
 -1       615-1.13059E-03-1.44303E-04-4.29505E-03
 -1       616-1.03582E-03 4.09921E-04-6.53228E-04
 -1       617-1.06558E-03 3.88280E-04-4.30991E-03
 -1       618-1.25665E-03-8.68586E-04-1.28609E-03
 -1       619-1.24930E-03-8.69256E-04-3.71345E-03
 -1       620-1.41719E-03-5.33421E-04-3.51654E-03
 -1       621-1.49221E-03-6.49327E-04-2.51972E-03
 -1       622-1.52339E-03-2.01833E-04-2.96396E-03
 -1       623-1.52193E-03-1.93602E-04-2.06748E-03
 -1       624-1.53683E-03 2.35967E-04-2.50684E-03
 -1       625-1.47515E-03 2.23781E-04-3.38011E-03
 -1       626-1.47597E-03 2.33095E-04-1.63253E-03
 -1       627-1.47603E-03 6.70055E-04-2.19371E-03
 -1       628-1.21321E-03 1.47485E-04-4.21271E-03
 -1       629-1.20438E-03 1.48322E-04-7.86256E-04
 -1       630-1.41470E-03-1.03430E-03-2.09559E-03
 -1       631-1.41692E-03-5.35755E-04-1.50950E-03
 -1       632-1.03883E-03-3.98300E-04-4.29465E-03
 -1       633-1.24562E-03 8.69618E-04-3.72792E-03
 -1       634-1.03620E-03-4.00573E-04-7.09531E-04
 -1       635-1.22354E-03 8.79441E-04-1.24501E-03
 -1       636-1.40699E-03 1.05449E-03-2.04458E-03
 -1       637-1.48685E-03 5.69302E-04-2.95493E-03
 -1       638-1.38653E-03 5.65810E-04-1.39108E-03
 -1       639-1.37664E-03 5.73778E-04-3.60907E-03
 -1       640-1.42244E-03-1.28843E-04-3.68467E-03
 -1       641-1.42137E-03-1.11706E-04-1.29659E-03
 -1       642-9.55476E-04-5.82559E-04-4.34999E-03
 -1       643-9.50516E-04-5.79824E-04-6.46462E-04
 -1       644-9.43079E-04 5.90776E-04-4.35658E-03
 -1       645-9.34918E-04 5.94216E-04-6.37979E-04
 -1       646-5.86291E-04 4.13139E-04-2.55189E-04
 -1       647-9.84105E-04 8.33365E-04-8.22069E-04
 -1       648-6.32948E-04 2.92785E-04-2.04423E-04
 -1       649-9.86050E-04 8.31157E-04-4.17676E-03
 -1       650-5.92911E-04 4.16257E-04-4.74290E-03
 -1       651-6.39206E-04 2.95044E-04-4.79272E-03
 -1       652-9.89553E-04-8.23863E-04-8.34051E-04
 -1       653-5.84437E-04-4.09950E-04-2.58676E-04
 -1       654-6.26329E-04-2.88136E-04-2.07050E-04
 -1       655-5.87997E-04-4.14973E-04-4.74040E-03
 -1       656-9.92513E-04-8.22230E-04-4.16792E-03
 -1       657-6.32939E-04-2.90930E-04-4.79136E-03
 -1       658-1.12489E-03 9.69307E-04-1.13126E-03
 -1       659-1.26122E-03 1.12023E-03-1.51782E-03
 -1       660-1.12570E-03 7.76678E-04-9.47182E-04
 -1       661-1.35094E-03 1.20660E-03-1.89888E-03
 -1       662-1.38194E-03 1.23461E-03-2.28294E-03
 -1       663-1.33085E-03 9.99502E-04-1.64065E-03
 -1       664-1.38977E-03 1.22105E-03-2.68896E-03
 -1       665-1.35106E-03 1.18652E-03-3.07253E-03
 -1       666-1.41339E-03 1.06021E-03-2.47347E-03
 -1       667-1.26849E-03 1.11294E-03-3.46415E-03
 -1       668-1.13367E-03 9.65334E-04-3.86094E-03
 -1       669-1.34439E-03 9.79726E-04-3.32116E-03
 -1       670-1.13400E-03 7.74562E-04-4.03448E-03
 -1       671-1.27780E-03-1.10994E-03-1.54001E-03
 -1       672-1.15439E-03-9.70176E-04-1.14578E-03
 -1       673-1.13087E-03-7.62714E-04-9.67738E-04
 -1       674-1.39089E-03-1.22500E-03-2.30782E-03
 -1       675-1.35609E-03-1.18963E-03-1.92442E-03
 -1       676-1.34966E-03-9.78751E-04-1.68553E-03
 -1       677-1.35851E-03-1.19327E-03-3.07860E-03
 -1       678-1.38736E-03-1.22468E-03-2.69312E-03
 -1       679-1.41818E-03-1.05427E-03-2.50144E-03
 -1       680-1.15640E-03-9.67477E-04-3.85469E-03
 -1       681-1.27594E-03-1.11045E-03-3.46354E-03
 -1       682-1.35164E-03-9.79763E-04-3.31689E-03
 -1       683-1.13133E-03-7.62283E-04-4.02657E-03
 -1       684-6.52900E-04 1.70974E-04-2.16615E-04
 -1       685-6.73832E-04 2.68573E-04-2.14436E-04
 -1       686-9.99971E-04 5.05424E-04-6.41995E-04
 -1       687-8.22371E-04 2.84825E-05-3.26899E-04
 -1       688-7.93256E-04 1.12546E-04-2.77291E-04
 -1       689-1.12777E-03 2.92356E-04-7.13523E-04
 -1       690-7.28209E-04-1.19891E-04-2.26056E-04
 -1       691-7.37127E-04-3.60599E-05-2.74785E-04
 -1       692-1.19810E-03-1.26580E-05-6.79931E-04
 -1       693-7.06785E-04-2.53891E-04-2.44789E-04
 -1       694-6.96998E-04-1.69704E-04-2.39901E-04
 -1       695-1.10200E-03-2.74337E-04-6.98180E-04
 -1       696-1.00700E-03-4.90232E-04-6.80912E-04
 -1       697-6.86680E-04 2.68150E-04-4.77156E-03
 -1       698-6.61913E-04 1.78067E-04-4.76877E-03
 -1       699-1.01428E-03 4.95862E-04-4.34090E-03
 -1       700-7.78343E-04 1.10336E-04-4.71047E-03
 -1       701-7.81741E-04 4.35514E-05-4.73763E-03
 -1       702-1.15220E-03 2.59878E-04-4.26118E-03
 -1       703-7.44494E-04-3.35492E-05-4.75174E-03
 -1       704-7.33156E-04-1.18381E-04-4.76930E-03
 -1       705-1.17649E-03-1.36760E-05-4.25140E-03
 -1       706-7.05492E-04-1.71538E-04-4.76122E-03
 -1       707-7.17000E-04-2.56385E-04-4.75543E-03
 -1       708-1.09633E-03-2.68483E-04-4.30380E-03
 -1       709-1.01296E-03-4.89795E-04-4.32217E-03
 -1       710-1.32777E-03-7.16435E-04-3.63421E-03
 -1       711-1.41536E-03-7.96870E-04-3.21495E-03
 -1       712-1.46608E-03-6.16919E-04-3.02240E-03
 -1       713-1.44662E-03-8.54943E-04-2.72846E-03
 -1       714-1.45499E-03-8.56965E-04-2.29580E-03
 -1       715-1.43185E-03 8.71021E-04-2.10956E-03
 -1       716-1.44631E-03 8.66245E-04-2.55987E-03
 -1       717-1.48862E-03 6.29649E-04-2.57366E-03
 -1       718-1.45060E-03 8.01502E-04-2.93347E-03
 -1       719-1.40701E-03 8.12114E-04-3.25865E-03
 -1       720-1.30841E-03 7.32858E-04-3.68337E-03
 -1       721-1.43824E-03 5.87331E-04-3.29043E-03
 -1       722-1.28610E-03-1.54808E-04-9.89833E-04
 -1       723-1.30625E-03 5.41166E-05-1.02131E-03
 -1       724-1.26486E-03-5.09770E-04-1.08597E-03
 -1       725-1.32157E-03-3.36894E-04-1.08701E-03
 -1       726-1.42624E-03-3.19485E-04-1.39201E-03
 -1       727-1.25906E-03-5.09772E-04-3.92101E-03
 -1       728-1.31660E-03-3.39160E-04-3.91226E-03
 -1       729-1.30246E-03-1.54195E-04-3.99930E-03
 -1       730-1.41352E-03-3.30332E-04-3.60476E-03
 -1       731-1.31061E-03 2.91437E-05-3.95183E-03
 -1       732-1.31816E-03 3.29046E-04-1.07484E-03
 -1       733-1.23005E-03 5.17010E-04-1.00096E-03
 -1       734-1.29631E-03 7.32418E-04-1.28639E-03
 -1       735-1.14898E-03 6.43187E-04-9.33237E-04
 -1       736-1.23567E-03 5.23867E-04-3.96315E-03
 -1       737-1.31821E-03 3.45358E-04-3.91424E-03
 -1       738-1.16256E-03 6.40275E-04-4.02783E-03
 -1       739-1.42174E-03-7.94632E-04-1.79962E-03
 -1       740-1.33156E-03-7.19020E-04-1.37230E-03
 -1       741-1.17176E-03-6.32873E-04-9.79383E-04
 -1       742-1.16817E-03-6.33755E-04-4.02222E-03
 -1       743-1.47103E-03-3.85494E-04-3.25120E-03
 -1       744-1.51166E-03-4.29890E-04-2.74058E-03
 -1       745-1.48811E-03-1.66204E-04-3.33072E-03
 -1       746-1.53112E-03-2.01202E-04-2.51612E-03
 -1       747-1.50857E-03-4.26521E-04-2.29732E-03
 -1       748-1.47374E-03-3.86173E-04-1.76903E-03
 -1       749-1.46487E-03-6.16111E-04-2.00571E-03
 -1       750-1.53498E-03 1.38429E-05-2.73825E-03
 -1       751-1.53599E-03 1.90992E-05-2.28367E-03
 -1       752-1.50284E-03 2.58640E-05-3.17976E-03
 -1       753-1.51175E-03 2.39644E-04-2.95319E-03
 -1       754-1.45359E-03 3.95961E-05-3.53679E-03
 -1       755-1.50999E-03 2.43075E-04-2.06534E-03
 -1       756-1.50127E-03 2.70004E-05-1.84369E-03
 -1       757-1.44910E-03 5.06607E-05-1.45509E-03
 -1       758-1.48525E-03-1.52993E-04-1.67507E-03
 -1       759-1.47854E-03 3.93580E-04-3.17410E-03
 -1       760-1.51146E-03 4.10995E-04-2.73274E-03
 -1       761-1.51130E-03 4.58354E-04-2.34401E-03
 -1       762-1.47499E-03 4.52477E-04-1.91076E-03
 -1       763-1.42312E-03 4.08738E-04-3.50825E-03
 -1       764-1.37153E-03 1.89509E-04-3.80895E-03
 -1       765-1.43684E-03 6.39681E-04-1.78473E-03
 -1       766-1.41866E-03 4.11022E-04-1.49907E-03
 -1       767-1.37200E-03 1.94372E-04-1.19252E-03
 -1       768-1.39423E-03 8.23651E-04-1.71091E-03
 -1       769 0.00000E+00 0.00000E+00-5.00000E-03
 -1       770 0.00000E+00 0.00000E+00-5.00000E-03
 -1       771 0.00000E+00 0.00000E+00-5.00000E-03
 -1       772 0.00000E+00 0.00000E+00-5.00000E-03
 -1       773 0.00000E+00 0.00000E+00-5.00000E-03
 -1       774 0.00000E+00 0.00000E+00-5.00000E-03
 -1       775 0.00000E+00 0.00000E+00-5.00000E-03
 -1       776 0.00000E+00 0.00000E+00-5.00000E-03
 -1       777 0.00000E+00 0.00000E+00-5.00000E-03
 -1       778 0.00000E+00 0.00000E+00-5.00000E-03
 -1       779 0.00000E+00 0.00000E+00-5.00000E-03
 -1       780 0.00000E+00 0.00000E+00-5.00000E-03
 -1       781 0.00000E+00 0.00000E+00-5.00000E-03
 -1       782 0.00000E+00 0.00000E+00-5.00000E-03
 -1       783 0.00000E+00 0.00000E+00-5.00000E-03
 -1       784 0.00000E+00 0.00000E+00-5.00000E-03
 -1       785 0.00000E+00 0.00000E+00-5.00000E-03
 -1       786 0.00000E+00 0.00000E+00-5.00000E-03
 -1       787 0.00000E+00 0.00000E+00-5.00000E-03
 -1       788 0.00000E+00 0.00000E+00-5.00000E-03
 -1       789 0.00000E+00 0.00000E+00-5.00000E-03
 -1       790 0.00000E+00 0.00000E+00-5.00000E-03
 -1       791 0.00000E+00 0.00000E+00-5.00000E-03
 -1       792 0.00000E+00 0.00000E+00-5.00000E-03
 -1       793 0.00000E+00 0.00000E+00-5.00000E-03
 -1       794 0.00000E+00 0.00000E+00-5.00000E-03
 -1       795 0.00000E+00 0.00000E+00-5.00000E-03
 -1       796 0.00000E+00 0.00000E+00-5.00000E-03
 -1       797 0.00000E+00 0.00000E+00-5.00000E-03
 -1       798 0.00000E+00 0.00000E+00-5.00000E-03
 -1       799 0.00000E+00 0.00000E+00-5.00000E-03
 -1       800 0.00000E+00 0.00000E+00-5.00000E-03
 -1       801 0.00000E+00 0.00000E+00-5.00000E-03
 -1       802 0.00000E+00 0.00000E+00-5.00000E-03
 -1       803 0.00000E+00 0.00000E+00-5.00000E-03
 -1       804 0.00000E+00 0.00000E+00-5.00000E-03
 -1       805 0.00000E+00 0.00000E+00-5.00000E-03
 -1       806 0.00000E+00 0.00000E+00-5.00000E-03
 -1       807 0.00000E+00 0.00000E+00-5.00000E-03
 -1       808 0.00000E+00 0.00000E+00-5.00000E-03
 -1       809 0.00000E+00 0.00000E+00-5.00000E-03
 -1       810 0.00000E+00 0.00000E+00-5.00000E-03
 -1       811 0.00000E+00 0.00000E+00-5.00000E-03
 -1       812 0.00000E+00 0.00000E+00-5.00000E-03
 -1       813 0.00000E+00 0.00000E+00-5.00000E-03
 -1       814 0.00000E+00 0.00000E+00-5.00000E-03
 -1       815 0.00000E+00 0.00000E+00-5.00000E-03
 -1       816 0.00000E+00 0.00000E+00-5.00000E-03
 -1       817 0.00000E+00 0.00000E+00-5.00000E-03
 -1       818 0.00000E+00 0.00000E+00-5.00000E-03
 -1       819 0.00000E+00 0.00000E+00-5.00000E-03
 -1       820 0.00000E+00 0.00000E+00-5.00000E-03
 -1       821 0.00000E+00 0.00000E+00-5.00000E-03
 -1       822 0.00000E+00 0.00000E+00-5.00000E-03
 -1       823 0.00000E+00 0.00000E+00-5.00000E-03
 -1       824 0.00000E+00 0.00000E+00-5.00000E-03
 -1       825 0.00000E+00 0.00000E+00-5.00000E-03
 -1       826 0.00000E+00 0.00000E+00-5.00000E-03
 -1       827 0.00000E+00 0.00000E+00-5.00000E-03
 -1       828 0.00000E+00 0.00000E+00-5.00000E-03
 -1       829 0.00000E+00 0.00000E+00-5.00000E-03
 -1       830 0.00000E+00 0.00000E+00-5.00000E-03
 -1       831 0.00000E+00 0.00000E+00-5.00000E-03
 -1       832 0.00000E+00 0.00000E+00-5.00000E-03
 -1       833 0.00000E+00 0.00000E+00-5.00000E-03
 -1       834 0.00000E+00 0.00000E+00-5.00000E-03
 -1       835 0.00000E+00 0.00000E+00-5.00000E-03
 -1       836 0.00000E+00 0.00000E+00-5.00000E-03
 -1       837 0.00000E+00 0.00000E+00-5.00000E-03
 -1       838 0.00000E+00 0.00000E+00-5.00000E-03
 -1       839 0.00000E+00 0.00000E+00-5.00000E-03
 -1       840 0.00000E+00 0.00000E+00-5.00000E-03
 -1       841 0.00000E+00 0.00000E+00-5.00000E-03
 -1       842 0.00000E+00 0.00000E+00-5.00000E-03
 -1       843 0.00000E+00 0.00000E+00-5.00000E-03
 -1       844 0.00000E+00 0.00000E+00-5.00000E-03
 -1       845 0.00000E+00 0.00000E+00-5.00000E-03
 -1       846 0.00000E+00 0.00000E+00-5.00000E-03
 -1       847 0.00000E+00 0.00000E+00-5.00000E-03
 -1       848 0.00000E+00 0.00000E+00-5.00000E-03
 -1       849 0.00000E+00 0.00000E+00-5.00000E-03
 -1       850 0.00000E+00 0.00000E+00-5.00000E-03
 -1       851 0.00000E+00 0.00000E+00-5.00000E-03
 -1       852 0.00000E+00 0.00000E+00-5.00000E-03
 -1       853 0.00000E+00 0.00000E+00-5.00000E-03
 -1       854 0.00000E+00 0.00000E+00-5.00000E-03
 -1       855 0.00000E+00 0.00000E+00-5.00000E-03
 -1       856 0.00000E+00 0.00000E+00-5.00000E-03
 -1       857 0.00000E+00 0.00000E+00-5.00000E-03
 -1       858 0.00000E+00 0.00000E+00-5.00000E-03
 -1       859 0.00000E+00 0.00000E+00-5.00000E-03
 -1       860 0.00000E+00 0.00000E+00-5.00000E-03
 -1       861 0.00000E+00 0.00000E+00-5.00000E-03
 -1       862 0.00000E+00 0.00000E+00-5.00000E-03
 -1       863 0.00000E+00 0.00000E+00-5.00000E-03
 -1       864 0.00000E+00 0.00000E+00-5.00000E-03
 -1       865 0.00000E+00 0.00000E+00-5.00000E-03
 -1       866 0.00000E+00 0.00000E+00-5.00000E-03
 -1       867 0.00000E+00 0.00000E+00-5.00000E-03
 -1       868 0.00000E+00 0.00000E+00-5.00000E-03
 -1       869 0.00000E+00 0.00000E+00-5.00000E-03
 -1       870 0.00000E+00 0.00000E+00-5.00000E-03
 -1       871 0.00000E+00 0.00000E+00-5.00000E-03
 -1       872 0.00000E+00 0.00000E+00-5.00000E-03
 -1       873 0.00000E+00 0.00000E+00-5.00000E-03
 -1       874 0.00000E+00 0.00000E+00-5.00000E-03
 -1       875 0.00000E+00 0.00000E+00-5.00000E-03
 -1       876 0.00000E+00 0.00000E+00-5.00000E-03
 -1       877 0.00000E+00 0.00000E+00-5.00000E-03
 -1       878 0.00000E+00 0.00000E+00-5.00000E-03
 -1       879 0.00000E+00 0.00000E+00-5.00000E-03
 -1       880 0.00000E+00 0.00000E+00-5.00000E-03
 -1       881 0.00000E+00 0.00000E+00-5.00000E-03
 -1       882 0.00000E+00 0.00000E+00-5.00000E-03
 -1       883 0.00000E+00 0.00000E+00-5.00000E-03
 -1       884 0.00000E+00 0.00000E+00-5.00000E-03
 -1       885 0.00000E+00 0.00000E+00-5.00000E-03
 -1       886 0.00000E+00 0.00000E+00-5.00000E-03
 -1       887 0.00000E+00 0.00000E+00-5.00000E-03
 -1       888 0.00000E+00 0.00000E+00-5.00000E-03
 -1       889 0.00000E+00 0.00000E+00-5.00000E-03
 -1       890 0.00000E+00 0.00000E+00-5.00000E-03
 -1       891 0.00000E+00 0.00000E+00-5.00000E-03
 -1       892 0.00000E+00 0.00000E+00-5.00000E-03
 -1       893 0.00000E+00 0.00000E+00-5.00000E-03
 -1       894 0.00000E+00 0.00000E+00-5.00000E-03
 -1       895 0.00000E+00 0.00000E+00-5.00000E-03
 -1       896 0.00000E+00 0.00000E+00-5.00000E-03
 -1       897 0.00000E+00 0.00000E+00-5.00000E-03
 -1       898 0.00000E+00 0.00000E+00-5.00000E-03
 -1       899 0.00000E+00 0.00000E+00-5.00000E-03
 -1       900 0.00000E+00 0.00000E+00-5.00000E-03
 -1       901 0.00000E+00 0.00000E+00-5.00000E-03
 -1       902 0.00000E+00 0.00000E+00-5.00000E-03
 -1       903 0.00000E+00 0.00000E+00-5.00000E-03
 -1       904 0.00000E+00 0.00000E+00-5.00000E-03
 -1       905 0.00000E+00 0.00000E+00-5.00000E-03
 -1       906 0.00000E+00 0.00000E+00-5.00000E-03
 -1       907 0.00000E+00 0.00000E+00-5.00000E-03
 -1       908 0.00000E+00 0.00000E+00-5.00000E-03
 -1       909 0.00000E+00 0.00000E+00-5.00000E-03
 -1       910 0.00000E+00 0.00000E+00-5.00000E-03
 -1       911 0.00000E+00 0.00000E+00-5.00000E-03
 -1       912 0.00000E+00 0.00000E+00-5.00000E-03
 -1       913 0.00000E+00 0.00000E+00-5.00000E-03
 -1       914 0.00000E+00 0.00000E+00-5.00000E-03
 -1       915 0.00000E+00 0.00000E+00-5.00000E-03
 -1       916 0.00000E+00 0.00000E+00-5.00000E-03
 -1       917 0.00000E+00 0.00000E+00-5.00000E-03
 -1       918 0.00000E+00 0.00000E+00-5.00000E-03
 -1       919 0.00000E+00 0.00000E+00-5.00000E-03
 -1       920 0.00000E+00 0.00000E+00-5.00000E-03
 -1       921 0.00000E+00 0.00000E+00-5.00000E-03
 -1       922 0.00000E+00 0.00000E+00-5.00000E-03
 -1       923 0.00000E+00 0.00000E+00-5.00000E-03
 -1       924 0.00000E+00 0.00000E+00-5.00000E-03
 -1       925 0.00000E+00 0.00000E+00-5.00000E-03
 -1       926 0.00000E+00 0.00000E+00 0.00000E+00
 -1       927 0.00000E+00 0.00000E+00 0.00000E+00
 -1       928 0.00000E+00 0.00000E+00 0.00000E+00
 -1       929 0.00000E+00 0.00000E+00 0.00000E+00
 -1       930 0.00000E+00 0.00000E+00 0.00000E+00
 -1       931 0.00000E+00 0.00000E+00 0.00000E+00
 -1       932 0.00000E+00 0.00000E+00 0.00000E+00
 -1       933 0.00000E+00 0.00000E+00 0.00000E+00
 -1       934 0.00000E+00 0.00000E+00 0.00000E+00
 -1       935 0.00000E+00 0.00000E+00 0.00000E+00
 -1       936 0.00000E+00 0.00000E+00 0.00000E+00
 -1       937 0.00000E+00 0.00000E+00 0.00000E+00
 -1       938 0.00000E+00 0.00000E+00 0.00000E+00
 -1       939 0.00000E+00 0.00000E+00 0.00000E+00
 -1       940 0.00000E+00 0.00000E+00 0.00000E+00
 -1       941 0.00000E+00 0.00000E+00 0.00000E+00
 -1       942 0.00000E+00 0.00000E+00 0.00000E+00
 -1       943 0.00000E+00 0.00000E+00 0.00000E+00
 -1       944 0.00000E+00 0.00000E+00 0.00000E+00
 -1       945 0.00000E+00 0.00000E+00 0.00000E+00
 -1       946 0.00000E+00 0.00000E+00 0.00000E+00
 -1       947 0.00000E+00 0.00000E+00 0.00000E+00
 -1       948 0.00000E+00 0.00000E+00 0.00000E+00
 -1       949 0.00000E+00 0.00000E+00 0.00000E+00
 -1       950 0.00000E+00 0.00000E+00 0.00000E+00
 -1       951 0.00000E+00 0.00000E+00 0.00000E+00
 -1       952 0.00000E+00 0.00000E+00 0.00000E+00
 -1       953 0.00000E+00 0.00000E+00 0.00000E+00
 -1       954 0.00000E+00 0.00000E+00 0.00000E+00
 -1       955 0.00000E+00 0.00000E+00 0.00000E+00
 -1       956 0.00000E+00 0.00000E+00 0.00000E+00
 -1       957 0.00000E+00 0.00000E+00 0.00000E+00
 -1       958 0.00000E+00 0.00000E+00 0.00000E+00
 -1       959 0.00000E+00 0.00000E+00 0.00000E+00
 -1       960 0.00000E+00 0.00000E+00 0.00000E+00
 -1       961 0.00000E+00 0.00000E+00 0.00000E+00
 -1       962 0.00000E+00 0.00000E+00 0.00000E+00
 -1       963 0.00000E+00 0.00000E+00 0.00000E+00
 -1       964 0.00000E+00 0.00000E+00 0.00000E+00
 -1       965 0.00000E+00 0.00000E+00 0.00000E+00
 -1       966 0.00000E+00 0.00000E+00 0.00000E+00
 -1       967 0.00000E+00 0.00000E+00 0.00000E+00
 -1       968 0.00000E+00 0.00000E+00 0.00000E+00
 -1       969 0.00000E+00 0.00000E+00 0.00000E+00
 -1       970 0.00000E+00 0.00000E+00 0.00000E+00
 -1       971 0.00000E+00 0.00000E+00 0.00000E+00
 -1       972 0.00000E+00 0.00000E+00 0.00000E+00
 -1       973 0.00000E+00 0.00000E+00 0.00000E+00
 -1       974 0.00000E+00 0.00000E+00 0.00000E+00
 -1       975 0.00000E+00 0.00000E+00 0.00000E+00
 -1       976 0.00000E+00 0.00000E+00 0.00000E+00
 -1       977 0.00000E+00 0.00000E+00 0.00000E+00
 -1       978 0.00000E+00 0.00000E+00 0.00000E+00
 -1       979 0.00000E+00 0.00000E+00 0.00000E+00
 -1       980 0.00000E+00 0.00000E+00 0.00000E+00
 -1       981 0.00000E+00 0.00000E+00 0.00000E+00
 -1       982 0.00000E+00 0.00000E+00 0.00000E+00
 -1       983 0.00000E+00 0.00000E+00 0.00000E+00
 -1       984 0.00000E+00 0.00000E+00 0.00000E+00
 -1       985 0.00000E+00 0.00000E+00 0.00000E+00
 -1       986 0.00000E+00 0.00000E+00 0.00000E+00
 -1       987 0.00000E+00 0.00000E+00 0.00000E+00
 -1       988 0.00000E+00 0.00000E+00 0.00000E+00
 -1       989 0.00000E+00 0.00000E+00 0.00000E+00
 -1       990 0.00000E+00 0.00000E+00 0.00000E+00
 -1       991 0.00000E+00 0.00000E+00 0.00000E+00
 -1       992 0.00000E+00 0.00000E+00 0.00000E+00
 -1       993 0.00000E+00 0.00000E+00 0.00000E+00
 -1       994 0.00000E+00 0.00000E+00 0.00000E+00
 -1       995 0.00000E+00 0.00000E+00 0.00000E+00
 -1       996 0.00000E+00 0.00000E+00 0.00000E+00
 -1       997 0.00000E+00 0.00000E+00 0.00000E+00
 -1       998 0.00000E+00 0.00000E+00 0.00000E+00
 -1       999 0.00000E+00 0.00000E+00 0.00000E+00
 -1      1000 0.00000E+00 0.00000E+00 0.00000E+00
 -1      1001 0.00000E+00 0.00000E+00 0.00000E+00
 -1      1002 0.00000E+00 0.00000E+00 0.00000E+00
 -1      1003 0.00000E+00 0.00000E+00 0.00000E+00
 -1      1004 0.00000E+00 0.00000E+00 0.00000E+00
 -1      1005 0.00000E+00 0.00000E+00 0.00000E+00
 -1      1006 0.00000E+00 0.00000E+00 0.00000E+00
 -1      1007 0.00000E+00 0.00000E+00 0.00000E+00
 -1      1008 0.00000E+00 0.00000E+00 0.00000E+00
 -1      1009 0.00000E+00 0.00000E+00 0.00000E+00
 -1      1010 0.00000E+00 0.00000E+00 0.00000E+00
 -1      1011 0.00000E+00 0.00000E+00 0.00000E+00
 -1      1012 0.00000E+00 0.00000E+00 0.00000E+00
 -1      1013 0.00000E+00 0.00000E+00 0.00000E+00
 -1      1014 0.00000E+00 0.00000E+00 0.00000E+00
 -1      1015 0.00000E+00 0.00000E+00 0.00000E+00
 -1      1016 0.00000E+00 0.00000E+00 0.00000E+00
 -1      1017 0.00000E+00 0.00000E+00 0.00000E+00
 -1      1018 0.00000E+00 0.00000E+00 0.00000E+00
 -1      1019 0.00000E+00 0.00000E+00 0.00000E+00
 -1      1020 0.00000E+00 0.00000E+00 0.00000E+00
 -1      1021 0.00000E+00 0.00000E+00 0.00000E+00
 -1      1022 0.00000E+00 0.00000E+00 0.00000E+00
 -1      1023 0.00000E+00 0.00000E+00 0.00000E+00
 -1      1024 0.00000E+00 0.00000E+00 0.00000E+00
 -1      1025 0.00000E+00 0.00000E+00 0.00000E+00
 -1      1026 0.00000E+00 0.00000E+00 0.00000E+00
 -1      1027 0.00000E+00 0.00000E+00 0.00000E+00
 -1      1028 0.00000E+00 0.00000E+00 0.00000E+00
 -1      1029 0.00000E+00 0.00000E+00 0.00000E+00
 -1      1030 0.00000E+00 0.00000E+00 0.00000E+00
 -1      1031 0.00000E+00 0.00000E+00 0.00000E+00
 -1      1032 0.00000E+00 0.00000E+00 0.00000E+00
 -1      1033 0.00000E+00 0.00000E+00 0.00000E+00
 -1      1034 0.00000E+00 0.00000E+00 0.00000E+00
 -1      1035 0.00000E+00 0.00000E+00 0.00000E+00
 -1      1036 0.00000E+00 0.00000E+00 0.00000E+00
 -1      1037 0.00000E+00 0.00000E+00 0.00000E+00
 -1      1038 0.00000E+00 0.00000E+00 0.00000E+00
 -1      1039 0.00000E+00 0.00000E+00 0.00000E+00
 -1      1040 0.00000E+00 0.00000E+00 0.00000E+00
 -1      1041 0.00000E+00 0.00000E+00 0.00000E+00
 -1      1042 0.00000E+00 0.00000E+00 0.00000E+00
 -1      1043 0.00000E+00 0.00000E+00 0.00000E+00
 -1      1044 0.00000E+00 0.00000E+00 0.00000E+00
 -1      1045 0.00000E+00 0.00000E+00 0.00000E+00
 -1      1046 0.00000E+00 0.00000E+00 0.00000E+00
 -1      1047 0.00000E+00 0.00000E+00 0.00000E+00
 -1      1048 0.00000E+00 0.00000E+00 0.00000E+00
 -1      1049 0.00000E+00 0.00000E+00 0.00000E+00
 -1      1050 0.00000E+00 0.00000E+00 0.00000E+00
 -1      1051 0.00000E+00 0.00000E+00 0.00000E+00
 -1      1052 0.00000E+00 0.00000E+00 0.00000E+00
 -1      1053 0.00000E+00 0.00000E+00 0.00000E+00
 -1      1054 0.00000E+00 0.00000E+00 0.00000E+00
 -1      1055 0.00000E+00 0.00000E+00 0.00000E+00
 -1      1056 0.00000E+00 0.00000E+00 0.00000E+00
 -1      1057 0.00000E+00 0.00000E+00 0.00000E+00
 -1      1058 0.00000E+00 0.00000E+00 0.00000E+00
 -1      1059 0.00000E+00 0.00000E+00 0.00000E+00
 -1      1060 0.00000E+00 0.00000E+00 0.00000E+00
 -1      1061 0.00000E+00 0.00000E+00 0.00000E+00
 -1      1062 0.00000E+00 0.00000E+00 0.00000E+00
 -1      1063 0.00000E+00 0.00000E+00 0.00000E+00
 -1      1064 0.00000E+00 0.00000E+00 0.00000E+00
 -1      1065 0.00000E+00 0.00000E+00 0.00000E+00
 -1      1066 0.00000E+00 0.00000E+00 0.00000E+00
 -1      1067 0.00000E+00 0.00000E+00 0.00000E+00
 -1      1068 0.00000E+00 0.00000E+00 0.00000E+00
 -1      1069 0.00000E+00 0.00000E+00 0.00000E+00
 -1      1070 0.00000E+00 0.00000E+00 0.00000E+00
 -1      1071 0.00000E+00 0.00000E+00 0.00000E+00
 -1      1072 0.00000E+00 0.00000E+00 0.00000E+00
 -1      1073 0.00000E+00 0.00000E+00 0.00000E+00
 -1      1074 0.00000E+00 0.00000E+00 0.00000E+00
 -1      1075 0.00000E+00 0.00000E+00 0.00000E+00
 -1      1076 0.00000E+00 0.00000E+00 0.00000E+00
 -1      1077 0.00000E+00 0.00000E+00 0.00000E+00
 -1      1078 0.00000E+00 0.00000E+00 0.00000E+00
 -1      1079 0.00000E+00 0.00000E+00 0.00000E+00
 -1      1080 0.00000E+00 0.00000E+00 0.00000E+00
 -1      1081 0.00000E+00 0.00000E+00 0.00000E+00
 -1      1082 0.00000E+00 0.00000E+00 0.00000E+00
 -1      1083-1.66343E-06 1.96433E-06-2.49867E-03
 -1      1084-3.72462E-04 5.49799E-04-1.19190E-03
 -1      1085 5.20528E-04 5.43702E-04-1.29159E-03
 -1      1086-4.12636E-04-5.46786E-04-3.79236E-03
 -1      1087-5.91787E-04-2.65261E-04-1.18166E-03
 -1      1088-5.28171E-04 5.21218E-04-3.72738E-03
 -1      1089 6.16878E-04-4.67021E-04-3.55428E-03
 -1      1090 3.16263E-04-5.73277E-04-1.17365E-03
 -1      1091 3.28370E-04 5.36591E-04-3.85688E-03
 -1      1092 8.61548E-04-9.36454E-05-1.95819E-03
 -1      1093-8.32264E-04-4.84978E-05-2.76125E-03
 -1      1094-2.35624E-04-8.09691E-04-2.22107E-03
 -1      1095-5.12944E-05 8.78686E-04-2.57012E-03
 -1      1096 3.09627E-05 3.55112E-05-7.55640E-04
 -1      1097 1.78569E-05-4.40404E-05-4.23894E-03
 -1      1098-8.36171E-04 8.49463E-04-2.39631E-03
 -1      1099 8.26200E-04 8.17117E-04-2.68392E-03
 -1      1100-6.84635E-04-3.49953E-05-4.22031E-03
 -1      1101 1.10968E-04-6.83848E-04-4.26205E-03
 -1      1102-6.47296E-04-6.57539E-04-7.63600E-04
 -1      1103 6.72282E-04 7.21534E-05-4.24655E-03
 -1      1104 6.49428E-04-6.54471E-04-7.30390E-04
 -1      1105 6.87860E-04 6.10014E-05-6.71403E-04
 -1      1106 8.48816E-04-7.86803E-04-2.24928E-03
 -1      1107-6.27886E-04 6.68010E-04-7.47930E-04
 -1      1108 6.45517E-04 6.42709E-04-4.27232E-03
 -1      1109 6.49386E-04-6.40300E-04-4.29350E-03
 -1      1110-1.54871E-04-5.48751E-04-6.49326E-04
 -1      1111-8.77542E-04-8.63508E-04-2.73615E-03
 -1      1112-6.37105E-04-6.49859E-04-4.30323E-03
 -1      1113 6.17802E-05 7.06844E-04-6.67450E-04
 -1      1114-6.48003E-04 6.45572E-04-4.32435E-03
 -1      1115 6.48999E-04 6.44190E-04-6.76508E-04
 -1      1116-9.20405E-04 2.22633E-04-1.58935E-03
 -1      1117-7.22876E-05 5.05282E-04-4.45860E-03
 -1      1118 2.44942E-04-9.51395E-04-3.00352E-03
 -1      1119 5.74853E-04 1.04158E-04-3.13965E-03
 -1      1120-6.88224E-04 1.83859E-05-4.82793E-04
 -1      1121-4.60341E-04 4.04504E-04-2.35574E-03
 -1      1122 3.97993E-04-4.60958E-04-2.35172E-03
 -1      1123 1.09101E-03-1.60143E-04-3.04476E-03
 -1      1124-1.04838E-03 3.62455E-04-3.21548E-03
 -1      1125 2.55743E-04 1.04915E-03-1.71351E-03
 -1      1126 4.90928E-05 4.45338E-04-1.69547E-03
 -1      1127 4.12970E-05-4.23558E-04-3.36060E-03
 -1      1128 1.02756E-03 3.66760E-04-3.32864E-03
 -1      1129-1.05371E-03-4.28198E-04-2.03772E-03
 -1      1130 1.04571E-03 4.22645E-04-1.92081E-03
 -1      1131 9.59694E-04-3.17539E-04-1.14686E-03
 -1      1132-2.52001E-04 1.03404E-03-3.54504E-03
 -1      1133 7.61939E-04 9.88723E-04-1.69252E-03
 -1      1134 2.80830E-04-1.68174E-04-4.40596E-04
 -1      1135-2.42582E-04 1.47619E-04-4.55890E-03
 -1      1136 2.99067E-04-1.84812E-04-4.54527E-03
 -1      1137-3.39170E-04 7.42642E-05-3.45640E-03
 -1      1138-1.02911E-04-3.23709E-04-1.52666E-03
 -1      1139-3.37346E-04-1.06866E-03-3.14743E-03
 -1      1140 2.65136E-04 2.00961E-04-4.33970E-04
 -1      1141-2.98919E-04 1.07497E-03-1.76247E-03
 -1      1142 1.02150E-03-7.70149E-04-3.26754E-03
 -1      1143-2.59435E-04 1.46134E-04-4.27229E-04
 -1      1144-9.97669E-04-4.03355E-04-3.44691E-03
 -1      1145-2.21942E-04-1.98607E-04-4.58709E-03
 -1      1146 2.56445E-04-1.08579E-03-1.61663E-03
 -1      1147 1.96812E-04-1.02095E-03-1.18156E-03
 -1      1148-5.07975E-05-1.17418E-03-1.67129E-03
 -1      1149 5.90991E-05-7.14086E-04-1.68966E-03
 -1      1150-1.55169E-05-1.20893E-03-2.11745E-03
 -1      1151-2.28512E-04-1.19283E-03-1.86144E-03
 -1      1152-3.77686E-05-1.00695E-03-9.31575E-04
 -1      1153-2.13516E-04-7.50248E-04-1.38898E-03
 -1      1154-1.87499E-04-1.05451E-03-1.10130E-03
 -1      1155 4.31563E-05-5.85516E-04-8.84707E-04
 -1      1156-1.78418E-04-4.96905E-04-4.58092E-03
 -1      1157-2.53841E-04-9.18136E-04-4.12875E-03
 -1      1158-7.36922E-05-5.37507E-04-4.76529E-03
 -1      1159-2.16299E-04-4.11893E-04-4.77406E-03
 -1      1160-3.61938E-04-9.16555E-04-4.31917E-03
 -1      1161-5.50524E-04-6.25677E-04-4.06449E-03
 -1      1162-5.09880E-04 3.46873E-05-4.74061E-03
 -1      1163-9.59709E-04 6.44993E-05-4.30200E-03
 -1      1164-5.82863E-04 7.32055E-05-4.75925E-03
 -1      1165-4.50669E-04 2.10875E-04-4.77992E-03
 -1      1166-9.26787E-04 3.76100E-04-4.34933E-03
 -1      1167-6.82943E-04 3.15778E-04-4.28499E-03
 -1      1168-1.76818E-05-4.45305E-04-4.75385E-03
 -1      1169-1.17998E-04-6.32737E-04-4.04160E-03
 -1      1170-2.72261E-05-9.48852E-04-4.30541E-03
 -1      1171-5.08255E-04-7.98458E-04-1.44225E-03
 -1      1172-6.96577E-04-1.12494E-03-1.48324E-03
 -1      1173-4.47262E-04-1.18490E-03-2.17723E-03
 -1      1174-5.69607E-04-8.51729E-04-2.49544E-03
 -1      1175-7.57108E-04-1.19703E-03-2.43539E-03
 -1      1176-8.51688E-04-8.50151E-04-1.73739E-03
 -1      1177 2.82305E-04 1.07148E-03-3.35955E-03
 -1      1178 1.55008E-04 7.33034E-04-3.22383E-03
 -1      1179 9.12524E-05 1.23818E-03-2.73411E-03
 -1      1180 5.22287E-04 1.20031E-03-2.78970E-03
 -1      1181 3.92158E-04 8.62750E-04-2.63248E-03
 -1      1182 5.88592E-04 7.05322E-04-3.26338E-03
 -1      1183-1.08980E-04-4.97860E-05-1.38420E-04
 -1      1184-1.65368E-04-5.24275E-06-1.44809E-04
 -1      1185-1.03611E-04 3.68242E-05-1.33844E-04
 -1      1186-1.62124E-04-2.03466E-04-2.07849E-04
 -1      1187-8.69512E-05-2.66145E-04-2.05833E-04
 -1      1188-2.23775E-04-1.58619E-04-5.15091E-04
 -1      1189-4.24371E-04-1.15105E-03-1.69281E-03
 -1      1190-3.33331E-04-9.85330E-04-9.42118E-04
 -1      1191 1.07234E-03-3.25638E-04-3.52029E-03
 -1      1192 6.68007E-04-1.64004E-04-3.93154E-03
 -1      1193 1.11269E-03-5.69658E-05-3.84501E-03
 -1      1194 1.30540E-03-1.88228E-04-3.24931E-03
 -1      1195 9.23700E-04-2.54823E-05-3.65936E-03
 -1      1196 8.60634E-04-3.14126E-04-3.30147E-03
 -1      1197-6.04007E-04-1.03330E-03-1.02757E-03
 -1      1198-3.87656E-04-6.15130E-04-6.86573E-04
 -1      1199 1.79968E-04 4.80719E-04-4.62018E-03
 -1      1200 2.17507E-04 8.87762E-04-4.21456E-03
 -1      1201 8.46982E-05 4.81835E-04-4.80351E-03
 -1      1202 2.31491E-04 4.29315E-04-4.76452E-03
 -1      1203 3.52656E-04 8.84729E-04-4.37150E-03
 -1      1204 5.15139E-04 6.20053E-04-4.09167E-03
 -1      1205-1.25075E-04 6.58511E-04-9.07104E-04
 -1      1206-2.62912E-04 7.01965E-04-6.91438E-04
 -1      1207-5.22959E-04 6.30727E-04-9.51283E-04
 -1      1208-3.42270E-04 8.17355E-04-1.47888E-03
 -1      1209-5.07901E-04 9.08331E-04-1.23199E-03
 -1      1210-9.30108E-05 9.46205E-04-1.18827E-03
 -1      1211 9.63025E-04-2.81982E-04-4.00942E-03
 -1      1212 9.46085E-04-4.92970E-05-4.29932E-03
 -1      1213 9.25108E-04-3.69428E-04-4.32211E-03
 -1      1214 6.64206E-04-5.88777E-04-3.95626E-03
 -1      1215 6.80419E-04-2.80917E-04-4.30502E-03
 -1      1216-3.72443E-04 3.76144E-05-4.75810E-03
 -1      1217-3.29708E-04 2.13872E-04-4.79566E-03
 -1      1218 1.02714E-03-5.08164E-04-3.64393E-03
 -1      1219-4.44769E-05-1.16239E-04-2.46294E-04
 -1      1220-4.38727E-05 5.00600E-06-2.32105E-04
 -1      1221-1.40749E-04 1.04401E-04-5.76497E-04
 -1      1222 3.11942E-04-8.13881E-04-2.09201E-03
 -1      1223 2.22019E-04-1.27715E-03-2.49479E-03
 -1      1224 7.21102E-06-8.98898E-04-2.62143E-03
 -1      1225 5.07669E-04-1.18905E-03-2.13755E-03
 -1      1226 5.90347E-04-7.08184E-04-1.71264E-03
 -1      1227 5.57108E-04-8.83147E-04-2.62184E-03
 -1      1228 2.36247E-04-9.11604E-04-8.10976E-04
 -1      1229 3.01842E-05-8.34863E-04-5.89206E-04
 -1      1230-7.14459E-05-2.65422E-04-6.90218E-04
 -1      1231 3.57534E-05 3.66033E-04-4.82020E-03
 -1      1232 8.62749E-05 5.47977E-04-4.18661E-03
 -1      1233 3.94349E-05 7.95001E-04-4.46921E-03
 -1      1234-1.15520E-03 9.31661E-04-2.68403E-03
 -1      1235-8.36920E-04 8.47772E-04-3.39444E-03
 -1      1236-1.08777E-03 8.72869E-04-3.58441E-03
 -1      1237-1.25686E-03 6.96680E-04-3.06208E-03
 -1      1238-8.92735E-04 5.59935E-04-3.80276E-03
 -1      1239-9.54413E-04 6.11091E-04-2.80815E-03
 -1      1240-8.95233E-04-5.93323E-04-1.37439E-03
 -1      1241-6.49431E-04-6.23109E-04-2.12498E-03
 -1      1242-9.74952E-04-6.55344E-04-2.39398E-03
 -1      1243 1.03824E-03-6.10974E-04-3.97356E-03
 -1      1244 1.79476E-04-4.98001E-04-3.94008E-04
 -1      1245 8.81151E-05-4.85852E-04-2.00606E-04
 -1      1246 1.81183E-05-4.03139E-04-2.15195E-04
 -1      1247-3.54257E-04-1.60147E-04-3.87910E-04
 -1      1248-3.49359E-04-4.28309E-04-8.90748E-04
 -1      1249-4.27467E-04-1.39754E-05-7.63475E-04
 -1      1250-5.83749E-04 1.05644E-03-3.95036E-03
 -1      1251-6.83482E-04 1.17813E-03-3.03874E-03
 -1      1252-3.78723E-04 1.24470E-03-3.55759E-03
 -1      1253-5.51093E-04 9.71891E-04-2.97322E-03
 -1      1254-4.88424E-04 8.70079E-04-3.95709E-03
 -1      1255 4.10666E-04 1.00527E-03-3.75528E-03
 -1      1256 6.72158E-04 1.15088E-03-3.17996E-03
 -1      1257 2.38438E-04-4.27426E-04-2.34992E-04
 -1      1258 3.67985E-04-8.90962E-04-6.40821E-04
 -1      1259 5.13198E-04-6.37541E-04-9.29623E-04
 -1      1260-1.19784E-03 2.53959E-04-3.80475E-03
 -1      1261-8.99677E-04 1.42692E-04-3.73389E-03
 -1      1262-1.80491E-05 1.31523E-03-3.18516E-03
 -1      1263 3.94302E-05 7.97033E-04-3.71160E-03
 -1      1264-1.63100E-04 9.76538E-04-3.07623E-03
 -1      1265 4.69980E-04-7.10860E-05-4.42712E-03
 -1      1266 6.67942E-04-1.55539E-04-4.52631E-03
 -1      1267 4.69196E-04-3.87168E-04-4.46369E-03
 -1      1268-3.08376E-04-3.70906E-04-4.23204E-03
 -1      1269-1.03052E-04-2.07140E-04-4.85438E-03
 -1      1270-4.06184E-04-4.10387E-04-4.47061E-03
 -1      1271-2.44732E-04-1.21454E-03-3.77415E-03
 -1      1272-3.79869E-04-8.16212E-04-3.48283E-03
 -1      1273-5.54375E-04-9.11360E-04-3.75901E-03
 -1      1274 7.10983E-04 4.68670E-04-2.90123E-03
 -1      1275 2.60863E-04 4.95596E-04-2.85161E-03
 -1      1276 4.51636E-04 6.53146E-04-2.20508E-03
 -1      1277-3.28074E-06 6.67463E-04-2.13545E-03
 -1      1278 3.23480E-04 2.92805E-04-2.41800E-03
 -1      1279-6.46277E-04-4.83224E-04-9.50165E-04
 -1      1280-4.35046E-04-5.40573E-04-1.69049E-03
 -1      1281-8.31011E-04-3.49795E-04-1.60217E-03
 -1      1282-9.23107E-04 1.16242E-03-2.73238E-03
 -1      1283-8.59688E-04 1.07609E-03-3.62316E-03
 -1      1284-9.86173E-05 3.54200E-04-2.15614E-04
 -1      1285-2.88398E-04 3.84311E-04-4.04058E-04
 -1      1286-1.68842E-04 1.51715E-04-1.45661E-04
 -1      1287-3.38951E-04 3.29627E-04-7.71755E-04
 -1      1288-1.15917E-04 3.96215E-04-5.23944E-04
 -1      1289 6.00647E-05 5.26926E-05-4.74917E-03
 -1      1290 1.57241E-04 2.22779E-04-4.07393E-03
 -1      1291 1.64217E-04 2.40549E-04-4.63802E-03
 -1      1292 2.33302E-04 9.03580E-05-4.76259E-03
 -1      1293 5.22761E-04 2.69662E-04-4.08008E-03
 -1      1294 3.37480E-04 1.03846E-05-4.25962E-03
 -1      1295-6.11701E-04 6.08653E-04-4.04267E-03
 -1      1296-7.11568E-04 7.16462E-04-3.05381E-03
 -1      1297-3.86303E-04 7.74255E-04-3.64231E-03
 -1      1298 4.38034E-04-4.31136E-05-2.21896E-03
 -1      1299 6.32024E-04-2.70879E-04-2.14877E-03
 -1      1300 2.01456E-04-2.31088E-04-2.42354E-03
 -1      1301-5.82635E-05-1.71146E-04-2.00309E-03
 -1      1302 1.41600E-04-4.02689E-04-1.93464E-03
 -1      1303 3.61816E-04-2.13370E-04-1.72945E-03
 -1      1304-7.31255E-05-4.15687E-04-4.44026E-03
 -1      1305-7.82944E-05-9.25350E-04-3.72664E-03
 -1      1306-1.20089E-03 1.21104E-03-2.95051E-03
 -1      1307-7.36972E-04 1.19124E-03-2.59981E-03
 -1      1308-4.58172E-04 1.28962E-03-3.12974E-03
 -1      1309 1.46399E-04 1.01679E-03-3.79835E-03
 -1      1310-1.24898E-04 1.26120E-03-3.60990E-03
 -1      1311 5.61150E-04-7.52785E-05-4.76469E-03
 -1      1312 4.31318E-04-2.12622E-04-4.76570E-03
 -1      1313 2.73781E-04-8.56700E-05-4.85096E-03
 -1      1314-1.91886E-04 7.60214E-05-4.85489E-03
 -1      1315-4.27977E-04 3.73036E-04-4.47584E-03
 -1      1316-4.35267E-04 6.61188E-05-4.42215E-03
 -1      1317-4.31042E-04 5.03544E-04-1.75460E-03
 -1      1318-5.51076E-04 4.53129E-05-1.74029E-03
 -1      1319-4.88658E-04 1.35749E-04-1.17311E-03
 -1      1320-2.51155E-04 1.32418E-04-1.34551E-03
 -1      1321-3.55250E-04-2.97890E-04-1.34875E-03
 -1      1322-2.85584E-04 3.09979E-05-1.93079E-03
 -1      1323-3.86407E-05 9.36925E-04-6.24291E-04
 -1      1324-3.29806E-04 9.14206E-04-6.52158E-04
 -1      1325-2.24099E-04 1.19959E-03-1.14567E-03
 -1      1326-1.02645E-03-1.69721E-04-1.18823E-03
 -1      1327-1.02105E-03-3.86137E-04-1.28772E-03
 -1      1328-1.12813E-03-2.04616E-04-9.59827E-04
 -1      1329-6.88821E-04-9.52678E-05-7.96231E-04
 -1      1330-1.09617E-03-2.78940E-05-8.76618E-04
 -1      1331-6.23151E-04 2.14420E-04-3.98812E-03
 -1      1332-7.89975E-04 4.46376E-04-3.47428E-03
 -1      1333-1.72049E-04 5.10811E-04-1.43853E-03
 -1      1334-1.99923E-04 4.33171E-04-2.02145E-03
 -1      1335-3.01388E-05 5.68515E-05-1.60349E-03
 -1      1336-4.19117E-04-2.54936E-05-2.63341E-03
 -1      1337-5.35408E-04-4.32647E-04-2.48909E-03
 -1      1338-1.24681E-04-4.12303E-04-2.35486E-03
 -1      1339 2.12502E-05-2.24737E-04-2.94028E-03
 -1      1340-1.02191E-04-6.29349E-04-2.78709E-03
 -1      1341-3.87120E-04-2.39211E-04-3.06874E-03
 -1      1342-3.74818E-04-2.66424E-04-4.04397E-04
 -1      1343-2.94475E-04-2.96294E-05-1.51910E-04
 -1      1344-3.16443E-04-9.02058E-05-1.49589E-04
 -1      1345 4.18782E-04-1.02101E-03-1.28247E-03
 -1      1346 6.87846E-04-1.13854E-03-1.80886E-03
 -1      1347 5.87405E-04 3.54038E-04-2.18851E-03
 -1      1348 6.95587E-04 7.00676E-04-1.99313E-03
 -1      1349 2.96448E-04 5.01376E-04-1.48679E-03
 -1      1350-1.05686E-03-5.94583E-04-1.10325E-03
 -1      1351-6.89026E-04-2.73493E-04-5.90472E-04
 -1      1352-3.54316E-05 2.92499E-04-2.09471E-04
 -1      1353-1.04587E-04 1.17760E-04-1.40078E-04
 -1      1354 1.43111E-04-3.81879E-04-3.64652E-04
 -1      1355-7.20789E-06-3.04844E-04-1.99171E-04
 -1      1356 5.87695E-04 1.06239E-03-3.93084E-03
 -1      1357 7.39503E-04 1.17688E-03-2.71109E-03
 -1      1358-2.54023E-04-1.07605E-04-9.53251E-04
 -1      1359-1.60569E-04 2.79447E-04-9.61117E-04
 -1      1360-2.52792E-05-1.25500E-04-1.11939E-03
 -1      1361 4.85457E-05 2.20064E-04-1.19680E-03
 -1      1362 2.65745E-04 3.29309E-04-4.63889E-03
 -1      1363 3.29495E-04 1.54117E-04-4.76272E-03
 -1      1364-1.17608E-03-9.47959E-04-2.37609E-03
 -1      1365-1.08118E-03-8.72672E-04-1.46176E-03
 -1      1366-1.25506E-03-7.39411E-04-2.05665E-03
 -1      1367 2.61561E-04 2.73818E-04-1.00468E-03
 -1      1368 4.08881E-04-2.11965E-05-1.31839E-03
 -1      1369 6.96469E-04 2.33426E-04-1.61865E-03
 -1      1370 4.50090E-04 1.75884E-04-1.81851E-03
 -1      1371-6.04022E-04-1.03984E-03-3.97406E-03
 -1      1372-4.62435E-04-1.25772E-03-3.42101E-03
 -1      1373-5.51512E-05 9.91623E-04-4.10156E-03
 -1      1374-3.23154E-04-3.26897E-04-2.40542E-04
 -1      1375 4.76137E-04-3.01341E-05-4.74851E-03
 -1      1376 1.40087E-04 3.64878E-04-4.65294E-03
 -1      1377 1.09894E-05 2.73532E-04-4.83277E-03
 -1      1378-1.22400E-03-1.21377E-03-2.05811E-03
 -1      1379-8.81777E-04-1.07358E-03-1.42490E-03
 -1      1380-9.71579E-04-1.16557E-03-2.34074E-03
 -1      1381-2.58293E-05 4.44270E-04-2.53462E-03
 -1      1382 1.87274E-04 3.09667E-04-3.21079E-03
 -1      1383 1.00149E-05 3.19821E-04-3.67462E-03
 -1      1384-1.83384E-04 4.16411E-05-2.99086E-03
 -1      1385-2.04640E-04 4.75563E-04-3.01979E-03
 -1      1386 2.68277E-04-3.47597E-04-3.68681E-04
 -1      1387 2.53178E-04 1.33011E-03-2.31522E-03
 -1      1388 1.09538E-04 9.81469E-04-2.12794E-03
 -1      1389 5.46170E-04 9.52884E-04-2.19871E-03
 -1      1390 4.60712E-04-3.17717E-04-4.10728E-03
 -1      1391-3.48732E-04-7.15117E-04-3.02057E-03
 -1      1392-6.29587E-04-3.20690E-04-3.29560E-03
 -1      1393-1.96952E-04-4.99099E-04-3.58817E-03
 -1      1394-9.09509E-04-3.64839E-04-6.51455E-04
 -1      1395-9.18397E-04-6.84940E-05-5.49762E-04
 -1      1396 4.46220E-04 1.25074E-03-1.55942E-03
 -1      1397 5.05923E-04 8.96060E-04-1.16980E-03
 -1      1398 6.49826E-04 1.04944E-03-1.06345E-03
 -1      1399 6.90110E-04 1.21089E-03-1.55959E-03
 -1      1400 7.43428E-04 8.51916E-04-1.18179E-03
 -1      1401 5.13152E-04 1.02934E-03-1.69639E-03
 -1      1402 6.23101E-04 2.72295E-04-9.57772E-04
 -1      1403 3.54980E-04 4.92768E-05-7.05220E-04
 -1      1404 8.21906E-04 5.50457E-06-1.27258E-03
 -1      1405-1.04522E-03 6.13173E-04-3.99440E-03
 -1      1406-1.24230E-03 4.73786E-04-3.45517E-03
 -1      1407-6.81428E-05 4.89667E-04-1.96696E-04
 -1      1408-2.12844E-04 4.36233E-04-2.43263E-04
 -1      1409-2.44138E-05 4.29421E-04-2.18734E-04
 -1      1410 4.52822E-04 3.34454E-04-3.50638E-03
 -1      1411 1.71224E-04-2.45812E-04-9.50882E-04
 -1      1412 5.81101E-04-3.51822E-04-1.54593E-03
 -1      1413 1.19357E-04-4.54372E-04-1.34620E-03
 -1      1414 3.69640E-04-5.45018E-04-1.74423E-03
 -1      1415-3.78523E-04 3.18224E-04-4.19483E-03
 -1      1416 1.21900E-03-6.64368E-04-3.46864E-03
 -1      1417 8.28242E-04-6.24980E-04-3.41560E-03
 -1      1418 8.66369E-04-7.46125E-04-3.78254E-03
 -1      1419-3.25747E-04-3.09008E-04-4.78631E-03
 -1      1420-1.84350E-04-1.49023E-04-4.86338E-03
 -1      1421 3.14981E-04-3.00101E-04-2.26392E-04
 -1      1422-4.71069E-04-2.00477E-04-2.14554E-03
 -1      1423-1.74642E-04-5.70607E-04-1.87496E-03
 -1      1424 3.03943E-04 3.00264E-04-4.78205E-03
 -1      1425-4.10059E-04 3.30660E-04-4.79708E-03
 -1      1426-3.12468E-04 7.14591E-04-3.16684E-03
 -1      1427-9.38960E-05 5.44482E-04-3.80313E-03
 -1      1428-4.44419E-04 3.06872E-04-3.60357E-03
 -1      1429 1.79081E-04-1.29458E-04-4.40274E-03
 -1      1430 1.20843E-04-4.49685E-06-4.85998E-03
 -1      1431-1.75333E-04-2.92719E-04-2.01340E-04
 -1      1432-1.49380E-04-1.66737E-04-3.41694E-03
 -1      1433-5.89142E-04 1.80606E-05-3.11342E-03
 -1      1434-5.75241E-04 1.04490E-03-1.03239E-03
 -1      1435-4.32975E-04 1.25599E-03-1.52556E-03
 -1      1436 9.94607E-05-1.64928E-04-1.40748E-04
 -1      1437 1.77550E-04-1.46075E-04-1.46320E-04
 -1      1438 3.25997E-04-3.39633E-04-7.60871E-04
 -1      1439-6.38320E-04 3.96553E-04-1.37277E-03
 -1      1440-7.59558E-04-3.08190E-05-1.37697E-03
 -1      1441-7.04108E-04 3.13314E-04-1.95580E-03
 -1      1442 5.26699E-05-5.06348E-05-2.41310E-04
 -1      1443-1.25181E-06-2.05555E-04-2.07553E-04
 -1      1444 6.02511E-04-1.06683E-03-1.08924E-03
 -1      1445-2.24050E-04-4.47562E-04-4.81693E-03
 -1      1446-1.29527E-04-4.59942E-04-4.81905E-03
 -1      1447-5.04950E-04-8.62260E-04-4.37568E-03
 -1      1448-3.44711E-04-4.22941E-04-4.78713E-03
 -1      1449 4.70340E-04 1.30578E-03-2.25461E-03
 -1      1450 2.31837E-05 1.83708E-04-4.82562E-03
 -1      1451-3.73115E-05 2.51184E-04-4.36969E-03
 -1      1452 7.35439E-04 8.55864E-06-2.54162E-03
 -1      1453 8.06569E-04 8.03578E-04-3.50739E-03
 -1      1454 1.81252E-04-8.46713E-05-5.79724E-04
 -1      1455 5.87976E-04-1.42812E-04-1.10761E-03
 -1      1456 4.69894E-04-5.96305E-05-5.49661E-04
 -1      1457-1.00993E-03 6.05249E-04-1.02226E-03
 -1      1458-7.96988E-04 8.31706E-04-1.54866E-03
 -1      1459-1.15335E-03 7.18294E-04-1.80807E-03
 -1      1460-1.17384E-03 4.03089E-04-1.43270E-03
 -1      1461-8.91166E-04 5.39310E-04-1.99291E-03
 -1      1462-7.97080E-04 4.81876E-04-1.14629E-03
 -1      1463 2.95079E-04 6.06404E-05-2.82952E-03
 -1      1464 2.86620E-05 2.31034E-04-2.08893E-03
 -1      1465-1.37855E-04 5.02230E-04-4.80961E-03
 -1      1466-2.12154E-04 4.78932E-04-4.80659E-03
 -1      1467-3.37334E-04 8.85675E-04-4.39932E-03
 -1      1468-5.13674E-04 8.64817E-04-4.38945E-03
 -1      1469-3.18553E-04 4.37226E-04-4.78640E-03
 -1      1470-6.79915E-04-3.50255E-04-4.27626E-03
 -1      1471-3.69317E-04-1.51914E-04-4.74738E-03
 -1      1472-4.24224E-04-1.32578E-04-4.42923E-03
 -1      1473-1.69461E-04-5.60086E-04-2.44882E-04
 -1      1474-2.14064E-04-4.50667E-04-1.80512E-04
 -1      1475-5.18944E-04-8.54111E-04-6.32622E-04
 -1      1476-3.43281E-04-4.35084E-04-2.56978E-04
 -1      1477-3.60775E-04-9.40776E-04-6.91808E-04
 -1      1478-1.59821E-04 7.93307E-04-4.03226E-03
 -1      1479-6.98892E-04 1.16550E-03-1.80226E-03
 -1      1480-5.66487E-04 9.74978E-04-2.07487E-03
 -1      1481-7.39602E-04-1.78293E-04-1.95400E-03
 -1      1482-1.90802E-04-4.06800E-04-2.15126E-04
 -1      1483-1.46031E-04-8.72135E-04-6.41315E-04
 -1      1484-3.01780E-04 3.50026E-04-2.31962E-04
 -1      1485-4.34789E-04 3.85382E-04-5.54778E-04
 -1      1486 9.47131E-04 6.22711E-04-2.29700E-03
 -1      1487 7.86527E-04 4.87186E-04-1.60405E-03
 -1      1488 8.39791E-04 2.74416E-04-2.50419E-03
 -1      1489-1.26226E-03-4.89329E-04-1.73097E-03
 -1      1490-1.27127E-03-2.60381E-04-1.62246E-03
 -1      1491-8.68590E-04-4.66471E-04-2.75656E-03
 -1      1492-6.53955E-04-7.31707E-04-3.25875E-03
 -1      1493-6.45967E-05 4.76784E-04-4.80898E-03
 -1      1494-2.15207E-04 4.13661E-04-4.78342E-03
 -1      1495 1.57955E-04 7.54724E-04-1.69273E-03
 -1      1496 4.44096E-04-2.19701E-04-4.81795E-03
 -1      1497 4.80693E-04-1.31108E-04-4.81519E-03
 -1      1498 8.66115E-04-5.05741E-04-4.36919E-03
 -1      1499 4.22327E-04-3.40632E-04-4.78571E-03
 -1      1500-6.77973E-04 2.97362E-04-5.89360E-04
 -1      1501-1.08254E-03 2.50222E-04-8.88849E-04
 -1      1502-8.62756E-04 1.07851E-04-9.95120E-04
 -1      1503 3.88433E-04 3.70731E-04-8.17579E-04
 -1      1504 1.64523E-04 1.36838E-04-5.81771E-04
 -1      1505 4.53913E-04 1.41084E-04-5.35291E-04
 -1      1506 1.06720E-04-8.94009E-05-1.42781E-04
 -1      1507 8.09881E-05-3.42026E-04-5.16533E-04
 -1      1508-3.03091E-04 3.29835E-04-4.78972E-03
 -1      1509-9.58132E-04-2.43848E-04-2.38736E-03
 -1      1510 3.87161E-04 7.98519E-04-1.50434E-03
 -1      1511-3.85809E-04-2.47930E-04-3.63742E-03
 -1      1512 4.62365E-04-3.81873E-04-5.33818E-04
 -1      1513-8.92560E-04 1.16806E-03-2.21929E-03
 -1      1514-1.14282E-03 9.51907E-04-2.17804E-03
 -1      1515-1.18350E-03 1.22751E-03-2.06229E-03
 -1      1516-8.21341E-04 1.10001E-03-1.45526E-03
 -1      1517-1.05402E-03 8.87665E-04-1.41401E-03
 -1      1518 3.80025E-04-6.71413E-04-4.29132E-03
 -1      1519 5.91589E-04-1.04983E-03-3.92505E-03
 -1      1520 3.02931E-04-1.08741E-03-3.91095E-03
 -1      1521 1.83658E-04-8.70025E-04-3.65049E-03
 -1      1522 3.98948E-04-1.21972E-03-3.31132E-03
 -1      1523 5.14918E-04-8.61827E-04-3.68994E-03
 -1      1524-2.08522E-04 4.56338E-04-1.86319E-04
 -1      1525-1.44742E-04 5.13376E-04-2.05353E-04
 -1      1526-3.24839E-04 4.54021E-04-2.36229E-04
 -1      1527-5.08800E-04 8.71139E-04-6.34558E-04
 -1      1528-4.43396E-04-2.28684E-04-2.45712E-04
 -1      1529-5.01050E-04-6.37141E-05-1.92609E-04
 -1      1530-4.08309E-04-2.11818E-05-1.52677E-04
 -1      1531 7.31005E-04-1.16888E-03-2.39418E-03
 -1      1532 4.38719E-04-1.25545E-03-2.74324E-03
 -1      1533 9.63814E-04 1.67345E-04-1.93479E-03
 -1      1534 4.26008E-04-3.25649E-04-2.29028E-04
 -1      1535 8.48519E-04-5.13740E-04-6.21448E-04
 -1      1536 4.40042E-04-2.01018E-04-1.75328E-04
 -1      1537 6.16997E-04-2.89928E-04-3.66959E-04
 -1      1538 1.06313E-03-4.07648E-04-8.30887E-04
 -1      1539 8.10483E-04-5.07916E-04-9.09005E-04
 -1      1540-1.74018E-04 1.63669E-04-4.85141E-03
 -1      1541 9.19814E-04 1.14104E-03-2.86831E-03
 -1      1542 1.14829E-03 9.18514E-04-2.81907E-03
 -1      1543 1.20139E-03 1.21662E-03-2.95676E-03
 -1      1544 8.62391E-04 1.07381E-03-3.59723E-03
 -1      1545 1.08243E-03 8.69051E-04-3.55896E-03
 -1      1546-9.26611E-04-1.09132E-04-4.35341E-03
 -1      1547-4.74242E-04-6.24195E-05-4.74285E-03
 -1      1548-5.05417E-04-6.89660E-05-4.80233E-03
 -1      1549-8.93647E-04-3.61488E-04-4.37525E-03
 -1      1550-4.41175E-04-2.16737E-04-4.77531E-03
 -1      1551-6.53645E-04 1.76737E-04-2.55826E-03
 -1      1552-6.10375E-05 3.46924E-04-4.81988E-03
 -1      1553-1.06080E-04 7.98159E-04-4.48710E-03
 -1      1554-3.44710E-04 5.90318E-04-4.41338E-03
 -1      1555-2.33543E-04 2.08818E-04-2.42490E-03
 -1      1556-7.47564E-05-5.35495E-04-2.20493E-04
 -1      1557-8.83581E-05-3.88729E-04-2.08650E-04
 -1      1558-1.19788E-03 4.86343E-05-1.40173E-03
 -1      1559-4.62408E-04-2.05548E-04-1.97870E-04
 -1      1560-5.06032E-04-1.43060E-04-2.01492E-04
 -1      1561-4.47984E-04-3.41898E-04-2.44249E-04
 -1      1562-8.70686E-04-5.19059E-04-6.31419E-04
 -1      1563 7.55342E-04-1.11206E-03-3.43028E-03
 -1      1564 6.45963E-04-8.70142E-04-3.15436E-03
 -1      1565-1.91236E-04 1.14488E-03-4.01334E-03
 -1      1566 1.03743E-04 9.13808E-05-3.31386E-03
 -1      1567 6.81169E-04 3.53739E-04-4.27332E-03
 -1      1568-3.28875E-05-1.12722E-03-3.84951E-03
 -1      1569-2.77819E-04-1.30026E-03-3.29655E-03
 -1      1570 4.65127E-04-1.39388E-04-1.65712E-04
 -1      1571 6.29820E-04-1.69135E-04-3.77273E-04
 -1      1572 8.13657E-04-7.89082E-04-1.45837E-03
 -1      1573 4.84284E-05 3.35796E-04-2.00253E-04
 -1      1574 9.62751E-05 1.70160E-04-1.38508E-04
 -1      1575 3.45589E-05 1.32651E-04-1.42451E-04
 -1      1576 1.67085E-04 4.24810E-04-5.33063E-04
 -1      1577-1.32197E-04 2.85554E-04-4.82051E-03
 -1      1578-1.00019E-03-9.28399E-05-1.80713E-03
 -1      1579-8.65280E-04-2.02192E-04-3.84679E-03
 -1      1580-1.14196E-03-2.80698E-04-3.96531E-03
 -1      1581-8.59417E-04-5.65620E-04-3.89664E-03
 -1      1582-4.75100E-04-2.10702E-04-4.80489E-03
 -1      1583-5.15818E-04-1.50722E-04-4.79685E-03
 -1      1584-4.39074E-04-3.31596E-04-4.77493E-03
 -1      1585-8.61208E-04-5.12913E-04-4.39600E-03
 -1      1586-1.04585E-03 1.06217E-03-3.76828E-03
 -1      1587-1.13925E-03 1.15977E-03-3.38089E-03
 -1      1588-9.72640E-04 7.61450E-04-4.06555E-03
 -1      1589-7.64753E-04 9.74103E-04-4.06536E-03
 -1      1590 1.43953E-04 4.71612E-04-4.80932E-03
 -1      1591 5.10006E-04 8.64703E-04-4.36858E-03
 -1      1592-2.54207E-04 1.30708E-03-3.19119E-03
 -1      1593-2.87354E-04 1.34076E-03-2.35412E-03
 -1      1594-4.92017E-04 1.31549E-03-2.30507E-03
 -1      1595-2.98519E-04 1.11147E-03-2.65084E-03
 -1      1596-1.06281E-03-1.04682E-03-1.22793E-03
 -1      1597-1.16737E-03-1.15466E-03-1.63660E-03
 -1      1598-7.68931E-04-9.69482E-04-9.54296E-04
 -1      1599-9.78068E-04-7.68413E-04-9.91148E-04
 -1      1600 5.03779E-04 7.49797E-05-4.79835E-03
 -1      1601 9.13824E-04 1.21133E-04-4.36671E-03
 -1      1602 4.58541E-04 7.54802E-05-4.74733E-03
 -1      1603 4.44250E-04 2.22679E-04-4.76639E-03
 -1      1604 8.99579E-04 3.57964E-04-4.36551E-03
 -1      1605-4.53878E-04 7.12750E-05-4.50139E-04
 -1      1606-2.72544E-04 5.47018E-04-4.11720E-03
 -1      1607-2.04273E-04 3.61890E-04-4.01148E-03
 -1      1608 1.58461E-06 1.79379E-04-4.14772E-04
 -1      1609 4.57863E-04 5.26745E-05-2.39136E-04
 -1      1610 9.12163E-04 1.13515E-04-6.11973E-04
 -1      1611 5.13331E-04 7.31229E-05-1.97447E-04
 -1      1612 4.36705E-04 2.14617E-04-2.23294E-04
 -1      1613 8.91164E-04 3.58086E-04-6.21340E-04
 -1      1614 6.77844E-04 3.43782E-04-6.54536E-04
 -1      1615 2.25874E-04 4.51892E-04-4.81134E-03
 -1      1616 3.47304E-04 4.21532E-04-4.77223E-03
 -1      1617 1.04368E-03-1.06420E-03-1.22773E-03
 -1      1618 1.15379E-03-1.16958E-03-1.63651E-03
 -1      1619 1.07465E-03-8.83123E-04-1.41351E-03
 -1      1620 7.65453E-04-9.80814E-04-9.84107E-04
 -1      1621 9.67819E-04-7.68343E-04-9.41998E-04
 -1      1622 3.40676E-04-5.95407E-04-3.92700E-03
 -1      1623 4.35430E-04-7.12076E-04-3.28416E-03
 -1      1624 1.14561E-03 1.15697E-03-3.37579E-03
 -1      1625 9.78504E-04 7.60603E-04-4.03488E-03
 -1      1626 8.61436E-06-4.84262E-04-1.93820E-04
 -1      1627-1.75327E-05-3.10103E-04-4.76855E-03
 -1      1628-9.70307E-05-1.35724E-04-4.86634E-03
 -1      1629 1.39470E-04-4.63294E-04-1.86760E-04
 -1      1630 2.21241E-04-4.52290E-04-1.86756E-04
 -1      1631 3.46727E-04-4.36906E-04-2.27301E-04
 -1      1632 5.07050E-04-8.71344E-04-6.31181E-04
 -1      1633 8.62329E-05-4.90269E-04-4.80840E-03
 -1      1634 1.33746E-04-9.30885E-04-4.34550E-03
 -1      1635 8.55623E-05-4.57477E-04-4.76049E-03
 -1      1636 2.27085E-04-4.29301E-04-4.77577E-03
 -1      1637 3.62579E-04-8.98796E-04-4.36599E-03
 -1      1638 1.05748E-03 1.05784E-03-3.76042E-03
 -1      1639 7.64065E-04 9.70079E-04-4.03430E-03
 -1      1640 1.05209E-03 5.96108E-04-1.06433E-03
 -1      1641 1.09122E-03 2.71167E-04-1.03983E-03
 -1      1642 1.25569E-03 4.83817E-04-1.67144E-03
 -1      1643 9.17888E-04 2.20136E-04-1.26956E-03
 -1      1644 9.03135E-04 5.91934E-04-1.26546E-03
 -1      1645-6.23736E-04 7.33124E-04-1.79806E-03
 -1      1646 5.14284E-04 1.47145E-04-2.03505E-04
 -1      1647 4.35138E-04 3.29770E-04-2.14080E-04
 -1      1648 8.82956E-04 1.98664E-04-3.81072E-03
 -1      1649 1.16710E-03 2.67154E-04-3.91234E-03
 -1      1650 8.74897E-04 5.44473E-04-3.82635E-03
 -1      1651-9.16237E-04 3.62684E-04-6.87702E-04
 -1      1652-9.41629E-04 8.48034E-05-5.89582E-04
 -1      1653-1.04377E-03 1.06010E-03-1.21933E-03
 -1      1654-1.15227E-03 1.16827E-03-1.63138E-03
 -1      1655-9.50751E-04 7.73618E-04-9.44293E-04
 -1      1656-7.49174E-04 9.87246E-04-9.68407E-04
 -1      1657 1.47541E-04-5.08252E-04-4.79790E-03
 -1      1658 2.07272E-04-4.67468E-04-4.80286E-03
 -1      1659 5.11226E-04-8.63982E-04-4.38615E-03
 -1      1660 3.30752E-04-4.30713E-04-4.77223E-03
 -1      1661 3.66268E-04 1.29888E-03-1.89570E-03
 -1      1662-1.58020E-04 3.11714E-04-4.51669E-03
 -1      1663 5.07287E-04 1.50102E-04-4.79508E-03
 -1      1664 4.42067E-04 3.34407E-04-4.77059E-03
 -1      1665-1.18322E-03 7.38970E-04-2.27195E-03
 -1      1666-1.23072E-03 4.39557E-04-1.89662E-03
 -1      1667 3.47026E-04 2.01401E-05-4.77681E-03
 -1      1668 1.98987E-04-4.15428E-05-4.85993E-03
 -1      1669 3.03083E-04 2.98647E-04-2.06159E-04
 -1      1670 3.45303E-04 6.91281E-04-6.55338E-04
 -1      1671 1.39700E-04 3.23263E-04-2.17621E-04
 -1      1672 1.73860E-04 1.56550E-04-1.40961E-04
 -1      1673 4.48431E-04 4.05142E-04-5.28494E-04
 -1      1674 4.62529E-04 2.11312E-04-4.81049E-03
 -1      1675 8.64719E-04 5.14613E-04-4.37589E-03
 -1      1676 8.81741E-04-1.08970E-03-1.44828E-03
 -1      1677 1.21168E-03-1.22754E-03-2.05660E-03
 -1      1678 1.15259E-03-9.19086E-04-2.11275E-03
 -1      1679 9.37422E-04-1.13130E-03-2.14728E-03
 -1      1680-3.35973E-04 2.33516E-04-2.34648E-04
 -1      1681-1.88805E-04 7.85738E-05-1.42071E-04
 -1      1682 4.68696E-04 2.10331E-04-1.90176E-04
 -1      1683 8.63912E-04 5.06865E-04-6.05381E-04
 -1      1684-2.57401E-04 1.29501E-03-1.60697E-03
 -1      1685 2.68566E-04 1.44747E-05-3.73430E-03
 -1      1686-1.46481E-04 1.22956E-05-3.86756E-03
 -1      1687-2.55305E-04 6.43860E-04-2.46454E-03
 -1      1688-4.11631E-04 2.47442E-04-2.90571E-03
 -1      1689-9.41295E-04-1.16447E-03-2.84091E-03
 -1      1690-1.16489E-03-9.44577E-04-2.84803E-03
 -1      1691-1.20851E-03-1.21386E-03-2.91468E-03
 -1      1692-8.71784E-04-1.08693E-03-3.57051E-03
 -1      1693-1.08575E-03-8.75983E-04-3.56715E-03
 -1      1694-8.31408E-04-8.25270E-04-3.54177E-03
 -1      1695-1.21664E-03 9.45189E-05-2.62233E-03
 -1      1696-1.21449E-03-1.20728E-04-2.37748E-03
 -1      1697-1.25393E-03 2.19279E-05-1.83303E-03
 -1      1698-8.96249E-04 9.59626E-05-2.16153E-03
 -1      1699-1.26121E-03 2.32643E-04-2.07384E-03
 -1      1700 8.26192E-04-1.15491E-03-2.88322E-03
 -1      1701 5.04365E-04 8.79740E-04-6.42438E-04
 -1      1702 4.31800E-04 1.05015E-03-9.42747E-04
 -1      1703 1.04989E-04-1.68941E-04-4.85190E-03
 -1      1704 2.16971E-04-4.00847E-04-4.43263E-03
 -1      1705 6.49018E-05-3.49589E-04-4.77165E-03
 -1      1706-3.43690E-05-1.64888E-04-4.86063E-03
 -1      1707 3.36807E-05-1.95685E-04-4.58245E-03
 -1      1708-2.33114E-04-1.20925E-03-2.36176E-03
 -1      1709 9.78282E-06-1.28142E-03-2.73676E-03
 -1      1710-6.39519E-04 1.27808E-03-1.93383E-03
 -1      1711 2.38450E-04 9.28654E-04-6.29476E-04
 -1      1712 7.15340E-05 4.45022E-04-2.20586E-04
 -1      1713 1.47531E-04 5.03031E-04-2.14251E-04
 -1      1714 2.24191E-04 4.28932E-04-2.13410E-04
 -1      1715-3.19883E-05 8.25918E-05-4.85870E-03
 -1      1716-1.34039E-04 6.83546E-05-4.41682E-03
 -1      1717-5.81498E-04 1.97673E-04-9.38256E-04
 -1      1718-1.28985E-03 4.59309E-04-3.07735E-03
 -1      1719 6.12079E-04 6.21160E-04-9.64769E-04
 -1      1720-3.12927E-04 5.11283E-05-1.51949E-04
 -1      1721 1.06157E-03 5.88305E-04-3.91503E-03
 -1      1722 1.24896E-03 4.53210E-04-3.45380E-03
 -1      1723 7.75746E-05-6.47058E-04-2.28543E-03
 -1      1724 3.25237E-04-7.16734E-04-2.69008E-03
 -1      1725 5.53721E-04-8.96861E-05-2.23834E-04
 -1      1726 1.12939E-03-2.29630E-04-9.10891E-04
 -1      1727-1.18976E-03 6.95289E-04-2.69441E-03
 -1      1728 6.48437E-04 1.18657E-03-2.35340E-03
 -1      1729-1.11307E-03 1.90200E-04-1.08872E-03
 -1      1730-1.29878E-03 5.17763E-04-2.65541E-03
 -1      1731-1.02483E-03 3.09310E-04-2.41371E-03
 -1      1732-1.32082E-03 3.03395E-04-2.84177E-03
 -1      1733-5.65216E-05 1.12172E-03-1.05650E-03
 -1      1734 6.31434E-04-6.32971E-04-2.30033E-03
 -1      1735-1.06107E-03-5.95962E-04-3.92983E-03
 -1      1736-9.71651E-04-7.66806E-04-4.04019E-03
 -1      1737 5.76264E-05 4.03758E-04-1.40610E-04
 -1      1738 8.75159E-05 8.70218E-04-5.41643E-04
 -1      1739 1.23737E-03-1.60013E-04-2.25145E-03
 -1      1740 1.20976E-03-1.58088E-04-1.75771E-03
 -1      1741 1.30071E-03-3.07105E-04-1.86037E-03
 -1      1742 1.24940E-03-2.73149E-04-1.38812E-03
 -1      1743 9.27834E-04-2.23426E-04-1.53762E-03
 -1      1744 2.99814E-04-3.00503E-04-4.78902E-03
 -1      1745 4.60252E-05 3.69678E-04-6.97363E-04
 -1      1746-6.54130E-04 1.20141E-03-2.21919E-03
 -1      1747-4.00445E-04 1.30492E-03-1.92962E-03
 -1      1748 1.21079E-03-3.69456E-04-2.07242E-03
 -1      1749 1.25418E-03-4.97267E-04-1.69453E-03
 -1      1750 1.12396E-04-8.63205E-05-4.85376E-03
 -1      1751-2.56012E-05-8.80763E-05-4.86924E-03
 -1      1752 9.51563E-04-7.97216E-04-2.77343E-03
 -1      1753-2.47256E-04-8.58948E-05-4.86798E-03
 -1      1754-4.17571E-04 3.37919E-04-2.40503E-04
 -1      1755 1.58516E-04-3.32033E-04-4.76147E-03
 -1      1756-1.57831E-04-8.88740E-05-4.86592E-03
 -1      1757-7.30967E-04-1.16473E-03-3.23872E-03
 -1      1758-6.07707E-04-9.74915E-04-2.94613E-03
 -1      1759-8.61165E-04 5.09464E-04-4.38430E-03
 -1      1760 6.51555E-05 6.31743E-04-1.13873E-03
 -1      1761 1.07248E-04 8.98412E-05-1.41804E-04
 -1      1762-3.18166E-05 7.99374E-05-1.36050E-04
 -1      1763-3.41205E-04-6.29758E-05-4.75877E-03
 -1      1764 6.46024E-04 7.72108E-04-1.49122E-03
 -1      1765-1.32084E-03 8.50487E-05-3.09319E-03
 -1      1766-1.27065E-03 1.02999E-04-3.50248E-03
 -1      1767-1.28542E-03 2.89882E-04-3.33065E-03
 -1      1768-1.17868E-03-6.98798E-04-3.18399E-03
 -1      1769-1.23105E-03-4.63029E-04-3.50744E-03
 -1      1770-9.48385E-04-6.38050E-04-3.09224E-03
 -1      1771-7.59767E-04-9.70456E-04-4.05427E-03
 -1      1772-3.91178E-04 1.13044E-04-1.65891E-04
 -1      1773-5.21347E-04 4.92126E-04-3.05982E-03
 -1      1774-4.49080E-04 8.78404E-04-2.48094E-03
 -1      1775-1.82475E-04 9.94022E-04-2.15049E-03
 -1      1776 1.03585E-03-6.08179E-04-1.01975E-03
 -1      1777 1.15048E-03-6.81035E-04-1.73910E-03
 -1      1778 1.82100E-04-1.54509E-04-4.85378E-03
 -1      1779-1.20981E-03-1.27308E-04-2.88083E-03
 -1      1780 1.24670E-04 1.09095E-03-9.48027E-04
 -1      1781 8.85181E-06-2.51458E-05-3.43565E-03
 -1      1782 2.61779E-04 6.45802E-04-9.62409E-04
 -1      1783 1.49435E-04 9.22915E-04-1.17575E-03
 -1      1784 2.34863E-04 4.94047E-04-2.03562E-04
 -1      1785 3.36464E-04 4.15100E-04-2.13240E-04
 -1      1786 1.07742E-03 8.03858E-05-9.54691E-04
 -1      1787 1.18488E-03 1.36524E-05-1.56348E-03
 -1      1788 1.27264E-03 2.52060E-04-1.56236E-03
 -1      1789-9.56191E-04 1.64148E-04-2.99781E-03
 -1      1790-3.16054E-04 1.38562E-04-4.07468E-03
 -1      1791-5.61762E-04-2.68475E-04-4.01996E-03
 -1      1792 1.21619E-03-1.11542E-04-1.21276E-03
 -1      1793-1.30848E-03-3.09854E-04-2.05299E-03
 -1      1794 8.20695E-04-1.06441E-04-8.81223E-04
 -1      1795-7.02389E-04-4.77626E-04-3.62525E-03
 -1      1796-9.32328E-04-2.40019E-04-3.12200E-03
 -1      1797 1.18737E-03-4.37641E-04-1.24193E-03
 -1      1798 9.28384E-04-5.67004E-04-1.68801E-03
 -1      1799 9.94946E-06-4.95112E-04-4.80978E-03
 -1      1800 1.22899E-03 5.09812E-05-2.00193E-03
 -1      1801 6.22519E-04 1.26432E-03-1.88387E-03
 -1      1802 8.07390E-04 9.22403E-04-2.17435E-03
 -1      1803 7.33774E-04 1.26895E-03-2.23680E-03
 -1      1804 1.18813E-04-1.08139E-03-3.99637E-03
 -1      1805-8.95007E-05-1.28872E-03-3.46650E-03
 -1      1806 4.61739E-04-4.02924E-05-2.22639E-04
 -1      1807 2.69098E-04-8.70810E-05-1.39013E-04
 -1      1808 5.80348E-04-2.39260E-04-7.36152E-04
 -1      1809 2.67853E-04 1.80916E-05-4.22922E-04
 -1      1810-1.11987E-03 8.06487E-05-3.83832E-03
 -1      1811 1.84048E-04-1.23134E-03-3.40793E-03
 -1      1812-5.05809E-05-1.02364E-03-3.08557E-03
 -1      1813 1.18702E-03-7.07152E-04-2.20417E-03
 -1      1814 8.67311E-04-4.40072E-04-2.10980E-03
 -1      1815-1.28653E-03-3.05135E-04-3.19843E-03
 -1      1816-1.23677E-03-2.57245E-04-3.60155E-03
 -1      1817-1.04990E-03-3.21114E-05-3.34349E-03
 -1      1818 1.31030E-03 3.08974E-04-1.99153E-03
 -1      1819 5.26800E-05 5.85999E-05-2.46346E-04
 -1      1820-1.57929E-04 1.23498E-03-2.74262E-03
 -1      1821 2.07221E-04 3.44027E-04-9.88629E-04
 -1      1822-1.46268E-04-4.73914E-04-1.05110E-03
 -1      1823-6.54876E-04 6.36054E-04-2.37542E-03
 -1      1824-2.93757E-04-1.32783E-03-2.80537E-03
 -1      1825-2.92324E-04-9.56830E-04-2.70171E-03
 -1      1826 1.20015E-03 1.23272E-03-2.51234E-03
 -1      1827 8.94541E-04 1.14909E-03-2.36174E-03
 -1      1828 6.98538E-05-3.52102E-04-4.26009E-03
 -1      1829-1.17843E-04-1.38837E-04-4.42734E-03
 -1      1830-5.06329E-04-1.31153E-03-2.62400E-03
 -1      1831 2.41901E-06 4.82892E-04-4.80664E-03
 -1      1832-1.08029E-03-7.73945E-05-3.99518E-03
 -1      1833-1.22693E-03 2.24312E-04-1.58895E-03
 -1      1834 1.33557E-03-1.95636E-04-2.75467E-03
 -1      1835 1.31309E-03-3.56605E-04-2.99627E-03
 -1      1836 1.32119E-03-4.13175E-04-2.57261E-03
 -1      1837-8.46776E-04 5.22285E-04-6.20694E-04
 -1      1838 1.18260E-03 1.21909E-03-2.09384E-03
 -1      1839 1.14625E-03 9.25983E-04-2.34216E-03
 -1      1840 6.32520E-04-4.43830E-04-1.13638E-03
 -1      1841 1.07663E-03 9.31512E-05-4.00822E-03
 -1      1842 1.25538E-03 2.42171E-04-3.54522E-03
 -1      1843-5.57083E-04-7.72093E-07-4.77432E-03
 -1      1844-7.42985E-05-1.33191E-03-3.05962E-03
 -1      1845 2.23909E-04-1.27168E-03-2.98938E-03
 -1      1846 6.66635E-04 8.07964E-05-3.73655E-03
 -1      1847-1.31948E-03-3.20125E-04-2.53561E-03
 -1      1848 8.65020E-04 1.22176E-03-1.91195E-03
 -1      1849 1.10473E-03 9.98804E-04-1.88727E-03
 -1      1850 1.01406E-03-1.11233E-03-3.08603E-03
 -1      1851-7.04362E-04-1.20276E-03-2.85661E-03
 -1      1852-4.47584E-04-1.30078E-03-3.04320E-03
 -1      1853 1.24831E-03 7.34816E-04-1.99804E-03
 -1      1854 9.04306E-04 7.11911E-04-1.78819E-03
 -1      1855 1.34410E-03 1.93552E-05-2.51620E-03
 -1      1856 1.33335E-03 2.48808E-05-3.00559E-03
 -1      1857 1.31906E-03 3.20886E-04-2.47653E-03
 -1      1858 1.09987E-03 1.38071E-04-2.47812E-03
 -1      1859 1.19462E-03-6.67728E-04-2.62972E-03
 -1      1860 9.84418E-04-4.76678E-04-2.65044E-03
 -1      1861 1.23030E-03-1.22399E-03-2.49670E-03
 -1      1862 1.21538E-03-1.20512E-03-2.91147E-03
 -1      1863 1.15853E-03-9.05628E-04-2.61752E-03
 -1      1864 9.42812E-04-1.13351E-03-2.62738E-03
 -1      1865-1.19879E-03 1.22554E-03-2.50372E-03
 -1      1866-7.72786E-04 3.92730E-04-2.80592E-03
 -1      1867 7.59710E-04-9.65840E-04-4.03114E-03
 -1      1868 9.49280E-04-1.04180E-03-3.55409E-03
 -1      1869 9.69730E-04 7.61240E-04-9.44350E-04
 -1      1870 1.10403E-03 7.40377E-04-1.54250E-03
 -1      1871 1.03590E-03 9.34381E-04-1.41773E-03
 -1      1872-1.14805E-03 1.10106E-04-1.04036E-03
 -1      1873 4.98211E-05-5.85774E-05-4.75446E-03
 -1      1874-6.36985E-05 2.31490E-04-4.83307E-03
 -1      1875-1.07725E-04 1.26859E-04-4.86029E-03
 -1      1876 3.06313E-05-2.09662E-04-3.83604E-03
 -1      1877 3.04426E-04-1.61980E-04-3.26610E-03
 -1      1878 1.22837E-03-8.92246E-04-3.07461E-03
 -1      1879 1.07166E-03 1.07155E-04-3.19096E-03
 -1      1880 1.29846E-03 2.84884E-04-3.14041E-03
 -1      1881 1.06828E-03 4.08847E-04-2.62304E-03
 -1      1882 8.87469E-05-5.88129E-04-3.83945E-03
 -1      1883-1.38777E-04-3.14653E-04-4.04779E-03
 -1      1884 4.64642E-04-9.98808E-05-3.93963E-03
 -1      1885 5.64530E-04 3.75997E-06-4.77481E-03
 -1      1886-4.45942E-04 4.34338E-05-1.53039E-04
 -1      1887 1.29087E-03-2.50257E-06-3.41276E-03
 -1      1888 2.89025E-04-2.33950E-04-3.92244E-03
 -1      1889 6.06023E-04-1.97978E-04-3.36035E-03
 -1      1890 6.74366E-04 4.55754E-04-3.59893E-03
 -1      1891 9.33755E-04 5.94892E-04-3.00835E-03
 -1      1892 1.26888E-03-6.58224E-04-3.10247E-03
 -1      1893 1.06703E-03-4.72262E-04-3.16501E-03
 -1      1894 9.93772E-04-1.26583E-04-2.51355E-03
 -1      1895 9.38559E-04-4.99377E-05-6.60524E-04
 -1      1896 1.16352E-03 1.16229E-03-1.68461E-03
 -1      1897 1.05780E-03 1.06013E-03-1.26249E-03
 -1      1898 8.39830E-04 1.15280E-03-1.44926E-03
 -1      1899 4.98232E-04-1.74640E-04-2.74953E-03
 -1      1900-6.85337E-04-1.69744E-04-3.47140E-03
 -1      1901-4.27020E-05-7.16705E-06-4.75577E-03
 -1      1902-1.05064E-04 3.97114E-05-4.85817E-03
 -1      1903 3.36040E-04-4.49491E-04-3.46640E-03
 -1      1904 1.18217E-03 7.12590E-04-2.59643E-03
 -1      1905 1.24692E-03 7.05060E-04-3.11789E-03
 -1      1906 1.28715E-03 5.04851E-04-2.89781E-03
 -1      1907-5.42607E-04 1.00700E-05-3.86424E-03
 -1      1908-8.15153E-04-4.42802E-05-3.52583E-03
 -1      1909-3.02353E-05 1.24007E-03-2.30306E-03
 -1      1910 1.30084E-04 1.32006E-03-1.90078E-03
 -1      1911 1.46575E-04-6.88655E-04-3.18927E-03
 -1      1912-1.53739E-04-7.53848E-04-3.26533E-03
 -1      1913-7.36251E-04-7.42807E-04-5.82914E-04
 -1      1914-9.34241E-04-9.32614E-04-9.12483E-04
 -1      1915-6.37236E-04-8.14386E-04-6.14971E-04
 -1      1916-8.15756E-04-6.35254E-04-6.30179E-04
 -1      1917 7.70710E-04 9.71811E-04-9.68330E-04
 -1      1918-3.15540E-04-4.08615E-04-1.86749E-04
 -1      1919-4.12791E-04-3.13304E-04-1.73199E-04
 -1      1920-4.40337E-04-4.39322E-04-2.75245E-04
 -1      1921-4.14433E-04-2.42164E-04-1.73788E-04
 -1      1922-1.30395E-04 7.71444E-04-1.72007E-03
 -1      1923 1.29117E-03 5.32073E-04-2.24327E-03
 -1      1924 1.04820E-03-1.06287E-03-3.75482E-03
 -1      1925 1.15680E-03-1.16329E-03-3.33301E-03
 -1      1926 1.16572E-03-8.43332E-04-3.55012E-03
 -1      1927 8.10734E-04 2.40736E-04-3.24273E-03
 -1      1928 1.43185E-05 1.28800E-03-1.56929E-03
 -1      1929-2.06211E-05 1.08104E-03-1.72702E-03
 -1      1930 2.20069E-04-4.52021E-04-2.86226E-03
 -1      1931-1.57440E-04 1.33119E-03-1.92977E-03
 -1      1932 9.80032E-04 1.50905E-04-2.66334E-03
 -1      1933-2.73779E-04-4.66799E-04-1.96705E-04
 -1      1934 9.65188E-04-7.58379E-04-4.05832E-03
 -1      1935-5.01695E-06 3.98819E-04-1.37668E-04
 -1      1936 1.10247E-04-7.57715E-06-1.42959E-04
 -1      1937 5.73852E-04-3.91962E-06-2.34440E-04
 -1      1938 8.39567E-04-3.27053E-05-3.09688E-03
 -1      1939-1.06331E-03-1.04412E-03-3.76177E-03
 -1      1940-1.16592E-03-1.15538E-03-3.33994E-03
 -1      1941-1.06020E-03-4.36836E-04-2.74611E-03
 -1      1942 2.27523E-04-3.05833E-04-4.03419E-03
 -1      1943 7.59847E-04-3.07521E-04-2.71645E-03
 -1      1944-1.22101E-03-1.22998E-03-2.49617E-03
 -1      1945 7.41568E-04-7.38555E-04-5.81928E-04
 -1      1946 9.31275E-04-9.35038E-04-9.12594E-04
 -1      1947 6.31895E-04-8.16379E-04-6.19314E-04
 -1      1948 8.09395E-04-6.31551E-04-6.03080E-04
 -1      1949 7.55354E-04-6.43955E-04-2.89217E-03
 -1      1950 5.30082E-04-4.80613E-04-2.97316E-03
 -1      1951-7.03015E-04 2.21539E-04-3.34717E-03
 -1      1952-9.78684E-05-5.16550E-05-4.86572E-03
 -1      1953 2.56342E-04 4.07025E-04-4.83126E-03
 -1      1954 6.30980E-04 8.09186E-04-4.38800E-03
 -1      1955 3.19887E-04 4.12168E-04-4.82576E-03
 -1      1956 4.43664E-04 4.30260E-04-4.73944E-03
 -1      1957 7.40991E-04 7.47854E-04-4.41565E-03
 -1      1958 4.23853E-04 3.17508E-04-4.81675E-03
 -1      1959 8.15120E-04 6.34415E-04-4.40183E-03
 -1      1960 3.21876E-04-4.11350E-04-1.72222E-04
 -1      1961 4.12056E-04-3.10424E-04-1.86008E-04
 -1      1962 4.40315E-04-4.27149E-04-2.62590E-04
 -1      1963-1.74595E-04-1.30850E-06-4.85679E-03
 -1      1964-2.32563E-04-2.52279E-05-4.57513E-03
 -1      1965 2.53962E-04-4.11545E-04-1.72585E-04
 -1      1966 9.33283E-04 9.48005E-04-4.07570E-03
 -1      1967 4.84972E-04 2.79548E-04-4.79728E-03
 -1      1968-2.95063E-04-1.08204E-04-4.08195E-03
 -1      1969 4.68897E-04-2.64492E-04-1.91836E-04
 -1      1970-3.81196E-04 7.61466E-04-2.04058E-03
 -1      1971 9.39124E-04-9.28853E-04-4.08134E-03
 -1      1972 6.23532E-04-8.11774E-04-4.38755E-03
 -1      1973-2.76547E-04 4.77076E-04-1.98812E-04
 -1      1974-4.30313E-04 4.41338E-04-2.76254E-04
 -1      1975-1.20594E-03-7.38391E-04-2.62929E-03
 -1      1976-1.29511E-03-5.33856E-04-2.30074E-03
 -1      1977 7.46207E-04-7.39841E-04-4.42041E-03
 -1      1978 8.04813E-04-6.24396E-04-4.40830E-03
 -1      1979 1.26705E-03-4.83944E-04-3.35387E-03
 -1      1980 4.85459E-04-2.82766E-04-4.80064E-03
 -1      1981 4.27907E-04-4.37964E-04-4.74693E-03
 -1      1982-7.36709E-04 7.35494E-04-5.85314E-04
 -1      1983-9.29600E-04 9.35480E-04-9.11918E-04
 -1      1984-6.25954E-04 8.20399E-04-6.12097E-04
 -1      1985-7.92754E-04 6.38668E-04-6.06539E-04
 -1      1986 4.17079E-04-3.22084E-04-4.81215E-03
 -1      1987-3.16923E-04 4.15733E-04-1.83772E-04
 -1      1988 3.18707E-04-4.18948E-04-4.82740E-03
 -1      1989 2.43047E-04-4.20133E-04-4.82663E-03
 -1      1990-9.31544E-04-9.39258E-04-4.08404E-03
 -1      1991-8.10457E-04-6.24013E-04-4.39732E-03
 -1      1992-4.25353E-04-2.45442E-04-4.82661E-03
 -1      1993-4.19593E-04-3.19505E-04-4.82674E-03
 -1      1994-4.39611E-04-4.25421E-04-4.75148E-03
 -1      1995 2.29200E-04 1.25954E-03-1.45802E-03
 -1      1996-7.41918E-04-7.46902E-04-4.42070E-03
 -1      1997-6.26008E-04-8.04664E-04-4.40826E-03
 -1      1998-2.84017E-04 4.99255E-04-4.79415E-03
 -1      1999-4.15747E-04 4.32414E-04-4.75144E-03
 -1      2000-4.09286E-04 3.13807E-04-1.85694E-04
 -1      2001-1.27829E-03-5.25775E-04-2.95453E-03
 -1      2002-2.85153E-04-4.83122E-04-4.80102E-03
 -1      2003-3.23335E-04-4.16864E-04-4.81327E-03
 -1      2004 9.48739E-04 9.26108E-04-9.24086E-04
 -1      2005 6.24423E-04 8.08790E-04-5.98243E-04
 -1      2006 3.41114E-04 1.26265E-05-2.11182E-04
 -1      2007 2.60264E-04 9.16578E-05-1.43567E-04
 -1      2008 1.84162E-04 4.91821E-05-1.38721E-04
 -1      2009-4.71198E-04 2.68849E-04-1.92577E-04
 -1      2010-3.21867E-04 4.21851E-04-4.81692E-03
 -1      2011-6.29332E-04 8.05904E-04-4.42104E-03
 -1      2012 7.49010E-04 7.39574E-04-5.79478E-04
 -1      2013 8.05863E-04 6.23927E-04-5.84780E-04
 -1      2014 1.28119E-03-7.29821E-04-2.69035E-03
 -1      2015 1.92815E-04-4.52164E-05-1.38297E-04
 -1      2016-2.37084E-04 7.42710E-04-1.87174E-03
 -1      2017-5.03657E-04 1.29615E-04-4.81173E-03
 -1      2018-6.24796E-04 6.13411E-05-2.35465E-04
 -1      2019-4.95900E-04 1.15585E-04-1.81386E-04
 -1      2020-5.47711E-04 8.68950E-06-1.71939E-04
 -1      2021-9.39767E-04 9.32555E-04-4.08382E-03
 -1      2022-7.41883E-04 7.39675E-04-4.41632E-03
 -1      2023-7.98710E-04 6.25966E-04-4.41410E-03
 -1      2024 2.53165E-04 4.12040E-04-1.70521E-04
 -1      2025 3.23675E-04 4.14045E-04-1.70103E-04
 -1      2026 4.27389E-04 4.21764E-04-2.43203E-04
 -1      2027-4.87503E-04 2.82401E-04-4.80071E-03
 -1      2028-4.17688E-04 3.22265E-04-4.81575E-03
 -1      2029 4.21351E-04 3.18558E-04-1.85139E-04
 -1      2030 4.85692E-04 2.79161E-04-2.03043E-04
 -1      2031-4.35168E-04 2.12804E-04-4.82377E-03
 -1      2032-4.38866E-04 1.99902E-04-1.77282E-04
 -1      2033 4.55633E-04-2.54132E-04-3.50860E-04
 -1      2034-8.52380E-04 2.19371E-04-5.04444E-04
 -3
    1PSTEP                         2           1           1          
  100CL  101 1.000000000        2034                     0    1           1
 -4  STRESS      6    1
 -5  SXX         1    4    1    1
 -5  SYY         1    4    2    2
 -5  SZZ         1    4    3    3
 -5  SXY         1    4    1    2
 -5  SYZ         1    4    2    3
 -5  SZX         1    4    3    1
 -1         1-5.13091E-03-5.14689E-03-6.81643E-03-4.35065E-05 1.41636E-03 1.44126E-03
 -1         2-5.07750E-03-5.08364E-03-6.76454E-03 4.84331E-05 1.41538E-03-1.42412E-03
 -1         3-5.09901E-03-5.10017E-03-6.77613E-03 4.88334E-05-1.42867E-03 1.44181E-03
 -1         4-5.14904E-03-5.14976E-03-6.83909E-03-4.11674E-05-1.42067E-03-1.42061E-03
 -1         5-5.11289E-03-5.13282E-03-6.80816E-03 4.31598E-05-1.40534E-03 1.42760E-03
 -1         6-5.13269E-03-5.15380E-03-6.82592E-03 4.26363E-05 1.41522E-03-1.43562E-03
 -1         7-5.14229E-03-5.11477E-03-6.81451E-03-4.26950E-05-1.42530E-03-1.40825E-03
 -1         8-5.14606E-03-5.13506E-03-6.82310E-03-4.34353E-05 1.44031E-03 1.41758E-03
 -1         9-4.55950E-03-4.61823E-03-5.10391E-03 5.34947E-06 1.85724E-03 7.28597E-04
 -1        10-4.38582E-03-4.31924E-03-4.87466E-03-5.77506E-05 1.90514E-03 3.66722E-04
 -1        11-4.76012E-03-4.80519E-03-5.31401E-03 4.61651E-06 2.00191E-03 2.14058E-05
 -1        12-4.51904E-03-4.49767E-03-5.01311E-03-2.00131E-05 1.82443E-03-3.28068E-04
 -1        13-4.38185E-03-4.34880E-03-4.85376E-03-3.68240E-05 1.91305E-03-7.29825E-04
 -1        14-6.78242E-03-6.78136E-03-7.48562E-03 9.41614E-07 1.79788E-03 1.03070E-03
 -1        15-5.14499E-03-5.14349E-03-5.67810E-03 4.76882E-07 1.81597E-03 5.02147E-04
 -1        16-5.07539E-03-5.07332E-03-5.60121E-03 2.21114E-07 2.06562E-03 2.11483E-04
 -1        17-4.83879E-03-4.83708E-03-5.34006E-03-1.67987E-07 1.88182E-03-1.87799E-04
 -1        18-5.05625E-03-5.05467E-03-5.58022E-03-5.15156E-07 1.87250E-03-5.37636E-04
 -1        19-6.79201E-03-6.79084E-03-7.49622E-03-9.53939E-07 1.85956E-03-1.01857E-03
 -1        20 1.49803E-04 1.45202E-04-2.09479E-03-1.35901E-05-2.36438E-04 2.06542E-04
 -1        21 3.22796E-05 2.14289E-05-1.85718E-03-3.42871E-05-3.61113E-05 1.98650E-05
 -1        22-1.74616E-05-9.51008E-06-1.92817E-03-3.30661E-05-4.98191E-07-2.68536E-06
 -1        23 2.07948E-05 2.46060E-05-1.87550E-03-3.29586E-05 1.79336E-05-3.82537E-05
 -1        24 1.77250E-04 1.76759E-04-2.07916E-03-1.17577E-05 2.20006E-04-2.06089E-04
 -1        25 9.19116E-04 8.90615E-04-2.09775E-03-2.17522E-04 2.88315E-04-3.01843E-04
 -1        26 4.01481E-04 3.92776E-04-1.44173E-03 3.45071E-05-6.59838E-05 4.96009E-05
 -1        27 7.18339E-05 6.20478E-05-1.79521E-03-2.52925E-05-2.44365E-05 5.75723E-06
 -1        28 6.55251E-05 7.49365E-05-1.78996E-03-1.88729E-05 1.06232E-05-2.08771E-05
 -1        29 3.84601E-04 4.00067E-04-1.46678E-03 4.33918E-05 5.03605E-05-5.25478E-05
 -1        30 9.45589E-04 9.13561E-04-2.06215E-03-2.20192E-04-2.98636E-04 3.12563E-04
 -1        31-4.40567E-03-4.44503E-03-4.92212E-03-3.57536E-07-1.87914E-03-7.35306E-04
 -1        32-4.53719E-03-4.54814E-03-5.07873E-03-2.17868E-05-1.82816E-03-3.42837E-04
 -1        33-4.19417E-03-4.18068E-03-4.66743E-03-2.35417E-05-1.86574E-03-3.66682E-05
 -1        34-4.39565E-03-4.38127E-03-4.87104E-03-1.42402E-05-1.84158E-03 3.11306E-04
 -1        35-4.40212E-03-4.36881E-03-4.87770E-03-3.78219E-05-1.91800E-03 7.28418E-04
 -1        36-6.72945E-03-6.72835E-03-7.42716E-03 9.44018E-07-1.81448E-03-1.02370E-03
 -1        37-5.10301E-03-5.10148E-03-5.63179E-03 4.96756E-07-1.83828E-03-5.14677E-04
 -1        38-4.86399E-03-4.86230E-03-5.36785E-03 1.65146E-07-1.85565E-03-1.63503E-04
 -1        39-4.57177E-03-4.57005E-03-5.04538E-03-1.44595E-07-1.88018E-03 1.55287E-04
 -1        40-5.02884E-03-5.02726E-03-5.54998E-03-5.08721E-07-1.87375E-03 5.30040E-04
 -1        41-6.83530E-03-6.83412E-03-7.54402E-03-9.69679E-07-1.87046E-03 1.02788E-03
 -1        42 2.12239E-04 2.03962E-04-2.06433E-03 1.65053E-05-2.24002E-04-2.03269E-04
 -1        43 1.55195E-05 1.75493E-05-1.87941E-03 4.23398E-05-3.84067E-05-1.60972E-05
 -1        44-1.39294E-05-8.92394E-06-1.91385E-03 2.43968E-05-4.36566E-06-2.50444E-06
 -1        45 6.56402E-06 2.68344E-05-1.86904E-03 3.53916E-05 2.98460E-05 3.44949E-05
 -1        46 1.84770E-04 1.93729E-04-2.05668E-03 1.53093E-05 2.02033E-04 2.19288E-04
 -1        47 1.08258E-03 1.04984E-03-1.93633E-03 2.28199E-04 2.98989E-04 3.17934E-04
 -1        48 3.71299E-04 3.87197E-04-1.47649E-03-2.78844E-05-5.95480E-05-4.25474E-05
 -1        49 7.86472E-05 7.79323E-05-1.78598E-03 1.46660E-05-1.84115E-05-1.05091E-05
 -1        50 6.83164E-05 7.99602E-05-1.78527E-03 2.34296E-05 1.06228E-05 1.81140E-05
 -1        51 3.65871E-04 3.76252E-04-1.47409E-03-4.18696E-05 5.15220E-05 5.15129E-05
 -1        52 9.59185E-04 9.99423E-04-2.01745E-03 2.33593E-04-3.06794E-04-3.02705E-04
 -1        53-4.20782E-03-4.25413E-03-4.69785E-03-4.08598E-05-7.14306E-04 1.89060E-03
 -1        54-4.89756E-03-4.84831E-03-5.42427E-03 2.08655E-06-3.66924E-04 1.78042E-03
 -1        55-4.56077E-03-4.57545E-03-5.10241E-03 2.64104E-05-1.75708E-05 1.76577E-03
 -1        56-4.36279E-03-4.38514E-03-4.85757E-03 1.66126E-05 3.08743E-04 1.81516E-03
 -1        57-4.30273E-03-4.33441E-03-4.80352E-03 3.66914E-05 7.27493E-04 1.91037E-03
 -1        58-6.71480E-03-6.71600E-03-7.41234E-03-9.52644E-07-1.00581E-03 1.87206E-03
 -1        59-4.61128E-03-4.61274E-03-5.09078E-03-5.16308E-07-5.57629E-04 1.81401E-03
 -1        60-5.18680E-03-5.18832E-03-5.72572E-03-1.46944E-07-1.57024E-04 1.74878E-03
 -1        61-4.89528E-03-4.89691E-03-5.40416E-03 1.55561E-07 1.68903E-04 1.81891E-03
 -1        62-5.00305E-03-5.00461E-03-5.52324E-03 5.02911E-07 5.24683E-04 1.86123E-03
 -1        63-6.77539E-03-6.77659E-03-7.47921E-03 9.68445E-07 1.02039E-03 1.87749E-03
 -1        64-4.25522E-03-4.29736E-03-4.76467E-03-4.68049E-05 7.13289E-04-1.87621E-03
 -1        65-4.82790E-03-4.78408E-03-5.37406E-03 1.24774E-05 3.43711E-04-1.76270E-03
 -1        66-4.20337E-03-4.23942E-03-4.70643E-03 2.77395E-05 9.31388E-06-1.73572E-03
 -1        67-4.44712E-03-4.47071E-03-4.95671E-03 1.89203E-05-3.17608E-04-1.80962E-03
 -1        68-4.36848E-03-4.40214E-03-4.88132E-03 3.99173E-05-7.15985E-04-1.91410E-03
 -1        69-6.75267E-03-6.75386E-03-7.45412E-03-9.59702E-07 1.01299E-03-1.86964E-03
 -1        70-4.78092E-03-4.78235E-03-5.27794E-03-5.01922E-07 5.43528E-04-1.78601E-03
 -1        71-4.89093E-03-4.89243E-03-5.39917E-03-1.26387E-07 1.29328E-04-1.73485E-03
 -1        72-4.92254E-03-4.92415E-03-5.43423E-03 1.55186E-07-1.69396E-04-1.80956E-03
 -1        73-5.08542E-03-5.08699E-03-5.61413E-03 5.02864E-07-5.24775E-04-1.86091E-03
 -1        74-6.81775E-03-6.81895E-03-7.52594E-03 9.55966E-07-1.01523E-03-1.86705E-03
 -1        75 1.58785E-04 1.56045E-04-2.08762E-03-1.04235E-05 2.35932E-04-2.04300E-04
 -1        76 2.20858E-05 1.75340E-05-1.85349E-03-3.89341E-05 3.64539E-05-3.11145E-05
 -1        77-1.68264E-05-1.48662E-05-1.91644E-03-2.77959E-05 2.93775E-06 1.09257E-05
 -1        78 2.65963E-05 2.86198E-05-1.87400E-03-3.71418E-05-2.34556E-05 4.56101E-05
 -1        79 1.84239E-04 1.86072E-04-2.09135E-03-1.53787E-05-2.26608E-04 2.05312E-04
 -1        80 9.09657E-04 8.77227E-04-2.10492E-03-2.20255E-04-2.86244E-04 3.09024E-04
 -1        81 3.85860E-04 3.83717E-04-1.46233E-03 3.37651E-05 6.43474E-05-5.28221E-05
 -1        82 5.80230E-05 5.84963E-05-1.79019E-03-2.77369E-05 2.40252E-05-1.08504E-05
 -1        83 6.61316E-05 6.49781E-05-1.79212E-03-1.34251E-05-8.12978E-06 2.27393E-05
 -1        84 3.89369E-04 4.09271E-04-1.46760E-03 3.24890E-05-5.78657E-05 5.98284E-05
 -1        85 1.03011E-03 9.90532E-04-1.98826E-03-2.25608E-04 2.93269E-04-3.16198E-04
 -1        86-4.32480E-03-4.29483E-03-4.78693E-03 3.22253E-05-1.91178E-03-7.29447E-04
 -1        87-4.26421E-03-4.23106E-03-4.74720E-03 2.93999E-05-1.76247E-03-3.18869E-04
 -1        88-4.21437E-03-4.24742E-03-4.69586E-03-3.51629E-06-1.75522E-03 3.23441E-05
 -1        89-4.53147E-03-4.54464E-03-5.06951E-03 1.89980E-05-1.82193E-03 3.37399E-04
 -1        90-4.52310E-03-4.55399E-03-5.04922E-03 4.83283E-06-1.88737E-03 7.28102E-04
 -1        91-6.69369E-03-6.69252E-03-7.38773E-03 9.60847E-07-1.86653E-03-1.02000E-03
 -1        92-5.08286E-03-5.08130E-03-5.60958E-03 5.12941E-07-1.85829E-03-5.34594E-04
 -1        93-4.55124E-03-4.54978E-03-5.02268E-03 1.51259E-07-1.72996E-03-1.73098E-04
 -1        94-4.76625E-03-4.76463E-03-5.25997E-03-1.67531E-07-1.81949E-03 1.67415E-04
 -1        95-5.13551E-03-5.13396E-03-5.66766E-03-4.96876E-07-1.84821E-03 5.10756E-04
 -1        96-6.73867E-03-6.73759E-03-7.43733E-03-9.30527E-07-1.80057E-03 1.01838E-03
 -1        97-4.27893E-03-4.23854E-03-4.74707E-03 4.66620E-05 1.87231E-03 7.10309E-04
 -1        98-4.56903E-03-4.59926E-03-5.14184E-03-2.07696E-05 1.82609E-03 3.55300E-04
 -1        99-4.39068E-03-4.39911E-03-4.90602E-03 1.88471E-05 1.80516E-03-2.97630E-05
 -1       100-4.45538E-03-4.40808E-03-4.93558E-03-2.78680E-05 1.81707E-03-3.03539E-04
 -1       101-4.45806E-03-4.46352E-03-4.97177E-03 1.48950E-05 1.92609E-03-7.13036E-04
 -1       102-6.77341E-03-6.77222E-03-7.47569E-03 9.57828E-07 1.86720E-03 1.01121E-03
 -1       103-4.79151E-03-4.79005E-03-5.28806E-03 5.10800E-07 1.80540E-03 5.49462E-04
 -1       104-5.23142E-03-5.22976E-03-5.77330E-03 1.45273E-07 1.85088E-03 1.49165E-04
 -1       105-4.51242E-03-4.51086E-03-4.97987E-03-1.67375E-07 1.77989E-03-1.81258E-04
 -1       106-5.38730E-03-5.38559E-03-5.94553E-03-4.94497E-07 1.93357E-03-4.85941E-04
 -1       107-6.78950E-03-6.78839E-03-7.49342E-03-9.32711E-07 1.81538E-03-1.01112E-03
 -1       108 1.60246E-04 1.59727E-04-2.08762E-03 1.05226E-05 2.08330E-04 2.34426E-04
 -1       109 1.74897E-05 2.77108E-05-1.85653E-03 3.84286E-05 2.94734E-05 3.64325E-05
 -1       110-1.85185E-05-2.10381E-05-1.93377E-03 3.62332E-05-5.92777E-06 2.13087E-06
 -1       111 2.28487E-05 2.12458E-05-1.87174E-03 3.49573E-05-4.24079E-05-2.01121E-05
 -1       112 1.87228E-04 1.85911E-04-2.07448E-03 7.98948E-06-2.09922E-04-2.27654E-04
 -1       113 9.05039E-04 9.49692E-04-2.07241E-03 2.23601E-04-3.12078E-04-2.82377E-04
 -1       114 3.91805E-04 4.00559E-04-1.45027E-03-3.40599E-05 5.79728E-05 6.32067E-05
 -1       115 7.46932E-05 7.85661E-05-1.78392E-03 2.94705E-05 9.89902E-06 2.38468E-05
 -1       116 5.40496E-05 4.88814E-05-1.80449E-03 2.05887E-05-2.03424E-05-8.58268E-06
 -1       117 3.81547E-04 3.65817E-04-1.49238E-03-4.04031E-05-5.67210E-05-5.44109E-05
 -1       118 9.53335E-04 9.88571E-04-2.01660E-03 2.19596E-04 3.16328E-04 2.92641E-04
 -1       119-4.15620E-03-4.19534E-03-4.63495E-03-3.56522E-05 7.27525E-04-1.89266E-03
 -1       120-4.77291E-03-4.76161E-03-5.28859E-03 6.81414E-06 3.00549E-04-1.73718E-03
 -1       121-3.79820E-03-4.13331E-03-4.82050E-03-1.29298E-05-2.60227E-05-1.59977E-03
 -1       122-4.18305E-03-4.23320E-03-4.68127E-03 2.48938E-05-3.03471E-04-1.80497E-03
 -1       123-4.49255E-03-4.48057E-03-4.99600E-03-1.15731E-05-7.08229E-04-1.90925E-03
 -1       124-6.72908E-03-6.73026E-03-7.42807E-03-9.54625E-07 1.01240E-03-1.86162E-03
 -1       125-4.46367E-03-4.46511E-03-4.92783E-03-4.84751E-07 5.18928E-04-1.78912E-03
 -1       126-7.25031E-03-7.25197E-03-8.00299E-03-1.04640E-07 1.18880E-04-1.80149E-03
 -1       127-5.90541E-03-5.90701E-03-6.51880E-03 1.41899E-07-1.59377E-04-1.78840E-03
 -1       128-5.42526E-03-5.42694E-03-5.98927E-03 4.85785E-07-4.82620E-04-1.91405E-03
 -1       129-6.77128E-03-6.77238E-03-7.47452E-03 9.22247E-07-1.00378E-03-1.80867E-03
 -1       130-4.29500E-03-4.33649E-03-4.80219E-03-4.34281E-05-7.36961E-04 1.88528E-03
 -1       131-5.15430E-03-5.11219E-03-5.71828E-03 1.09849E-05-3.33077E-04 1.69099E-03
 -1       132-4.45882E-03-4.48990E-03-5.00345E-03 3.46051E-05-3.13125E-05 1.75265E-03
 -1       133-4.29367E-03-4.33932E-03-4.80533E-03 2.53948E-05 3.11761E-04 1.84474E-03
 -1       134-4.52407E-03-4.51948E-03-5.04020E-03-1.55484E-05 7.20040E-04 1.94162E-03
 -1       135-6.77941E-03-6.78060E-03-7.48364E-03-9.68511E-07-1.02282E-03 1.87031E-03
 -1       136-4.78625E-03-4.78763E-03-5.28376E-03-4.98466E-07-5.44735E-04 1.76289E-03
 -1       137-5.45482E-03-5.45629E-03-6.02140E-03-1.29173E-07-1.42966E-04 1.70075E-03
 -1       138-4.90848E-03-4.91013E-03-5.41876E-03 1.47727E-07 1.60232E-04 1.83236E-03
 -1       139-5.46385E-03-5.46560E-03-6.03195E-03 5.07730E-07 4.95078E-04 1.95420E-03
 -1       140-6.80600E-03-6.80712E-03-7.51288E-03 9.45356E-07 1.01964E-03 1.82758E-03
 -1       141 1.23043E-04 3.10300E-05-2.17045E-03 3.51064E-05 3.09582E-05 1.76001E-05
 -1       142 1.25993E-04 4.63431E-05-2.15272E-03-5.18466E-05 4.24972E-05-1.12531E-05
 -1       143-1.07127E-04 5.83134E-04-2.34079E-03-6.60080E-07 1.75229E-04-1.02446E-04
 -1       144-1.53503E-04 5.58639E-04-2.38846E-03 1.15829E-05-2.55224E-04 1.01839E-04
 -1       145 5.72789E-05 7.05617E-04-2.37523E-03-1.30214E-05 1.64670E-04 2.90375E-04
 -1       146 6.39935E-05 8.02876E-04-2.47064E-03-2.13871E-05-2.06414E-04-2.87664E-04
 -1       147 1.75104E-04 7.19175E-05-2.09849E-03 7.84944E-05-7.42359E-05-1.25447E-04
 -1       148 1.22554E-04 8.68691E-04-2.45103E-03 1.77193E-05-1.19816E-04 2.94122E-04
 -1       149 2.11905E-04 7.88691E-05-2.13118E-03 2.92271E-05 5.95177E-05 9.63241E-05
 -1       150 1.62651E-04 1.00276E-04-2.18467E-03 2.40460E-05 7.55476E-05 2.33780E-05
 -1       151 2.84528E-04-9.37882E-06-2.31972E-03 1.84079E-05 1.77920E-05 1.50219E-05
 -1       152 2.99490E-04 7.93724E-05-2.29594E-03-1.37301E-05 6.47853E-05-6.72544E-06
 -1       153 3.09557E-04 9.58994E-06-2.28481E-03 2.79022E-06-2.64266E-05 1.54072E-05
 -1       154 2.61099E-04 2.91549E-05-2.26571E-03-3.11772E-05-1.84638E-05 1.83569E-05
 -1       155 2.48540E-04 1.81051E-05-2.26093E-03 2.09802E-06-9.53181E-06-2.93313E-05
 -1       156 1.97126E-04 1.65307E-04-2.09034E-03 1.56243E-06-1.05656E-04 6.14516E-05
 -1       157 2.15083E-04 7.37955E-05-2.18133E-03-5.45809E-05 9.61482E-05-9.37988E-05
 -1       158 1.57851E-04 3.73613E-05-2.15966E-03 4.62857E-05-3.82113E-05-2.01195E-05
 -1       159 1.10989E-04-5.65772E-07-2.18976E-03-3.22150E-05-1.06438E-05 2.30286E-05
 -1       160-1.97427E-04 5.74082E-04-2.42842E-03-5.17389E-06-2.90013E-04-1.09705E-04
 -1       161 2.05867E-04 9.94392E-05-2.00779E-03 4.85705E-05 1.09134E-04 1.35719E-04
 -1       162 6.74891E-05-1.84671E-05-2.15978E-03-1.08610E-04 8.99765E-05-1.34899E-04
 -1       163 7.41339E-05 8.54752E-04-2.45692E-03 2.45432E-05 1.59758E-04-3.01325E-04
 -1       164 1.06481E-04 7.15645E-05-2.15926E-03-5.89001E-05-3.19261E-05 1.18639E-04
 -1       165 2.49244E-04 9.61392E-05-2.15227E-03 2.37969E-05-7.62083E-05-3.79202E-05
 -1       166-4.13898E-04 5.10079E-04-2.65642E-03 6.40862E-06 3.77404E-04 9.96613E-05
 -1       167 1.96390E-04 6.13222E-05-2.16526E-03-6.14421E-05-7.09081E-05 8.66187E-05
 -1       168 1.61602E-04 6.64664E-05-2.14301E-03 3.57240E-05-4.81580E-05-1.35444E-04
 -1       169 2.55548E-04-1.24451E-05-2.25723E-03-3.33294E-05 2.07842E-06-3.06354E-05
 -1       170 2.38228E-04 2.26614E-05-2.24749E-03 3.09995E-05 1.02940E-05 1.55507E-05
 -1       171 1.42357E-04 6.17662E-04-2.56435E-03 6.51396E-05-2.02998E-04 4.51468E-04
 -1       172 1.51275E-04 7.45753E-04-2.63849E-03-3.54133E-05-3.06894E-04-5.05440E-04
 -1       173 4.79817E-05 5.28514E-04-2.72306E-03-8.05011E-05 2.79548E-04 4.75811E-04
 -1       174 1.61356E-04 6.47855E-04-2.54025E-03 5.83439E-05 2.35193E-04-4.60939E-04
 -1       175-1.57751E-03-1.00271E-03-3.50149E-03-6.48200E-05 1.11151E-03 5.97803E-04
 -1       176-1.59900E-03-1.31034E-03-4.16031E-03-3.97986E-05 8.78463E-04 8.91529E-04
 -1       177-4.42791E-05-5.44654E-05-2.59243E-03-1.42079E-05-1.43203E-05 1.44154E-04
 -1       178-1.46844E-03-1.13496E-03-4.04284E-03 3.19289E-05 8.67401E-04-8.99331E-04
 -1       179-7.60979E-04-2.97707E-05-2.66346E-03 4.28181E-05 1.08427E-03-5.67378E-04
 -1       180-9.48341E-05-7.90327E-05-2.60829E-03-2.05338E-06 5.96265E-06-1.57124E-04
 -1       181-1.51737E-03-1.19275E-03-4.08631E-03 3.55884E-05-8.65600E-04 9.11638E-04
 -1       182-7.28904E-05-5.75678E-05-2.58721E-03-9.27332E-07 9.26129E-06 1.60642E-04
 -1       183-7.73174E-04-6.97804E-05-2.69041E-03 5.07786E-05-1.08395E-03 5.60381E-04
 -1       184-1.59386E-03-1.29933E-03-4.14405E-03-3.47619E-06-8.95994E-04-8.86929E-04
 -1       185-1.43139E-03-8.14546E-04-3.32874E-03-6.02022E-05-1.11130E-03-6.10968E-04
 -1       186 5.27750E-04 5.50586E-04-2.04684E-03 5.68426E-05 3.65550E-05-1.15632E-04
 -1       187-1.53765E-03-8.28800E-04-3.29971E-03-4.34735E-05 1.03417E-03 3.51859E-04
 -1       188-1.42932E-03-7.47757E-04-3.24925E-03-7.27344E-06 1.01551E-03 4.55399E-04
 -1       189-1.64288E-04 5.75741E-04-2.67825E-03-3.22973E-05 2.16320E-04 3.39783E-04
 -1       190-2.55946E-03-1.90683E-03-4.20354E-03 8.21932E-06 1.18837E-03 4.49177E-05
 -1       191-1.64964E-03-8.57147E-04-3.24422E-03-5.20974E-07 1.13212E-03 2.31371E-04
 -1       192-3.58116E-04 4.02871E-04-2.60765E-03 1.87467E-05 2.70801E-04 2.30922E-04
 -1       193-1.82779E-03-1.12159E-03-3.53389E-03 1.39307E-05 1.03912E-03-1.87337E-04
 -1       194-1.71716E-03-9.93969E-04-3.47298E-03 2.79058E-05 1.08236E-03-8.71847E-05
 -1       195-1.86823E-04 6.61945E-04-2.35917E-03-1.64388E-05 2.80103E-04-2.11963E-05
 -1       196-1.80575E-03-1.07710E-03-3.64527E-03-3.30423E-05 1.05929E-03-5.01323E-04
 -1       197-1.58917E-03-8.75136E-04-3.36873E-03 1.22687E-06 1.01645E-03-2.98462E-04
 -1       198-1.46636E-04 6.40650E-04-2.49877E-03 3.19286E-05 1.75234E-04-1.70144E-04
 -1       199-2.60773E-04 5.14363E-04-2.81805E-03 4.65086E-05 1.65821E-04-3.83043E-04
 -1       200 2.21421E-05-6.51355E-05-2.10345E-03 1.55787E-05-3.52803E-05-6.85287E-05
 -1       201-1.97322E-05-2.85217E-05-2.19956E-03 7.07015E-05-6.79774E-05-5.41866E-05
 -1       202 4.88635E-04 4.81197E-04-1.77141E-03 7.92911E-05 2.20543E-05-2.84945E-04
 -1       203 8.38766E-06-4.77780E-05-2.10757E-03 7.96715E-06-8.75645E-06-1.64610E-05
 -1       204 5.43149E-05-1.93994E-05-2.04213E-03 1.91956E-05-2.83706E-05-6.81062E-06
 -1       205 2.73992E-04 1.73159E-04-1.95875E-03 5.85405E-05-6.30570E-05-5.71517E-05
 -1       206-4.01860E-05-1.19136E-04-2.16836E-03 8.80845E-07 2.18857E-05-8.38410E-06
 -1       207 6.35270E-05-6.14715E-06-2.03770E-03 1.41339E-05 1.95832E-05 1.56710E-05
 -1       208 2.14305E-04 1.02148E-04-2.04398E-03 3.82546E-05 4.16195E-06 6.51654E-06
 -1       209-6.48257E-05-8.79721E-05-2.22626E-03 4.19633E-05 6.30386E-05 5.69685E-05
 -1       210 6.63866E-05-1.66506E-05-2.02967E-03-6.31440E-06 4.36452E-05 6.97462E-05
 -1       211 2.36113E-04 1.34995E-04-1.97799E-03 4.09651E-05 7.21892E-05 6.94922E-05
 -1       212 4.01118E-04 3.96941E-04-1.83605E-03 5.70069E-05 2.22163E-05 2.75247E-04
 -1       213-1.50709E-03-7.72406E-04-3.33166E-03 3.13835E-06-1.03405E-03-4.77152E-04
 -1       214-1.74307E-03-1.09355E-03-3.53576E-03-3.43192E-05-1.05059E-03-3.21970E-04
 -1       215-1.92553E-04 5.61427E-04-2.73179E-03-2.37471E-05-2.26587E-04-3.93980E-04
 -1       216-1.47463E-03-6.77208E-04-3.12319E-03-8.15591E-06-1.04723E-03-1.93183E-04
 -1       217-1.57490E-03-8.84739E-04-3.22305E-03-2.37723E-05-1.08703E-03-7.05489E-05
 -1       218-9.81835E-05 7.09081E-04-2.35630E-03-1.88203E-05-2.20066E-04-1.93405E-04
 -1       219-1.42661E-03-7.39326E-04-3.07067E-03 1.66910E-05-1.08922E-03 3.74685E-05
 -1       220-1.72605E-03-1.06668E-03-3.38214E-03 1.52820E-05-1.08161E-03 1.88176E-04
 -1       221-2.56560E-04 5.38700E-04-2.51081E-03 1.49525E-05-2.87869E-04-2.78226E-06
 -1       222-1.52341E-03-8.43440E-04-3.32176E-03 3.21444E-06-1.00860E-03 2.89025E-04
 -1       223-1.75346E-03-1.05291E-03-3.60607E-03-3.13942E-05-1.05179E-03 4.95961E-04
 -1       224-1.43435E-04 6.21574E-04-2.50160E-03 2.83613E-05-1.69332E-04 1.63808E-04
 -1       225-2.73046E-04 4.79372E-04-2.85949E-03 5.09220E-05-1.37170E-04 3.62427E-04
 -1       226-2.88893E-05-2.41133E-05-2.22323E-03-5.75867E-05-3.79192E-05 4.34700E-05
 -1       227-7.73085E-06-7.20694E-05-2.13442E-03-2.41903E-06-2.69035E-05 7.28411E-05
 -1       228 3.46070E-04 3.81553E-04-1.92072E-03-6.36493E-05 4.00674E-05 2.88929E-04
 -1       229 5.23879E-05-2.24002E-05-2.04816E-03-9.94065E-06-2.94095E-05-7.33309E-06
 -1       230 9.37577E-06-5.07203E-05-2.10151E-03-5.98445E-06-1.22076E-05 7.79274E-06
 -1       231 2.86918E-04 1.68627E-04-1.94952E-03-4.61769E-05-2.87230E-05 6.47842E-05
 -1       232 7.71263E-05-2.30282E-06-2.01906E-03-2.22184E-05 2.13619E-05-2.28641E-05
 -1       233-2.87298E-05-1.06670E-04-2.15223E-03-7.12357E-06 3.04522E-05 1.37501E-05
 -1       234 2.28329E-04 1.45105E-04-2.02105E-03-4.60230E-05 2.75292E-05-4.02453E-06
 -1       235 9.33966E-05 2.86638E-06-2.00731E-03-3.03993E-05 3.26219E-05-8.90137E-05
 -1       236-6.08560E-04-6.72335E-04-2.82814E-03-9.02501E-05 7.52692E-05-2.23794E-05
 -1       237 3.33590E-04 2.30741E-04-1.90131E-03-7.43076E-05 5.49141E-05-8.22046E-05
 -1       238 5.54547E-04 6.16951E-04-1.71537E-03-8.26703E-05 1.01749E-05-3.07864E-04
 -1       239 1.19251E-04 1.14107E-05-2.11644E-03 6.85721E-05 9.10735E-05 1.23962E-04
 -1       240 2.09234E-04 1.02836E-04-2.14083E-03 4.21788E-05 3.84276E-05 6.79917E-05
 -1       241 2.78314E-04 9.91911E-05-2.13356E-03 2.58572E-05 3.38743E-05 4.73499E-05
 -1       242 1.09020E-04-3.61226E-05-2.25514E-03 1.92273E-05 2.38068E-05 2.53625E-05
 -1       243 2.29936E-04 5.33307E-05-2.16556E-03 2.48268E-05-2.54904E-05 3.74648E-06
 -1       244 1.20356E-04 1.64418E-05-2.10593E-03-9.78323E-05 8.27394E-05-1.21364E-04
 -1       245 2.73693E-04 1.41500E-04-2.08913E-03-5.50697E-05 6.04110E-05-5.97209E-05
 -1       246 1.03478E-04-4.90573E-05-2.25268E-03-2.70232E-05 2.83312E-05-2.10488E-05
 -1       247 3.20175E-04 9.14854E-05-2.12930E-03-4.25841E-05 4.63664E-05-7.59084E-05
 -1       248 1.63425E-04-2.23140E-05-2.25597E-03-2.92505E-05-5.43848E-06 3.24198E-06
 -1       249 1.52930E-04 1.80685E-04-1.98172E-03-8.49004E-06-1.19151E-05-4.85744E-05
 -1       250 2.88636E-04 1.75722E-04-2.06377E-03 1.04176E-05-9.52508E-05-1.02057E-06
 -1       251 1.18273E-05 1.36222E-04-2.03466E-03 1.14623E-05-4.44101E-05-7.27232E-06
 -1       252-1.63686E-04 3.60840E-06-2.20964E-03-3.82936E-06 8.22320E-05 9.79599E-05
 -1       253 2.82996E-04 3.34393E-04-1.76680E-03 6.27097E-05-4.44123E-05-2.21605E-04
 -1       254 1.98571E-04 2.64870E-04-1.90485E-03 3.02244E-06-5.97846E-06-1.39933E-04
 -1       255 1.08078E-04-4.27275E-05-2.19829E-03 3.72014E-05-5.57625E-05-9.62140E-05
 -1       256 1.67871E-04 2.18404E-04-1.98182E-03-7.45871E-06 2.92777E-06 1.22460E-04
 -1       257 2.83169E-04 3.03755E-04-1.79798E-03 5.62926E-05 9.67433E-05 1.93168E-04
 -1       258 1.23486E-04 2.42871E-04-2.02271E-03-1.02159E-06-1.01911E-06 4.76566E-05
 -1       259 2.72568E-04 7.76789E-05-2.05484E-03 1.69497E-05 7.22140E-05 6.29501E-05
 -1       260 1.30256E-04 3.06687E-04-1.98980E-03 3.55093E-05-2.48054E-05-3.13615E-05
 -1       261 2.18717E-04 3.32619E-04-1.90579E-03-2.35845E-05-5.60897E-05 1.72047E-04
 -1       262 2.23520E-04 1.58470E-04-2.05684E-03-2.94710E-05-8.54539E-05 8.23498E-05
 -1       263 2.43307E-04 2.54104E-04-1.93475E-03-4.42471E-05-5.46177E-05 1.83629E-04
 -1       264 1.06941E-04 3.01435E-05-2.19627E-03-6.19705E-05-5.62769E-05 9.43764E-05
 -1       265 2.85561E-04 3.50305E-04-1.85837E-03-2.16118E-05-6.80305E-05 2.14824E-04
 -1       266 1.33513E-05 1.30698E-04-2.08284E-03-2.29327E-05-1.86511E-06-1.08132E-04
 -1       267 2.58851E-04 2.06232E-04-1.89771E-03-5.55648E-05 6.54950E-05-1.87881E-04
 -1       268 2.01728E-04 2.30314E-04-1.89183E-03-2.42874E-05 9.44633E-05-2.16754E-04
 -1       269 2.02945E-04 9.03335E-05-2.13472E-03 4.63163E-05-4.16245E-05-8.70543E-05
 -1       270 6.85599E-05-6.28081E-06-2.16871E-03 6.27095E-05-7.48102E-05-1.33914E-04
 -1       271 3.52945E-04 3.68515E-04-1.74274E-03 5.15269E-05-8.23222E-05-2.42656E-04
 -1       272 4.15849E-04 4.33982E-04-1.69331E-03 4.94606E-05 1.38803E-04 2.48418E-04
 -1       273 3.92806E-04 1.18135E-04-2.08412E-03 3.29497E-05 5.79734E-05 3.14858E-05
 -1       274 3.08934E-04 5.79980E-05-2.17270E-03 9.15154E-06 2.41375E-05 3.92179E-05
 -1       275 2.88732E-04 7.22465E-06-2.27094E-03 3.17890E-05 9.53919E-06 9.71094E-06
 -1       276 3.50093E-04 2.05460E-04-2.09777E-03-5.68239E-06 7.41565E-05 9.29678E-06
 -1       277 2.62244E-04 1.90731E-05-2.30438E-03 2.33993E-05 4.70729E-05 2.55378E-05
 -1       278 1.43118E-04 1.09646E-04-2.16230E-03-1.30336E-05 9.42722E-05-5.83518E-05
 -1       279 3.20906E-04 1.69425E-04-2.19057E-03-3.44297E-05 7.29502E-05-5.36233E-05
 -1       280 3.76119E-04 8.96409E-05-2.20964E-03 8.32704E-06 1.76523E-05 2.43940E-05
 -1       281 3.36263E-04 4.68148E-05-2.27227E-03 9.42242E-06-1.29650E-06 1.45875E-05
 -1       282 2.99980E-04 9.41036E-06-2.27259E-03 1.39839E-05-1.57048E-05-8.51008E-06
 -1       283 3.50360E-04 4.17764E-05-2.22903E-03 8.53287E-06 1.89098E-06 3.33077E-06
 -1       284 2.50731E-04 3.66668E-05-2.23954E-03 1.41018E-05-9.39311E-07-5.30504E-06
 -1       285 3.13007E-04 2.25791E-05-2.23019E-03-1.95916E-05 1.14519E-05-7.48574E-06
 -1       286 2.26070E-04-4.55278E-05-2.31418E-03-1.33758E-05-1.83979E-05 1.52894E-05
 -1       287 3.02804E-04 3.58011E-05-2.23458E-03-4.04862E-05 3.21767E-05-4.13578E-05
 -1       288 2.76325E-04 2.51518E-05-2.25685E-03-3.43215E-05-1.01019E-05-4.95339E-06
 -1       289 3.29655E-04 1.30446E-04-2.02749E-03-1.17485E-05-6.52966E-05 4.30022E-05
 -1       290 3.87242E-04 1.41475E-04-2.00443E-03-3.79713E-06-6.95016E-05 2.19960E-05
 -1       291 4.44735E-04 1.71334E-04-2.01970E-03 1.04607E-05-5.66795E-05-7.03554E-06
 -1       292 3.60423E-04 1.08088E-04-2.09000E-03 3.35284E-05-4.46123E-05-5.28002E-05
 -1       293 4.25475E-04 2.15265E-04-1.98751E-03-4.66338E-05-5.23477E-05 6.02083E-05
 -1       294 3.04667E-04 1.26618E-04-2.03707E-03-4.64725E-05-4.67167E-05 6.61686E-05
 -1       295 2.53271E-04 4.50075E-05-2.17226E-03-3.47398E-05-1.11832E-05 2.01008E-05
 -1       296 2.26721E-04 1.66111E-05-2.17236E-03 4.71792E-06-3.01941E-05-7.25914E-05
 -1       297 1.59769E-04-1.85308E-05-2.23404E-03 1.25702E-05-3.47167E-05-1.96092E-05
 -1       298 4.51768E-05 1.36887E-04-2.13926E-03-5.49937E-05-9.09973E-06 1.31082E-05
 -1       299-5.82352E-06 1.02296E-04-2.15978E-03 2.42449E-05 1.35659E-05 3.71724E-06
 -1       300 7.78748E-04-2.37521E-05-2.30286E-03-6.26797E-07 1.25724E-04 2.35989E-04
 -1       301 6.43195E-04-7.85491E-05-2.33502E-03 5.71242E-08-1.06858E-04-1.96315E-04
 -1       302 6.00034E-04-1.38333E-04-2.56995E-03-5.08258E-06-3.20175E-04 2.53813E-04
 -1       303 5.99774E-05 6.70570E-05-2.21441E-03-8.05343E-05 1.21373E-04-7.89070E-05
 -1       304 7.33448E-04 3.09241E-06-2.61716E-03 1.94389E-05 2.93798E-04-2.77259E-04
 -1       305 6.27610E-05 1.76238E-04-2.11312E-03-7.48029E-05-1.24387E-04 7.46716E-05
 -1       306 4.31247E-05 2.30772E-04-2.10028E-03-2.88666E-05-1.00843E-04 8.35400E-05
 -1       307 1.05054E-05 2.37606E-04-2.29536E-03-1.40435E-05-6.13410E-06-1.40465E-06
 -1       308 5.47141E-05 3.18419E-04-2.25722E-03-1.74816E-05-2.60864E-05 2.87098E-05
 -1       309 7.39134E-06 2.98552E-04-2.29705E-03-1.31531E-05 1.39023E-05-4.24208E-05
 -1       310 1.30775E-06 3.35424E-04-2.30635E-03 1.35554E-05 4.35727E-06-1.68862E-05
 -1       311 8.99580E-05 2.27574E-04-2.20852E-03-4.15705E-06 3.56535E-05 6.24733E-05
 -1       312 2.85129E-05 2.92086E-04-2.18363E-03 6.09751E-06-6.68482E-05-5.26321E-05
 -1       313 2.97627E-05 2.41194E-04-2.25260E-03 2.75874E-05-1.92600E-05-1.08122E-05
 -1       314-9.37266E-06 9.63240E-05-2.17635E-03-5.68596E-05 2.32479E-05-4.80955E-05
 -1       315 7.81182E-04 1.54083E-04-2.24238E-03 2.99381E-05-8.91308E-05 1.10211E-04
 -1       316 6.36766E-04-3.81197E-06-2.30242E-03-2.54511E-06 1.04967E-04-2.19560E-04
 -1       317 1.34366E-04 2.14951E-04-2.20018E-03-3.52136E-05 8.67048E-05-1.07508E-04
 -1       318 8.66414E-04 9.41510E-05-2.45113E-03-1.48145E-05-3.07818E-04-1.48145E-04
 -1       319 8.55017E-04 1.13347E-04-2.43080E-03-4.85990E-06 3.03647E-04 1.28888E-04
 -1       320 2.26410E-05 5.93739E-05-2.23885E-03 9.43886E-05 1.18659E-04 7.36255E-05
 -1       321-2.30831E-05 6.14798E-05-2.15466E-03 1.02713E-04-1.25778E-04-9.87495E-05
 -1       322 4.58501E-05 1.42341E-04-2.14365E-03 3.41695E-05-4.22933E-06-4.57287E-05
 -1       323 4.90820E-05 2.58071E-04-2.22880E-03 2.80292E-05 4.30364E-05 1.68583E-05
 -1       324 1.05276E-04 1.85930E-04-2.15598E-03 5.56795E-05-1.22151E-04-8.21334E-05
 -1       325 5.80574E-05 1.55543E-04-2.17718E-03 4.17882E-05 1.08711E-04 7.00641E-05
 -1       326 6.17708E-05 1.73224E-04-2.16018E-03 1.05003E-05-4.34267E-05 6.91496E-05
 -1       327 8.15904E-05 1.21178E-04-2.17904E-03-8.54739E-06 4.74622E-05-5.58646E-05
 -1       328 5.97677E-04 1.69182E-04-2.54179E-03-6.91575E-05-4.63164E-04-2.27828E-04
 -1       329 8.38544E-04 3.04448E-04-2.41717E-03 8.92467E-06 4.77562E-04-2.37269E-04
 -1       330 8.28147E-04 3.03989E-04-2.40517E-03-9.21394E-06 4.70783E-04 2.49755E-04
 -1       331 8.49802E-04 3.23312E-04-2.41584E-03-8.46252E-06-4.99138E-04 2.54294E-04
 -1       332 4.86705E-04 4.62113E-04-2.10439E-03 7.56726E-05 1.15403E-04-3.85938E-05
 -1       333-1.25423E-03-1.55572E-03-4.08141E-03 1.76687E-06 9.05032E-04 8.90073E-04
 -1       334 6.34725E-05-6.28672E-04-2.50554E-03-3.75829E-05 5.74025E-04 1.09492E-03
 -1       335-1.21819E-03-1.51623E-03-4.09350E-03-3.52747E-05-9.04180E-04-8.76818E-04
 -1       336-8.84800E-05-6.63509E-05-2.58765E-03-4.37086E-06-1.62494E-04-8.68032E-06
 -1       337-3.57215E-05-7.36130E-04-2.63726E-03-4.39352E-05-5.66976E-04-1.09212E-03
 -1       338 3.16252E-05-6.83051E-04-2.57515E-03 2.69081E-05-5.72629E-04 1.08757E-03
 -1       339-1.22424E-03-1.53121E-03-4.08385E-03-1.40328E-05-9.17848E-04 8.84591E-04
 -1       340 4.74682E-04 4.45993E-04-2.10750E-03-8.07588E-05-1.34230E-04-3.01319E-05
 -1       341-1.22657E-03-1.54087E-03-4.07488E-03-2.69611E-06 9.14089E-04-8.82623E-04
 -1       342 1.30943E-04-5.65188E-04-2.46463E-03 4.17806E-05 5.68960E-04-1.08486E-03
 -1       343 5.21124E-04 4.77549E-04-2.07633E-03-8.11575E-05 1.27940E-04 4.75403E-05
 -1       344 2.52089E-05 6.90596E-05-2.02705E-03-2.71467E-05 6.88243E-05-2.67759E-05
 -1       345-6.77955E-04-6.65192E-04-2.88840E-03-8.60114E-05 2.87102E-05-7.70437E-05
 -1       346 8.00410E-04 7.08990E-04-1.54016E-03-3.76641E-05 2.97059E-04 3.44651E-06
 -1       347 9.91193E-06 7.65950E-05-2.01705E-03-2.37900E-05 2.44329E-05-1.20783E-05
 -1       348-1.17010E-04-3.65047E-05-2.14541E-03-9.06852E-06 1.49916E-06-2.26579E-05
 -1       349 3.06666E-04 3.81206E-04-1.85215E-03-7.33665E-05 7.63392E-05-6.64219E-05
 -1       350 2.53353E-06 6.62687E-05-2.01183E-03-2.59254E-05 6.74457E-06 1.90108E-05
 -1       351-5.44064E-05 2.91153E-06-2.08830E-03-1.73972E-05-1.30845E-05 1.13081E-06
 -1       352 1.73299E-04 2.67423E-04-1.95486E-03-4.76837E-05 1.39841E-05-9.56172E-06
 -1       353-7.86653E-05-5.46261E-05-2.25343E-03-7.15568E-05-4.90866E-05 5.89204E-05
 -1       354-9.30582E-05 7.35567E-06-2.12601E-03-1.35837E-05-6.14908E-05 3.16286E-05
 -1       355 2.18801E-04 3.06668E-04-1.89952E-03-6.82475E-05-4.94041E-05 4.98702E-05
 -1       356 4.98528E-04 5.37855E-04-1.73847E-03-8.06042E-05-2.81795E-04-1.19034E-05
 -1       357-1.59068E-03-2.21838E-03-3.92599E-03 7.69584E-07-3.41569E-04 1.04248E-03
 -1       358-9.95493E-04-1.71567E-03-3.45334E-03-7.84619E-05-4.80027E-04 1.06914E-03
 -1       359 4.88734E-04-2.54088E-04-2.83089E-03-4.77522E-06-3.72535E-04 2.18795E-04
 -1       360-9.06719E-04-1.57157E-03-3.33788E-03 4.81722E-05-6.04140E-05 9.77063E-04
 -1       361-8.48959E-04-1.53786E-03-3.34197E-03 1.96744E-05-1.66021E-04 9.53322E-04
 -1       362 6.76178E-04-3.18993E-05-2.34680E-03 3.59948E-05-2.12554E-04 1.61117E-04
 -1       363-8.59661E-04-1.55424E-03-3.19992E-03 9.76117E-06 2.02529E-04 1.06442E-03
 -1       364-7.02938E-04-1.39300E-03-3.03879E-03 8.87609E-06 7.27019E-05 1.04120E-03
 -1       365 7.53388E-04-1.24724E-05-2.34356E-03 1.52675E-05 3.75621E-05 1.54663E-04
 -1       366-1.00601E-03-1.71732E-03-3.56263E-03 3.45077E-05 5.08135E-04 1.06005E-03
 -1       367-7.63350E-04-1.45315E-03-3.23442E-03 2.92790E-06 2.89733E-04 1.00612E-03
 -1       368 6.29198E-04-1.44277E-04-2.47672E-03-2.07895E-05 1.59964E-04 1.67739E-04
 -1       369 4.86195E-04-2.57577E-04-2.80347E-03-3.66464E-05 4.00359E-04 1.72592E-04
 -1       370-9.82035E-04-1.69437E-03-3.49200E-03-3.99065E-05 4.80505E-04-1.08454E-03
 -1       371-1.37775E-03-1.96576E-03-3.76462E-03 2.20109E-05 3.06928E-04-1.07456E-03
 -1       372 5.02076E-04-1.97877E-04-2.81230E-03 6.01540E-05 3.74676E-04-2.04261E-04
 -1       373-5.41261E-04-1.24646E-03-2.94099E-03-6.45202E-06 1.58696E-04-1.02506E-03
 -1       374-3.97267E-04-1.04933E-03-2.71002E-03 1.45477E-05 7.64621E-05-1.01906E-03
 -1       375 8.05273E-04 2.70678E-05-2.24174E-03 2.34031E-05 1.68546E-04-2.15006E-04
 -1       376-6.84306E-04-1.41780E-03-3.07262E-03 1.86081E-06-5.23445E-05-1.01941E-03
 -1       377-9.25662E-04-1.63749E-03-3.33662E-03 1.21028E-05-2.01265E-04-1.05419E-03
 -1       378 7.55471E-04 1.16776E-05-2.33568E-03-1.30839E-05 4.36826E-05-1.89741E-04
 -1       379-7.93243E-04-1.51051E-03-3.29755E-03 1.42420E-07-2.98417E-04-1.00460E-03
 -1       380-1.03663E-03-1.76578E-03-3.61266E-03 3.66791E-05-5.01951E-04-1.05883E-03
 -1       381 6.05669E-04-1.75483E-04-2.53737E-03-2.86347E-05-1.77250E-04-1.68736E-04
 -1       382 4.46308E-04-3.10973E-04-2.85391E-03-4.51295E-05-3.93389E-04-1.57495E-04
 -1       383-6.70438E-04-6.24821E-04-2.82248E-03 9.03055E-05-2.28550E-05-7.19849E-05
 -1       384-1.77044E-05 5.58770E-05-2.02844E-03 2.94707E-05-8.72560E-05-2.40991E-05
 -1       385 6.73616E-04 6.12041E-04-1.61823E-03 6.07267E-05-2.96743E-04-9.33150E-06
 -1       386-1.21429E-04-3.93008E-05-2.14579E-03 1.40674E-06 1.35499E-05-3.17900E-05
 -1       387-6.75586E-06 6.52958E-05-2.02188E-03 1.59542E-05-1.17667E-05-1.77328E-05
 -1       388 2.58558E-04 3.65793E-04-1.86171E-03 5.99359E-05-7.02426E-05-6.44982E-05
 -1       389-5.67603E-05 6.28303E-06-2.07375E-03-3.64084E-07 5.16819E-06 7.32945E-06
 -1       390-1.32220E-05 4.70756E-05-2.02721E-03 4.51007E-06-7.96498E-06 2.06339E-05
 -1       391 1.27391E-04 2.22609E-04-2.00371E-03 3.05168E-05 1.80539E-06-3.19835E-05
 -1       392-5.73942E-05 1.47146E-05-2.12149E-03 3.23025E-05 7.75317E-05 2.03013E-05
 -1       393-6.57307E-04-6.35083E-04-2.88883E-03 9.69019E-05 3.60714E-05 6.98276E-05
 -1       394 1.83352E-04 3.05637E-04-1.90173E-03 5.03061E-05 6.24596E-05 2.61505E-05
 -1       395 7.00120E-04 5.90372E-04-1.65487E-03 4.32198E-05 2.93322E-04 1.23003E-05
 -1       396-3.65558E-05 5.97712E-05-2.19364E-03-5.54704E-05-1.33536E-04 9.22672E-05
 -1       397-5.20198E-06 1.34683E-04-2.18809E-03-3.99102E-05-6.49938E-05 4.98153E-05
 -1       398 9.29313E-05 3.43447E-04-2.10455E-03-1.81392E-05-4.07969E-05 4.59808E-05
 -1       399 1.37028E-05 1.69491E-04-2.23006E-03-2.21976E-05-8.50808E-06 1.17525E-05
 -1       400-2.61359E-05 1.29491E-04-2.24925E-03-3.13925E-05 6.46144E-06-2.35701E-05
 -1       401-4.74819E-05 9.88526E-05-2.26591E-03 1.90709E-05-1.28633E-05-3.08817E-05
 -1       402-1.16487E-05 1.50643E-04-2.24507E-03 2.82726E-05-1.44926E-06 8.88720E-07
 -1       403 8.20232E-05 2.94720E-04-2.21031E-03 2.41336E-05 1.26280E-05 3.64279E-06
 -1       404-2.09603E-05 1.59865E-04-2.24368E-03 2.63303E-05 2.26610E-05 3.15187E-06
 -1       405 9.47363E-05 2.54953E-04-2.04403E-03 2.27070E-05 7.16653E-05 4.51778E-05
 -1       406-7.69059E-05-1.85199E-05-2.30566E-03 5.44979E-05 1.02775E-04 7.38627E-05
 -1       407 1.08860E-04 3.20292E-04-2.07017E-03 2.75123E-05 8.36829E-05 4.13650E-05
 -1       408 2.51026E-04 1.16536E-04-1.97867E-03-1.43903E-05 1.01662E-04-2.46220E-05
 -1       409 3.40684E-04 2.77556E-04-1.81897E-03-1.10776E-05-1.19529E-05-3.63023E-05
 -1       410 2.10407E-04 1.99181E-04-1.93456E-03-3.99499E-05 1.92897E-04-1.02646E-04
 -1       411 4.77341E-04 3.34745E-04-1.81763E-03-1.22171E-05 1.11033E-04-4.45267E-05
 -1       412 1.27969E-04 2.10579E-04-2.18174E-03-2.53020E-05 5.51931E-05-9.34212E-05
 -1       413 2.75441E-04 2.69667E-04-1.81505E-03-5.33857E-05-2.12951E-04 8.51503E-05
 -1       414 1.85725E-04 1.56384E-04-1.97135E-03-5.16236E-06-1.30482E-04 3.40593E-05
 -1       415 1.75932E-04 8.53593E-05-2.00977E-03 1.24821E-05-6.38070E-05 2.31013E-05
 -1       416 3.03700E-05 2.19190E-04-2.07163E-03-1.90056E-05-5.98947E-05 7.04933E-05
 -1       417 3.54286E-04 3.11915E-04-1.86355E-03 1.27059E-05 4.03064E-05 5.52933E-05
 -1       418 2.26237E-04 2.91571E-04-1.78950E-03 4.96441E-06-1.19626E-04-3.71940E-05
 -1       419 2.14779E-04 1.53563E-04-1.97556E-03 7.80289E-05-2.53090E-04 5.28917E-06
 -1       420-7.50446E-05-2.83611E-05-2.26648E-03 9.11454E-05-1.23649E-04-1.12757E-04
 -1       421 2.19983E-04 1.94845E-04-1.92761E-03 2.61577E-05-2.08392E-04-4.20322E-05
 -1       422 2.13544E-04 3.21557E-04-1.98948E-03-4.87704E-05 6.70542E-05-8.71578E-05
 -1       423-7.54004E-05-5.05327E-05-2.39770E-03-4.78403E-05 1.12430E-04-6.13698E-05
 -1       424 4.81536E-04 4.66365E-04-1.65238E-03-5.76775E-06 2.51073E-04-1.11565E-04
 -1       425 3.33498E-04 3.42315E-04-1.81443E-03 5.18434E-05 2.17110E-04 4.58405E-05
 -1       426 1.45926E-04 2.13587E-05-2.13019E-03 4.72124E-05 9.60374E-05 1.89278E-05
 -1       427 3.79493E-04 3.59506E-04-1.82467E-03 2.06118E-05 2.33738E-04 8.49996E-05
 -1       428 3.84351E-04 3.64919E-04-1.73983E-03-5.05333E-05-2.56558E-04 9.73182E-05
 -1       429 1.01190E-04 3.50832E-04-2.10807E-03-2.69165E-05-4.73768E-05 4.89668E-05
 -1       430 4.81923E-05 2.99885E-04-2.26946E-03-2.18813E-05-1.43044E-05 1.06756E-05
 -1       431 1.41620E-04 3.56535E-04-2.06784E-03-1.46066E-05-4.51143E-05 4.88957E-05
 -1       432 1.03475E-04 3.86174E-04-2.19804E-03-1.68070E-05 6.75010E-06-6.69861E-06
 -1       433 1.05174E-05 3.11251E-04-2.25630E-03-2.21916E-05-2.75454E-06-1.53747E-05
 -1       434 6.43948E-05 3.37920E-04-2.13786E-03-2.77775E-05 4.46752E-05-8.61957E-05
 -1       435 1.21750E-04 3.40266E-04-2.07864E-03-1.37020E-05 3.41822E-05-6.49808E-05
 -1       436 3.25591E-05 3.64124E-04-2.23193E-03 9.96102E-06-1.74398E-05 1.45875E-05
 -1       437-3.45885E-06 2.96897E-04-2.31906E-03 9.64175E-06 7.06490E-06-2.84893E-05
 -1       438 9.51565E-05 3.92803E-04-2.10288E-03-1.22566E-05-1.67201E-06 5.85488E-05
 -1       439 1.04243E-04 3.95430E-04-2.12636E-03-9.14025E-06 1.04769E-05 3.96830E-05
 -1       440 1.32806E-04 2.83082E-04-2.13877E-03 7.51973E-06 3.19404E-06 8.14891E-05
 -1       441 1.82916E-05 3.11373E-04-2.26547E-03 2.52365E-06-2.83555E-05-3.51123E-05
 -1       442 9.92469E-05 3.56963E-04-2.16846E-03 2.37975E-06-3.01146E-05-4.35580E-05
 -1       443 6.68229E-05 2.07002E-04-2.11102E-03 1.03645E-05-2.11346E-05-5.68941E-05
 -1       444 1.04384E-04 2.91747E-04-2.12275E-03-6.94520E-07 3.20610E-05-6.49042E-05
 -1       445 1.48959E-04 3.53218E-04-2.07454E-03 6.85061E-06 4.38719E-05 3.49812E-05
 -1       446 1.52280E-05 3.15591E-04-2.25668E-03 1.86367E-05 1.57759E-05 1.09083E-05
 -1       447-2.45767E-05 2.49690E-04-2.32578E-03 2.03069E-05-3.11011E-06-1.33573E-05
 -1       448 3.52799E-06 2.74449E-04-2.23269E-03 2.64650E-05-3.04379E-05-2.98481E-05
 -1       449 4.82479E-05 1.24762E-04-2.22920E-03 1.94622E-05 8.69492E-05 5.60406E-05
 -1       450 1.44487E-04 7.40392E-05-2.15838E-03-2.18030E-05 6.04403E-05 3.97799E-05
 -1       451 1.13167E-04 2.64665E-04-2.12157E-03 3.32461E-05-5.98376E-05-3.68760E-05
 -1       452 1.25284E-04 3.21260E-04-2.06461E-03 2.37508E-05-8.31173E-05-5.99758E-05
 -1       453 1.31795E-04 2.96909E-04-1.88163E-03-4.01489E-06-9.04694E-05-3.75722E-05
 -1       454 1.59530E-04 2.63199E-04-2.08324E-03 4.38885E-05-7.01234E-05-5.11418E-05
 -1       455 8.29547E-05-2.22017E-05-2.18430E-03 4.84337E-05-2.37507E-05-1.22934E-05
 -1       456 1.31322E-04 4.31576E-05-2.14149E-03-4.92467E-05-3.08641E-05-2.60023E-06
 -1       457-1.70697E-04 6.30023E-04-2.35964E-03 1.33527E-05-3.00949E-04 1.12928E-04
 -1       458-1.28232E-04 6.68809E-04-2.48535E-03 4.92539E-06 3.01583E-04-1.15896E-04
 -1       459 4.83924E-05 8.56921E-04-2.43376E-03-2.25429E-05-1.55843E-04-2.88775E-04
 -1       460 1.48206E-04 6.53475E-05-2.09214E-03 8.21214E-05 4.61663E-05 1.33824E-04
 -1       461-2.73827E-05 7.14114E-04-2.62202E-03-1.82263E-05 2.73222E-04 2.94256E-04
 -1       462 1.48979E-04 1.27945E-04-2.10468E-03 5.01380E-05-3.65368E-05-1.35794E-04
 -1       463 2.01097E-04 1.10701E-04-2.21651E-03 2.76270E-05-7.43150E-05-9.65969E-05
 -1       464 2.20609E-04-8.58531E-07-2.29141E-03 4.59273E-05-1.52540E-05 5.47675E-06
 -1       465 3.16190E-04-2.80617E-05-2.25614E-03 2.53267E-05-3.73965E-05 2.26082E-06
 -1       466 2.91402E-04 8.90104E-05-2.30282E-03 1.17500E-05 6.28474E-05 1.16582E-05
 -1       467 3.16517E-04 2.67727E-05-2.30691E-03-2.33091E-05 2.05279E-05-1.88145E-05
 -1       468 2.60592E-04 6.94002E-05-2.16156E-03-1.41977E-05-9.57908E-05 4.23389E-05
 -1       469 3.09071E-04 8.81221E-05-2.17926E-03-1.53631E-05 1.10857E-04-4.15616E-05
 -1       470 2.61458E-04 9.00344E-05-2.24625E-03-5.36028E-05 6.25325E-05-2.22016E-05
 -1       471 1.47104E-04 5.04457E-05-2.12879E-03 7.37543E-05 2.35862E-05 1.14006E-05
 -1       472 1.24504E-04 7.54409E-04-2.28067E-03-7.33948E-06-1.75743E-04-9.10570E-05
 -1       473-1.96121E-05 5.38622E-04-2.20232E-03-6.65904E-06 1.18296E-04 8.89769E-05
 -1       474 2.23115E-04 8.09447E-05-2.21040E-03 6.14410E-05 8.65895E-05 8.43984E-05
 -1       475 2.00864E-04 9.08898E-04-2.19792E-03-6.60742E-06 9.16214E-05-3.03713E-04
 -1       476 7.34215E-05 8.07303E-04-2.44353E-03 1.04408E-05-2.21867E-04 2.81072E-04
 -1       477 6.06702E-05-1.22458E-05-2.21505E-03-1.06249E-04-8.93638E-05 1.22420E-04
 -1       478 7.46319E-05-1.79104E-05-2.15200E-03-1.20132E-04 9.86299E-05-1.33789E-04
 -1       479 1.42963E-04 6.44597E-05-2.13506E-03-5.04737E-05 4.92170E-05 1.27901E-06
 -1       480 2.68459E-04 1.04411E-05-2.19326E-03-1.70495E-05-1.02422E-05 2.37994E-05
 -1       481 2.13285E-04 1.50564E-04-2.16709E-03-4.71623E-05 9.33402E-05-1.31881E-04
 -1       482 1.62149E-04 2.81345E-05-2.16798E-03-4.34872E-05-4.51945E-05 1.32085E-04
 -1       483 1.32324E-04 2.23421E-05-2.19098E-03 4.72268E-06-3.46771E-05-2.15413E-05
 -1       484 1.05997E-04 8.93328E-05-2.18113E-03-1.68616E-05 5.88658E-05 3.66337E-05
 -1       485 6.20826E-05 5.47349E-04-2.72411E-03 5.94945E-05 2.61570E-04-4.99602E-04
 -1       486 3.04873E-04 8.40057E-04-2.41908E-03-1.30934E-05 2.38208E-04 4.85928E-04
 -1       487 5.64042E-05 5.66877E-04-2.73303E-03 8.48874E-05-2.80393E-04 4.87759E-04
 -1       488 3.33492E-04 8.73241E-04-2.39311E-03-9.39149E-06-2.62580E-04-4.85429E-04
 -1       489-5.60783E-05-7.68707E-05-2.61048E-03 1.60857E-05 7.01900E-06 1.48579E-04
 -1       490-1.55435E-03-1.25651E-03-4.13884E-03 4.28718E-05-8.74174E-04 8.85069E-04
 -1       491-1.56613E-03-9.32685E-04-3.49531E-03 7.74600E-05-1.10971E-03 6.03907E-04
 -1       492-1.60598E-03-1.31613E-03-4.17730E-03 3.71661E-05 8.68230E-04-9.04057E-04
 -1       493-7.51030E-05-6.68793E-05-2.61144E-03 6.45548E-06-1.99573E-05-1.42315E-04
 -1       494-1.48251E-03-8.74113E-04-3.42598E-03 7.10477E-05 1.11667E-03-6.13615E-04
 -1       495-6.73824E-04 4.85039E-05-2.56949E-03-3.95135E-05-1.09293E-03-5.71184E-04
 -1       496-1.53128E-03-1.21257E-03-4.07920E-03 4.74109E-06-8.87017E-04-9.05857E-04
 -1       497 4.85115E-04 4.98298E-04-2.07684E-03 7.22922E-05 2.76152E-05-1.27007E-04
 -1       498-1.53703E-03-1.22830E-03-4.07031E-03-3.60841E-07 8.82962E-04 9.18160E-04
 -1       499-5.76459E-04 1.16223E-04-2.47693E-03-4.34635E-05 1.08296E-03 5.73004E-04
 -1       500 4.54302E-04 5.00901E-04-2.08705E-03 7.40535E-05-5.13194E-05 1.28677E-04
 -1       501 1.91447E-05-6.57691E-05-2.09207E-03 1.41174E-05 3.19478E-05 6.30955E-05
 -1       502-1.69398E-05-3.26302E-05-2.19352E-03 6.78347E-05 6.07182E-05 4.76642E-05
 -1       503 4.05598E-04 3.91353E-04-1.85999E-03 8.32474E-05-3.40325E-05 3.06080E-04
 -1       504 3.69209E-05-3.39047E-05-2.06959E-03 2.50159E-05 8.76134E-06 2.09991E-05
 -1       505 9.32776E-05 1.05266E-05-1.98557E-03 2.95942E-05 2.12213E-05-1.04159E-05
 -1       506 2.77237E-04 1.84724E-04-1.92730E-03 8.04563E-05 3.25884E-05 5.45154E-05
 -1       507-2.99403E-05-1.00931E-04-2.13385E-03 1.03546E-05-2.31237E-05 1.00156E-05
 -1       508 5.78519E-05-3.21166E-06-2.03004E-03 2.38301E-05-5.10867E-06-4.39048E-06
 -1       509 2.32898E-04 1.35058E-04-2.01182E-03 5.73530E-05 8.63925E-06 4.21579E-06
 -1       510-9.98498E-05-9.64050E-05-2.28430E-03 4.36784E-05-4.64786E-05-5.46413E-05
 -1       511 4.77218E-05-1.47310E-05-2.04734E-03-7.29040E-07-3.57779E-05-6.00981E-05
 -1       512 2.73753E-04 2.01042E-04-1.92461E-03 4.47359E-05-4.14242E-05-7.61471E-05
 -1       513 4.51755E-04 4.70181E-04-1.81121E-03 4.30778E-05 3.51308E-05-2.96714E-04
 -1       514-1.41547E-03-7.14470E-04-3.14523E-03 9.36051E-06-9.82332E-04-2.90367E-04
 -1       515-1.78839E-03-1.04981E-03-3.59635E-03 2.82010E-05-1.05388E-03-5.00898E-04
 -1       516-2.12972E-04 5.77892E-04-2.75812E-03-4.10702E-05-1.91559E-04-3.88948E-04
 -1       517-1.26821E-03-7.25001E-04-3.00307E-03-2.96233E-06-9.98095E-04-5.26747E-05
 -1       518-1.33733E-03-6.91066E-04-3.06094E-03 2.84646E-06-1.00397E-03-1.73392E-04
 -1       519-7.61678E-05 6.61321E-04-2.38985E-03-5.22812E-05-1.58592E-04-1.31966E-04
 -1       520-1.46575E-03-6.59477E-04-3.09958E-03-7.92366E-06-1.04505E-03 1.92655E-04
 -1       521-1.62069E-03-9.60549E-04-3.24023E-03-1.34914E-06-1.06699E-03 6.93179E-05
 -1       522-2.63125E-05 6.81032E-04-2.39606E-03 1.06292E-05-2.67399E-04-1.09361E-05
 -1       523-1.52489E-03-7.80334E-04-3.34900E-03-3.50217E-06-1.04817E-03 4.72918E-04
 -1       524-1.75151E-03-1.10529E-03-3.54026E-03 2.90346E-05-1.05987E-03 3.12167E-04
 -1       525-7.77748E-05 7.40781E-04-2.30821E-03 1.34672E-05-2.31477E-04 1.89307E-04
 -1       526-1.62402E-04 6.04696E-04-2.67528E-03 3.27452E-05-2.24308E-04 3.77193E-04
 -1       527-1.62400E-03-9.01845E-04-3.40829E-03 3.16265E-05 1.07578E-03 4.79245E-04
 -1       528-1.92597E-03-1.32062E-03-3.70253E-03-3.99063E-05 1.08587E-03 3.15181E-04
 -1       529-2.05779E-04 5.04440E-04-2.82151E-03-5.13537E-05 2.07930E-04 3.67492E-04
 -1       530-1.15030E-03-4.37999E-04-2.88002E-03-8.52240E-06 9.81004E-04 1.80565E-04
 -1       531-1.13269E-03-4.45908E-04-2.83702E-03 8.92849E-06 9.82695E-04 6.83674E-05
 -1       532-1.55027E-04 5.92064E-04-2.44825E-03 7.43212E-06 1.76054E-04 1.87525E-04
 -1       533-1.83858E-03-1.19953E-03-3.50396E-03 2.77565E-05 1.09260E-03-6.87149E-05
 -1       534-1.76780E-03-1.02616E-03-3.41217E-03-2.07326E-05 1.07360E-03-1.87582E-04
 -1       535-8.51350E-05 6.09182E-04-2.39384E-03-3.01571E-05 1.99705E-04 6.91399E-07
 -1       536-1.26254E-03-5.24356E-04-3.02163E-03-1.95494E-05 1.00097E-03-2.99797E-04
 -1       537-1.43284E-03-6.75369E-04-3.27670E-03-1.77525E-05 1.03445E-03-5.08292E-04
 -1       538-2.38107E-04 4.77853E-04-2.57216E-03 3.94923E-05 1.88555E-04-1.79282E-04
 -1       539-3.59865E-04 3.68619E-04-2.85668E-03-9.14499E-06 1.82059E-04-4.17184E-04
 -1       540-6.25862E-04-6.73460E-04-2.83223E-03-1.01333E-04 7.54151E-05-2.55427E-05
 -1       541 5.79118E-05-2.32804E-05-2.02392E-03-3.53483E-05 2.71449E-05-9.10947E-05
 -1       542 6.61683E-04 7.08991E-04-1.59007E-03-8.39589E-05 7.48449E-06-3.00596E-04
 -1       543-3.25577E-05-1.09142E-04-2.14037E-03-1.24908E-05 3.22272E-05 1.57879E-05
 -1       544 8.25033E-05 1.59871E-05-2.00582E-03-2.33384E-05 2.56913E-05-1.22756E-05
 -1       545 3.60259E-04 2.64308E-04-1.85155E-03-6.80885E-05 6.72064E-05-6.96781E-05
 -1       546 1.18547E-05-5.13235E-05-2.08710E-03-1.31517E-05-9.90954E-06 7.85090E-06
 -1       547 6.70725E-05 6.18090E-06-2.00916E-03-2.73647E-05-2.00854E-05-4.73973E-06
 -1       548 2.37593E-04 1.44992E-04-1.98038E-03-4.52701E-05 1.38352E-05-1.06073E-05
 -1       549 2.66010E-05-6.30984E-05-2.12256E-03-3.69406E-05-2.35777E-05 7.99335E-05
 -1       550-5.98774E-04-6.44261E-04-2.84833E-03-1.08086E-04-8.56980E-05 3.35426E-05
 -1       551 2.50528E-04 1.76340E-04-1.95330E-03-7.33198E-05-5.26257E-05 4.70698E-05
 -1       552 5.91186E-04 6.78152E-04-1.64751E-03-6.05611E-05-2.13203E-05 2.94536E-04
 -1       553 6.02297E-05 2.14325E-05-2.27383E-03 4.59664E-05-4.38257E-05-1.08537E-04
 -1       554 2.53396E-04 1.12702E-04-2.07184E-03 3.44137E-05-5.19390E-05-5.68606E-05
 -1       555 3.64210E-04 1.76487E-04-2.07411E-03 3.55606E-05-5.15061E-05-3.78262E-05
 -1       556 1.17703E-04-5.66850E-05-2.30980E-03 4.43751E-05-9.61989E-06-1.35054E-06
 -1       557 2.09071E-04 4.16488E-05-2.17718E-03 4.84334E-05 9.44704E-06 7.49454E-06
 -1       558 1.87931E-04 5.20466E-05-2.22938E-03-5.93164E-05 5.34349E-05-1.48481E-05
 -1       559 2.53088E-04 9.93901E-05-2.13143E-03-4.12051E-05 9.68301E-06-3.35443E-05
 -1       560 3.09324E-04 7.67750E-05-2.16239E-03-3.44179E-05 4.06824E-05-1.03426E-05
 -1       561 1.60398E-04-5.90514E-06-2.19579E-03-1.66366E-05-2.73664E-05 1.30824E-05
 -1       562 2.12206E-04 9.59687E-05-2.12649E-03-5.01468E-05-3.71677E-05 8.00512E-05
 -1       563-2.38537E-05-8.15663E-05-2.23947E-03-6.52186E-05-7.94149E-05 1.22319E-04
 -1       564 2.36074E-04 2.60102E-05-2.15288E-03-2.42080E-05-3.22703E-05 7.56420E-05
 -1       565 2.38686E-05 2.06998E-04-2.04617E-03-1.19575E-05-4.19020E-05 6.51723E-05
 -1       566 2.90297E-04 3.59282E-04-1.89926E-03-3.02967E-05 7.06378E-05-1.52923E-05
 -1       567 2.62098E-04 1.91960E-04-1.91143E-03 6.16768E-05 5.52090E-05 1.92587E-04
 -1       568 5.37300E-05 1.76705E-04-2.05527E-03 4.14494E-05-8.50966E-06 1.02321E-04
 -1       569 1.38665E-04 1.25473E-04-2.16423E-03 1.73703E-05 9.11608E-05 6.44966E-05
 -1       570 3.30216E-04 3.32012E-04-1.78449E-03 3.40628E-05-6.02819E-05-1.88446E-04
 -1       571 2.60636E-04 3.82393E-04-1.88729E-03 9.85969E-06-1.62062E-05-1.35270E-04
 -1       572 1.70569E-04 2.18464E-04-1.96102E-03-9.39747E-06-5.05269E-06-9.41761E-05
 -1       573 1.84007E-04 8.37823E-05-2.18427E-03 2.92232E-06-6.58190E-05-5.87642E-05
 -1       574 2.55468E-04 3.18174E-04-1.86184E-03-1.12436E-05-1.43440E-05 1.04610E-05
 -1       575 3.84867E-04 4.96639E-04-1.80182E-03-9.45173E-06 7.31411E-05-1.37869E-04
 -1       576 2.04696E-04 2.69630E-04-1.87029E-03-5.93119E-05 5.42675E-05-2.10662E-04
 -1       577-8.00159E-05-1.26444E-04-2.29191E-03-8.65576E-05 1.01099E-04-1.48904E-04
 -1       578 3.06210E-04 3.22819E-04-1.77905E-03-4.60871E-05 9.75329E-05-2.26141E-04
 -1       579 2.27764E-04 8.07319E-05-2.14872E-03 6.47486E-05 5.29441E-05 6.03528E-05
 -1       580 1.93570E-04 7.97357E-05-2.06874E-03 8.75181E-05 6.76767E-05 1.11969E-04
 -1       581 2.13430E-04 2.37474E-04-1.87248E-03 2.59970E-05 5.31826E-05 2.29616E-04
 -1       582 2.30729E-04 2.43460E-04-1.91339E-03-3.66010E-05-2.68427E-05 2.38036E-04
 -1       583 1.66623E-04 2.24075E-04-1.95893E-03-1.46349E-05-1.22595E-06 1.10327E-04
 -1       584 2.42560E-04 2.66249E-04-1.90071E-03-1.73744E-05-8.87499E-05 2.16161E-04
 -1       585 4.01777E-04 4.47814E-04-1.65976E-03 1.78298E-05-5.99052E-05-2.38973E-04
 -1       586 2.73462E-04 2.01863E-05-2.19001E-03 2.32557E-05-6.34083E-05-4.61012E-05
 -1       587 2.53396E-04-2.33691E-05-2.26658E-03 2.04563E-05-2.14143E-05 2.02174E-05
 -1       588 2.54092E-04 1.10178E-05-2.17510E-03 1.84264E-05-4.32250E-05-1.43518E-05
 -1       589 3.80656E-04 5.56659E-05-2.20240E-03 1.96991E-05 2.30993E-05 1.33704E-05
 -1       590 3.58327E-04 1.18013E-04-2.16431E-03 3.08060E-05 2.74393E-05 2.01142E-05
 -1       591 2.94731E-04 1.54554E-04-2.21036E-03 3.25109E-05 5.99165E-05 4.30417E-05
 -1       592 3.72466E-04 1.57287E-04-2.07471E-03 5.18450E-05 2.56977E-05 5.32466E-05
 -1       593 3.33242E-04 9.85498E-06-2.26142E-03 1.43945E-06-7.79576E-06-1.50127E-05
 -1       594 3.47716E-04 8.47440E-05-2.25876E-03-1.42224E-05 4.29919E-05-7.61331E-06
 -1       595 3.84603E-04 7.93451E-05-2.10159E-03 1.44894E-05-7.43196E-05 5.16725E-06
 -1       596 4.59896E-04 1.71557E-04-2.03864E-03-2.10339E-05-4.29240E-05 1.10401E-05
 -1       597 1.73678E-04 3.60516E-05-2.21068E-03-5.22644E-07-6.39595E-05-4.97301E-06
 -1       598 3.88258E-04 1.31882E-04-2.11682E-03-1.98233E-05 7.23737E-05-1.79764E-05
 -1       599 3.42191E-04 8.67635E-05-2.17633E-03-1.26998E-06 8.58849E-05-1.54379E-05
 -1       600 2.63764E-04 1.23947E-04-2.15811E-03-2.04350E-05 6.54945E-05-4.25600E-06
 -1       601 2.63163E-04 1.68033E-04-2.15720E-03 1.12722E-05 6.17375E-05 2.87679E-05
 -1       602 4.19053E-04 1.39784E-04-2.03718E-03-2.40331E-05-5.40002E-05 5.39742E-05
 -1       603 3.46596E-04 3.11561E-05-2.21144E-03-1.79705E-05 1.12819E-05 5.19659E-06
 -1       604 2.09896E-04-3.17445E-05-2.34814E-03-1.85162E-05 3.20018E-05-9.30899E-06
 -1       605 3.57636E-04 1.16881E-04-2.11208E-03-3.03613E-05 8.70503E-05-2.03424E-05
 -1       606 1.39096E-04-4.11726E-05-2.20296E-03-2.77390E-05-5.98483E-05 1.06580E-04
 -1       607 5.70406E-05 3.57290E-05-2.16599E-03-2.95861E-06-2.52831E-05 4.35661E-05
 -1       608 3.86840E-04 2.59357E-04-2.02552E-03-5.58562E-05 8.25520E-05-7.94937E-05
 -1       609 2.22914E-04 9.07835E-05-2.24856E-03-2.92188E-05 9.02398E-05-8.26362E-05
 -1       610 4.37692E-04 4.76362E-04-1.81374E-03 1.48050E-05 7.26318E-05-8.00122E-05
 -1       611 3.41424E-04 2.49388E-04-1.97207E-03-5.14930E-05 7.94839E-05-6.10070E-05
 -1       612 2.02241E-05 1.07854E-04-2.16383E-03-3.95099E-05 1.20003E-05-4.01182E-05
 -1       613 4.17556E-05 1.49487E-04-2.15188E-03 5.65541E-05-3.97015E-06-2.40825E-05
 -1       614 7.31989E-04-2.62844E-05-2.32572E-03-3.38837E-05-1.01604E-04-2.49360E-04
 -1       615 6.13252E-04-8.24967E-05-2.33996E-03-8.50016E-06 1.18216E-04 1.95656E-04
 -1       616 5.77661E-04-1.38173E-04-2.61391E-03-2.84972E-05 3.31133E-04-3.06496E-04
 -1       617 7.26370E-04-3.86862E-06-2.63985E-03 8.11498E-06-2.87430E-04 2.67208E-04
 -1       618 7.53666E-05 1.67380E-04-2.08827E-03-8.11180E-05-1.29565E-04 6.18409E-05
 -1       619 1.10072E-04 1.88721E-04-2.01522E-03-5.84025E-05 1.38956E-04-8.00101E-05
 -1       620 5.65299E-05 2.09767E-04-2.16391E-03-3.21499E-05 9.90172E-05-7.89100E-05
 -1       621 1.14201E-05 2.43035E-04-2.27785E-03-2.11558E-05 6.92828E-07-1.25843E-05
 -1       622 2.05886E-05 2.97915E-04-2.29867E-03-2.56041E-05 1.68576E-05-4.10417E-05
 -1       623 2.57395E-05 2.97613E-04-2.31439E-03-1.14038E-05 1.40345E-06 2.02708E-05
 -1       624 3.21499E-05 3.19721E-04-2.32134E-03 1.52936E-05-3.88367E-07 2.64041E-06
 -1       625 5.50694E-05 2.32693E-04-2.19854E-03 1.95473E-05-4.19060E-05-1.15006E-04
 -1       626 3.22029E-05 2.50446E-04-2.25790E-03 1.28212E-05 8.02596E-06 6.97596E-05
 -1       627 3.53191E-05 2.56725E-04-2.23338E-03 2.76725E-05 2.59427E-06 3.61367E-05
 -1       628 8.55384E-04 1.95419E-04-2.11057E-03 2.36602E-07-9.70288E-05 1.26219E-04
 -1       629 8.05597E-04 2.43226E-04-1.95366E-03 3.03773E-05 6.63060E-05-4.20358E-05
 -1       630 3.52829E-05 1.28046E-04-2.14715E-03-5.24133E-05-1.83887E-05 2.49959E-05
 -1       631 1.15348E-04 2.13784E-04-2.18788E-03-2.57291E-05-9.23444E-05 1.02558E-04
 -1       632 9.21620E-04 2.12004E-04-2.20044E-03 6.54681E-06 2.96967E-04 6.43277E-05
 -1       633-1.99886E-05 6.12516E-05-2.20864E-03 1.04342E-04-1.24423E-04-9.62455E-05
 -1       634 9.33662E-04 2.08521E-04-2.19690E-03 4.51255E-06-3.03756E-04-1.04877E-04
 -1       635-2.49140E-05 4.95949E-05-2.17173E-03 9.47146E-05 1.16608E-04 9.95253E-05
 -1       636 6.80025E-05 1.38306E-04-2.14467E-03 4.05731E-05 1.04171E-05 5.18165E-05
 -1       637 3.20133E-05 2.50315E-04-2.23567E-03 1.55343E-05-2.88612E-05-4.58231E-07
 -1       638 1.59177E-04 1.99104E-04-2.20293E-03 4.31502E-05 1.56084E-04 1.04506E-04
 -1       639 3.80582E-05 1.99000E-04-2.08874E-03 2.73253E-05-1.19264E-04-7.62184E-05
 -1       640 3.88855E-05 1.20883E-04-2.19952E-03 9.24696E-06 2.40415E-05-5.51694E-05
 -1       641 2.85722E-05 1.13004E-04-2.24814E-03 1.98529E-05-2.46499E-05 2.54322E-06
 -1       642 5.34148E-04 5.16335E-05-2.74213E-03-5.83942E-05 4.99760E-04 2.45302E-04
 -1       643 5.42584E-04 5.27945E-05-2.73543E-03-4.60915E-05-5.10044E-04-2.72714E-04
 -1       644 8.65515E-04 2.95830E-04-2.42557E-03 1.10042E-05-4.78822E-04 2.39140E-04
 -1       645 8.85621E-04 2.92472E-04-2.40230E-03-1.37006E-05 4.90336E-04-2.79671E-04
 -1       646-1.17695E-03-1.51323E-03-4.03970E-03-1.17871E-05 9.17343E-04-8.89010E-04
 -1       647 4.97256E-04 4.23429E-04-2.10853E-03-8.48159E-05 1.19523E-04 2.47316E-05
 -1       648 7.95015E-05-6.44107E-04-2.50894E-03 2.94291E-05 5.88117E-04-1.09654E-03
 -1       649 5.19158E-04 4.50172E-04-2.09130E-03-7.46429E-05-1.23198E-04-5.06026E-05
 -1       650-1.19976E-03-1.52158E-03-4.04915E-03 3.27236E-06-9.13386E-04 8.80497E-04
 -1       651 8.78537E-05-6.20347E-04-2.50195E-03 3.40424E-05-5.80652E-04 1.08522E-03
 -1       652-9.92950E-05-9.09131E-05-2.62528E-03-1.01395E-06-1.51552E-04-3.77437E-07
 -1       653-1.29520E-03-1.57973E-03-4.16896E-03-2.40992E-05-9.02765E-04-8.69848E-04
 -1       654-8.87549E-04-1.51749E-03-3.45696E-03-6.04884E-05-6.14353E-04-1.10503E-03
 -1       655-1.31435E-03-1.60731E-03-4.18395E-03-3.22814E-05 9.09102E-04 8.62916E-04
 -1       656-6.22071E-05-6.54857E-05-2.59670E-03-5.44306E-06 1.49592E-04-1.86211E-05
 -1       657-9.17212E-04-1.53306E-03-3.48803E-03-7.49743E-05 6.12983E-04 1.11269E-03
 -1       658-6.85002E-04-6.51130E-04-2.84533E-03 8.73221E-05 1.55799E-05 7.62944E-05
 -1       659-9.94366E-06 6.16598E-05-2.01849E-03 2.18535E-05 8.38576E-05 2.74626E-05
 -1       660 7.09422E-04 6.09739E-04-1.62591E-03 6.05210E-05 2.79970E-04-4.09082E-07
 -1       661-1.08771E-04-3.15290E-05-2.14839E-03 1.01576E-05-1.20396E-05 2.13673E-05
 -1       662 1.02056E-05 7.64278E-05-2.01577E-03 2.05903E-05 1.64347E-05 2.33023E-05
 -1       663 2.57341E-04 3.47858E-04-1.87499E-03 5.62602E-05 6.71523E-05 6.38818E-05
 -1       664-4.56617E-05 1.33901E-05-2.08686E-03 1.61840E-05-7.64084E-06-3.88498E-06
 -1       665 7.18154E-06 6.54824E-05-2.01459E-03 2.87901E-05 4.81816E-06-1.62110E-05
 -1       666 1.50716E-04 2.34850E-04-1.98227E-03 3.99550E-05 6.95124E-06 2.56990E-05
 -1       667-6.70211E-05 2.12454E-05-2.12549E-03 3.74109E-05-7.74727E-05-2.61171E-05
 -1       668-6.54530E-04-6.07245E-04-2.84390E-03 1.08742E-04-3.40770E-05-8.58633E-05
 -1       669 2.04125E-04 2.85933E-04-1.92544E-03 7.52089E-05-4.96794E-05-6.02177E-05
 -1       670 7.12232E-04 6.14945E-04-1.62194E-03 5.85318E-05-2.95279E-04-2.16053E-05
 -1       671-7.46568E-05 2.34118E-05-2.09994E-03-1.09130E-05-6.39115E-05 3.56282E-05
 -1       672-4.14257E-05-2.02968E-05-2.21065E-03-6.73497E-05-4.68306E-05 6.33380E-05
 -1       673 4.27135E-04 4.54536E-04-1.82177E-03-6.99270E-05-2.99278E-04-3.40658E-05
 -1       674-4.65959E-05 1.21985E-05-2.08653E-03-8.28596E-06-1.95551E-05 1.01421E-05
 -1       675-1.37121E-06 6.90560E-05-2.00941E-03-1.85720E-05 2.30012E-06 2.39431E-05
 -1       676 1.70178E-04 2.54726E-04-1.95161E-03-6.65167E-05-5.80734E-05 4.59068E-05
 -1       677-1.06685E-04-3.20898E-05-2.14434E-03-2.12793E-06-1.43346E-05-2.71319E-05
 -1       678-1.41503E-05 5.29699E-05-2.04750E-03-1.10980E-05 1.05765E-05-1.58255E-05
 -1       679 9.79265E-05 1.85902E-04-2.04356E-03-4.05012E-05-3.19656E-07-9.22898E-06
 -1       680-8.62765E-05-6.49420E-05-2.23567E-03-4.11136E-05 5.62436E-05-6.05911E-05
 -1       681-2.01721E-05 7.07991E-05-2.02570E-03 4.78018E-06 7.02605E-05-3.71314E-05
 -1       682 9.79957E-05 1.90964E-04-2.00598E-03-4.79630E-05 7.08771E-05-6.14559E-05
 -1       683 3.37567E-04 3.46178E-04-1.90598E-03-5.39030E-05 2.93922E-04 2.41659E-06
 -1       684-1.42464E-03-1.96407E-03-3.71422E-03-2.47821E-05 3.33013E-04-1.07263E-03
 -1       685-1.06053E-03-1.73709E-03-3.50346E-03-6.72239E-05 5.15337E-04-1.09048E-03
 -1       686 4.45030E-04-3.37569E-04-2.87581E-03-1.91040E-06 3.83002E-04-2.36684E-04
 -1       687-4.37789E-04-1.15145E-03-2.75882E-03 3.63050E-05 3.03485E-05-8.27544E-04
 -1       688-9.14691E-05-7.16100E-04-2.39346E-03 2.43609E-05 2.47994E-04-9.14090E-04
 -1       689 8.99241E-05-5.03877E-04-2.83284E-03 8.49986E-07 1.88848E-04-2.39732E-04
 -1       690-7.43042E-04-1.44122E-03-3.10097E-03 2.33053E-05-2.17585E-04-1.06209E-03
 -1       691-7.03042E-04-1.39119E-03-2.98403E-03-1.13648E-05-3.28005E-05-9.72334E-04
 -1       692-4.96993E-05-5.49923E-04-2.69183E-03-6.17801E-06 9.64450E-06-3.93731E-05
 -1       693-7.00661E-04-1.46571E-03-3.31899E-03 2.11218E-05-5.06936E-04-1.02732E-03
 -1       694-5.03207E-04-1.26365E-03-3.01726E-03 1.72985E-05-3.00182E-04-9.92279E-04
 -1       695 4.54720E-04-2.64052E-04-2.61676E-03-4.11350E-05-1.78554E-04-1.89310E-04
 -1       696 3.80329E-04-3.66446E-04-2.86440E-03 8.81292E-06-4.24939E-04-1.84980E-04
 -1       697-1.20309E-03-1.88704E-03-3.70486E-03-5.62055E-05-4.87553E-04 1.08358E-03
 -1       698-1.55821E-03-2.11441E-03-3.93458E-03 2.61570E-06-3.08691E-04 1.04920E-03
 -1       699 5.26885E-04-1.97360E-04-2.82306E-03 4.75660E-05-3.79855E-04 1.96855E-04
 -1       700-5.25811E-04-1.29063E-03-2.98903E-03 5.48537E-07-1.64220E-04 9.79570E-04
 -1       701-4.79659E-04-1.19402E-03-2.86621E-03 3.24402E-05-6.67894E-05 1.01464E-03
 -1       702 9.89382E-04 1.96513E-04-2.14357E-03 2.75931E-05-1.89110E-04 1.92686E-04
 -1       703-7.51893E-04-1.45266E-03-3.12555E-03 1.43112E-05 5.18314E-05 1.02237E-03
 -1       704-9.27397E-04-1.61446E-03-3.30812E-03 1.34307E-05 1.99902E-04 1.05706E-03
 -1       705 6.87693E-04-4.76723E-05-2.33955E-03-2.30435E-05-5.35116E-07 1.66034E-04
 -1       706-5.18657E-04-1.25661E-03-3.01228E-03 1.57952E-05 2.96479E-04 9.91568E-04
 -1       707-7.29840E-04-1.48579E-03-3.32983E-03 1.46393E-05 5.06138E-04 1.02479E-03
 -1       708 4.86864E-04-2.17604E-04-2.58842E-03-3.25378E-05 1.79977E-04 1.52483E-04
 -1       709 3.70935E-04-3.59915E-04-2.86691E-03 4.03335E-06 4.07088E-04 1.56476E-04
 -1       710 4.10931E-05 1.37935E-04-2.11862E-03-7.65222E-05 1.17520E-04-8.28091E-05
 -1       711 5.86235E-05 1.80846E-04-2.17471E-03-4.28806E-05 6.61291E-05-5.41024E-05
 -1       712 1.11600E-04 3.18253E-04-2.13448E-03-2.50397E-05 3.67817E-05-4.59343E-05
 -1       713 9.38270E-07 1.46806E-04-2.24281E-03-2.85885E-05 1.21371E-05-1.96425E-05
 -1       714-7.38041E-06 1.52715E-04-2.22650E-03-2.53895E-05-4.37810E-06 7.87453E-06
 -1       715-1.39159E-05 1.16281E-04-2.23375E-03 2.44570E-05 2.72973E-05 5.06083E-05
 -1       716 4.63961E-05 2.21652E-04-2.15979E-03 3.35193E-05 8.04755E-06-3.31627E-06
 -1       717 7.63931E-05 2.89343E-04-2.19742E-03 2.27364E-05-7.34093E-06 1.97728E-05
 -1       718-5.25200E-05 1.14470E-04-2.28188E-03 2.80793E-05-1.15394E-05-1.92092E-05
 -1       719 6.73489E-05 2.11431E-04-2.11791E-03 4.70392E-05-6.82289E-05-5.33351E-05
 -1       720-1.37524E-04-7.15516E-05-2.25636E-03 5.79367E-05-1.25422E-04-1.00685E-04
 -1       721 1.31369E-04 3.44855E-04-2.02563E-03 1.04137E-05-6.38546E-05-1.56897E-05
 -1       722 3.98143E-04 3.03647E-04-1.83563E-03 1.46383E-06-2.26078E-05-2.44758E-05
 -1       723 3.74950E-04 2.92414E-04-1.91272E-03 4.82889E-06-2.63659E-05 1.50580E-05
 -1       724 2.93694E-04 3.01858E-04-1.83043E-03-4.67477E-05-1.97354E-04 7.86651E-05
 -1       725 4.15523E-04 3.00832E-04-1.83005E-03 2.78563E-06-1.10032E-04 6.67568E-05
 -1       726 6.00267E-05 1.06275E-04-2.24049E-03-7.51823E-07-4.48243E-05 5.57157E-05
 -1       727 2.61256E-04 2.84862E-04-1.81459E-03-4.66563E-05 1.95150E-04-7.88278E-05
 -1       728 3.16598E-04 2.67432E-04-1.86385E-03-7.42860E-06 1.33821E-04-1.94889E-05
 -1       729 2.02732E-04 9.47924E-05-1.97726E-03 4.40091E-06 6.70217E-05-1.31823E-05
 -1       730 3.66589E-05 1.88877E-04-2.10177E-03-5.13636E-06 5.20541E-05-6.36810E-05
 -1       731 4.37344E-04 3.83243E-04-1.74407E-03 6.42872E-06-1.61032E-05-7.78278E-05
 -1       732 6.18506E-04 4.56976E-04-1.75243E-03 2.53964E-05 1.21226E-04 5.70648E-05
 -1       733 7.39073E-05-1.33886E-06-2.19223E-03 4.48171E-05 2.26722E-04 1.36567E-05
 -1       734-1.01876E-04-8.17040E-05-2.37113E-03 8.37199E-05 1.58480E-04 8.41855E-05
 -1       735 1.72754E-04 1.57737E-04-1.94496E-03 1.31966E-05 1.82679E-04 7.29443E-05
 -1       736 3.21590E-04 3.38081E-04-1.80101E-03 4.76450E-05-2.34883E-04-7.59546E-05
 -1       737 1.79464E-04 1.30938E-04-2.01629E-03 3.03470E-05-1.17488E-04-6.95068E-05
 -1       738 2.54337E-04 2.24149E-04-1.91286E-03 2.52921E-05-2.36452E-04-1.07660E-04
 -1       739 6.26547E-05 1.87640E-04-2.16101E-03-4.51776E-05-7.47143E-05 5.83550E-05
 -1       740 2.61561E-05 9.31566E-05-2.17921E-03-6.76661E-05-1.30633E-04 9.06744E-05
 -1       741 3.12494E-04 2.87311E-04-1.75826E-03-3.76069E-05-2.26174E-04 6.79327E-05
 -1       742 3.82598E-04 3.44839E-04-1.70588E-03-3.21715E-05 2.27657E-04-1.01163E-04
 -1       743 7.33566E-05 3.18654E-04-2.15490E-03-1.81223E-05 4.56825E-05-5.28141E-05
 -1       744 3.48549E-05 3.20307E-04-2.26479E-03-1.93288E-05-2.04879E-06-1.93666E-05
 -1       745 1.44257E-04 3.64805E-04-2.07518E-03-2.58520E-05 2.56733E-05-5.79761E-05
 -1       746 1.03775E-04 3.58471E-04-2.24336E-03-1.10339E-05 2.76151E-06-6.95080E-06
 -1       747 2.70343E-05 3.22797E-04-2.26994E-03-1.75799E-05 6.31795E-07-9.48945E-06
 -1       748 3.99961E-05 2.90274E-04-2.18253E-03-2.57250E-05-2.18455E-05 4.06729E-05
 -1       749 9.87636E-05 3.29376E-04-2.08035E-03-1.50627E-05-3.15440E-05 2.78097E-05
 -1       750 7.34180E-05 3.45295E-04-2.26904E-03-9.26018E-06 1.15715E-05-2.09732E-05
 -1       751 7.11843E-05 3.25688E-04-2.30045E-03 1.46325E-06-5.79314E-06 9.76781E-06
 -1       752 8.52246E-05 3.66889E-04-2.11219E-03-1.62529E-05 7.77080E-06-9.42140E-05
 -1       753 1.61530E-04 4.39494E-04-2.04672E-03 1.88307E-05-1.54153E-05-5.92753E-05
 -1       754 3.26906E-05 1.53454E-04-2.25464E-03 1.68854E-05 9.49373E-06-8.16606E-05
 -1       755 1.51780E-04 4.21871E-04-2.13475E-03 1.59381E-05-2.41936E-06 4.33297E-05
 -1       756 4.77524E-05 3.15296E-04-2.24432E-03-5.70160E-06 5.77682E-06 5.21603E-05
 -1       757-5.61969E-06 1.90662E-04-2.29248E-03 1.37199E-05-8.17496E-08 3.47668E-05
 -1       758 1.18186E-04 3.06881E-04-2.15536E-03 4.04216E-07 3.57055E-07 2.58464E-05
 -1       759 1.94681E-04 4.52642E-04-2.00174E-03 2.62341E-05-6.82025E-05-4.95643E-05
 -1       760-1.67203E-05 2.89447E-04-2.28851E-03 1.44346E-05-2.15294E-05 4.18526E-06
 -1       761 3.77453E-05 3.14338E-04-2.26726E-03 2.41779E-05-7.35587E-06 1.52269E-05
 -1       762 9.69567E-05 3.45229E-04-2.15175E-03 3.79547E-05 9.85197E-06 4.58780E-05
 -1       763 1.53358E-05 2.07200E-04-2.12421E-03 2.73915E-05-1.05164E-04-7.69538E-05
 -1       764 4.61532E-05 5.57461E-05-2.18444E-03-1.84329E-05-4.01760E-05-8.31604E-05
 -1       765 1.65138E-04 3.29436E-04-2.02444E-03 1.14106E-05 5.10059E-05 7.03622E-05
 -1       766 9.86626E-05 2.73104E-04-2.10098E-03 2.22248E-05 7.46399E-05 8.52350E-05
 -1       767 1.45793E-04 8.31888E-05-2.07955E-03-5.52564E-05-1.97235E-05 3.47372E-05
 -1       768 2.43937E-04 3.02003E-04-2.04109E-03 5.34806E-05 1.08409E-04 7.12529E-05
 -1       769-1.99215E-03-2.04341E-03-2.31697E-03-7.14846E-07 1.46687E-04 8.45173E-04
 -1       770-1.99420E-03-1.98542E-03-2.24309E-03-9.91541E-06 8.13766E-04-1.77242E-04
 -1       771-2.02643E-03-2.07762E-03-2.36474E-03-5.17441E-06-1.63705E-04-8.60031E-04
 -1       772-2.02617E-03-1.99426E-03-2.28853E-03-2.81647E-06-7.86997E-04 1.46777E-04
 -1       773-1.50952E-03-1.49844E-03-1.64215E-03 3.37121E-06-5.13293E-04 7.65497E-04
 -1       774-1.63010E-03-1.61104E-03-1.82578E-03 5.60080E-06-7.99235E-04-5.41321E-04
 -1       775-1.60439E-03-1.60443E-03-1.77063E-03-3.57608E-07 5.34255E-04-7.82423E-04
 -1       776-1.68154E-03-1.67647E-03-1.86157E-03-9.45329E-07 7.96772E-04 5.51479E-04
 -1       777-1.98660E-03-2.04660E-03-2.35937E-03 9.64261E-06 1.53853E-04-8.52634E-04
 -1       778-1.85649E-03-1.86631E-03-2.05307E-03 2.41833E-06-1.19217E-05-4.74880E-04
 -1       779-2.08630E-03-2.09498E-03-2.37259E-03-6.44871E-06-3.96081E-04-4.16036E-04
 -1       780-2.12855E-03-2.13249E-03-2.44258E-03 8.44611E-06-1.81346E-04-1.51614E-04
 -1       781-2.10642E-03-2.10194E-03-2.36603E-03-4.51078E-06 1.52033E-04-1.25590E-04
 -1       782-2.08288E-03-2.09553E-03-2.35535E-03 4.93227E-07-4.95196E-06 1.57267E-04
 -1       783-2.03850E-03-2.01801E-03-2.27885E-03-1.08189E-05 3.37010E-04 1.50866E-04
 -1       784-1.96767E-03-1.96938E-03-2.18793E-03 6.30267E-06-3.43166E-04 1.62482E-04
 -1       785-2.05680E-03-2.06403E-03-2.31967E-03 5.30208E-06-1.43329E-04 5.14461E-04
 -1       786-2.03957E-03-1.98795E-03-2.32987E-03-2.12317E-06-8.09615E-04-1.95112E-04
 -1       787-1.92508E-03-1.85953E-03-2.26596E-03-1.28772E-05 7.79487E-04 1.42716E-04
 -1       788-2.04745E-03-2.05275E-03-2.30240E-03 6.84685E-06 4.15910E-04-3.99833E-04
 -1       789-1.73203E-03-1.71928E-03-1.95989E-03 4.59252E-06-8.96788E-04 4.84129E-04
 -1       790-1.66022E-03-1.69607E-03-1.94182E-03-1.12803E-05 4.98526E-04 9.02027E-04
 -1       791-1.69856E-03-1.70660E-03-1.93964E-03-1.14154E-05-4.99801E-04-8.64919E-04
 -1       792-1.71260E-03-1.68021E-03-1.96939E-03 1.09787E-05 8.63770E-04-4.86854E-04
 -1       793-2.02907E-03-2.04522E-03-2.29104E-03-1.95084E-05 1.48293E-04 4.13353E-04
 -1       794-2.05011E-03-2.11119E-03-2.42579E-03-2.21835E-06-1.48059E-04 9.52990E-04
 -1       795-2.17998E-03-2.18530E-03-2.47665E-03 3.67810E-06-5.11141E-04 4.20759E-04
 -1       796-2.15574E-03-2.14431E-03-2.42577E-03 7.91077E-06 4.07941E-04 4.99044E-04
 -1       797-2.02249E-03-2.03762E-03-2.26802E-03-7.04708E-06-4.78766E-04-9.91034E-05
 -1       798-2.06940E-03-2.04120E-03-2.32360E-03-1.92103E-06 4.75163E-04-9.87709E-05
 -1       799-1.74303E-03-1.75496E-03-2.12355E-03 2.19465E-05-8.89199E-04 8.63966E-04
 -1       800-1.81658E-03-1.82130E-03-2.14426E-03-2.10953E-06-8.39051E-04-8.91649E-04
 -1       801-1.81829E-03-1.83168E-03-2.15354E-03 6.04949E-06 8.69516E-04-8.64974E-04
 -1       802-1.81683E-03-1.80148E-03-2.13015E-03-7.21922E-06 8.65183E-04 8.80082E-04
 -1       803-4.01919E-03-4.01780E-03-4.67122E-03 7.51106E-05-1.20665E-03 1.21060E-03
 -1       804-2.97375E-03-2.98791E-03-3.33706E-03-1.49152E-05-1.44119E-03 7.83989E-04
 -1       805-3.08684E-03-3.08626E-03-3.45185E-03-2.20479E-05-7.84139E-04 1.41555E-03
 -1       806-2.84536E-03-2.84467E-03-3.14062E-03 5.65440E-07-1.37772E-03-7.99784E-04
 -1       807-3.96673E-03-3.97576E-03-4.61206E-03-7.28720E-05-1.18928E-03-1.20245E-03
 -1       808-3.01688E-03-3.01090E-03-3.37810E-03 2.20246E-05-7.69532E-04-1.43510E-03
 -1       809-3.15070E-03-3.15269E-03-3.52748E-03-2.54333E-05 7.73872E-04-1.40992E-03
 -1       810-3.95447E-03-3.96811E-03-4.60325E-03 7.35690E-05 1.19922E-03-1.19924E-03
 -1       811-2.70611E-03-2.70537E-03-2.98695E-03-5.61812E-07 1.40304E-03-7.79923E-04
 -1       812-3.15330E-03-3.15143E-03-3.52760E-03 2.50619E-05 1.40750E-03 7.76521E-04
 -1       813-3.92416E-03-3.91576E-03-4.55730E-03-7.34513E-05 1.20216E-03 1.20307E-03
 -1       814-2.70218E-03-2.70293E-03-2.98345E-03 5.69403E-07 7.84794E-04 1.41337E-03
 -1       815-2.85415E-03-2.85334E-03-3.14998E-03 2.93655E-07-1.30307E-03-4.48557E-04
 -1       816-2.80082E-03-2.83542E-03-3.13071E-03 4.27315E-06-1.34353E-03-6.41777E-04
 -1       817-2.23007E-03-2.19129E-03-2.49289E-03 3.92189E-06-8.28482E-04-6.85479E-04
 -1       818-3.07290E-03-3.07195E-03-3.39122E-03 6.91921E-08-1.33660E-03-1.13650E-04
 -1       819-3.14496E-03-3.15849E-03-3.51318E-03-8.18387E-06-1.34612E-03-2.71964E-04
 -1       820-1.77745E-03-1.74029E-03-1.99872E-03-1.31096E-06-8.18756E-04-3.69293E-04
 -1       821-3.00655E-03-3.00563E-03-3.31801E-03-1.72771E-07-1.32614E-03 2.38131E-04
 -1       822-3.03462E-03-3.03091E-03-3.37758E-03-1.36064E-05-1.35517E-03 5.37439E-05
 -1       823-2.08028E-03-2.04393E-03-2.33075E-03-2.26108E-07-8.07016E-04-2.00623E-05
 -1       824-2.89586E-03-2.89504E-03-3.19615E-03-4.49266E-07-1.38062E-03 6.09763E-04
 -1       825-2.95596E-03-2.96041E-03-3.29044E-03-8.08311E-06-1.38485E-03 3.95524E-04
 -1       826-2.10687E-03-2.07841E-03-2.35757E-03 6.43529E-06-8.48588E-04 3.13483E-04
 -1       827-2.33253E-03-2.27814E-03-2.62635E-03 3.86267E-07-9.11522E-04 6.31898E-04
 -1       828-2.89049E-03-2.89127E-03-3.19092E-03-2.88847E-07 4.54050E-04-1.26967E-03
 -1       829-2.77540E-03-2.77610E-03-3.06398E-03-4.31096E-07 6.25127E-04-1.28627E-03
 -1       830-2.14564E-03-2.18505E-03-2.45260E-03 4.44486E-06 6.72987E-04-8.33364E-04
 -1       831-3.49416E-03-3.49508E-03-3.85705E-03-3.81731E-08 5.97349E-05-1.31279E-03
 -1       832-3.40156E-03-3.36521E-03-3.78960E-03 9.62590E-06 2.52470E-04-1.33479E-03
 -1       833-1.66776E-03-1.70098E-03-1.91023E-03 3.79880E-07 3.44523E-04-8.32984E-04
 -1       834-3.06152E-03-3.06245E-03-3.37972E-03 1.77548E-07-2.41503E-04-1.34038E-03
 -1       835-3.29002E-03-3.30638E-03-3.65959E-03 1.17610E-05-7.09857E-05-1.33300E-03
 -1       836-2.32834E-03-2.39623E-03-2.71186E-03-6.75703E-07-1.14310E-05-8.68755E-04
 -1       837-2.86236E-03-2.86316E-03-3.16006E-03 4.39858E-07-6.04351E-04-1.35819E-03
 -1       838-3.02059E-03-3.01641E-03-3.36241E-03 1.00612E-05-4.00830E-04-1.35610E-03
 -1       839-2.00234E-03-2.04313E-03-2.29794E-03-1.10381E-05-3.24493E-04-8.61445E-04
 -1       840-2.19656E-03-2.24456E-03-2.52570E-03-3.24755E-06-6.38618E-04-8.82238E-04
 -1       841-3.02022E-03-3.01941E-03-3.33323E-03 3.03922E-07 1.30225E-03 4.69093E-04
 -1       842-2.85971E-03-2.85900E-03-3.15624E-03 4.36903E-07 1.29657E-03 6.31172E-04
 -1       843-2.20677E-03-2.16413E-03-2.48111E-03-6.15950E-06 8.39142E-04 6.88490E-04
 -1       844-3.06366E-03-3.06959E-03-3.43469E-03 1.80281E-05 1.32961E-03 3.93050E-05
 -1       845-3.02388E-03-3.04433E-03-3.41482E-03-1.82304E-05 1.33846E-03 2.52639E-04
 -1       846-1.65101E-03-1.62376E-03-1.85336E-03-6.30182E-06 8.07717E-04 3.52512E-04
 -1       847-2.94484E-03-2.94396E-03-3.24993E-03-1.80597E-07 1.29833E-03-2.54989E-04
 -1       848-2.98273E-03-2.98182E-03-3.29170E-03-6.91955E-08 1.30242E-03-1.17715E-04
 -1       849-2.00857E-03-1.97002E-03-2.25116E-03-3.52847E-06 8.10132E-04-2.32260E-05
 -1       850-2.89133E-03-2.89838E-03-3.23807E-03 1.29997E-05 1.40685E-03-5.99092E-04
 -1       851-3.12445E-03-3.10066E-03-3.47938E-03-2.19495E-05 1.36545E-03-3.78540E-04
 -1       852-2.12076E-03-2.09288E-03-2.37137E-03 8.56375E-06 8.36578E-04-3.31656E-04
 -1       853-2.25680E-03-2.21886E-03-2.52400E-03-3.54237E-06 8.75768E-04-6.48140E-04
 -1       854-2.60556E-03-2.60629E-03-2.87641E-03-2.62124E-07-4.25111E-04 1.21937E-03
 -1       855-2.48879E-03-2.48948E-03-2.74769E-03-4.25978E-07-6.19768E-04 1.27288E-03
 -1       856-2.12746E-03-2.15951E-03-2.42377E-03 9.79700E-06-6.60698E-04 8.26967E-04
 -1       857-3.77301E-03-3.77399E-03-4.16486E-03-4.86794E-08-7.67299E-05 1.35204E-03
 -1       858-3.75083E-03-3.71337E-03-4.14973E-03 4.43925E-06-2.44188E-04 1.33817E-03
 -1       859-1.61680E-03-1.64668E-03-1.84080E-03 8.79549E-07-3.35893E-04 8.68186E-04
 -1       860-2.94473E-03-2.94568E-03-3.25086E-03 1.72704E-07 2.31354E-04 1.35216E-03
 -1       861-3.16082E-03-3.18043E-03-3.53918E-03 2.13746E-05 5.22262E-05 1.33549E-03
 -1       862-2.19070E-03-2.25996E-03-2.55808E-03 4.02857E-06 1.08993E-05 9.03331E-04
 -1       863-2.85890E-03-2.85534E-03-3.19659E-03-1.40138E-05 6.08882E-04 1.43059E-03
 -1       864-3.02575E-03-3.04885E-03-3.38828E-03 1.83127E-05 3.92025E-04 1.39808E-03
 -1       865-2.07669E-03-2.11302E-03-2.37269E-03-1.08829E-05 3.17384E-04 8.85501E-04
 -1       866-2.20899E-03-2.24283E-03-2.50427E-03 4.91340E-06 6.53640E-04 8.98631E-04
 -1       867-2.41087E-03-2.40930E-03-2.66776E-03-4.13757E-05 1.62905E-04 5.89490E-04
 -1       868-2.15848E-03-2.17736E-03-2.42855E-03 7.12112E-06 5.34841E-06 4.76274E-04
 -1       869-2.77129E-03-2.77152E-03-3.05839E-03 7.69530E-09 9.59564E-06 6.62232E-04
 -1       870-2.56102E-03-2.54483E-03-2.84291E-03 1.52017E-06-1.37133E-04 7.05921E-04
 -1       871-2.61398E-03-2.61410E-03-2.88484E-03 1.68962E-07 4.72419E-04 6.67850E-04
 -1       872-2.32832E-03-2.35288E-03-2.66404E-03 2.62488E-05 2.62797E-04 6.51163E-04
 -1       873-2.37241E-03-2.37247E-03-2.61803E-03 6.34618E-08 2.64774E-04 4.41707E-04
 -1       874-2.58316E-03-2.58296E-03-2.85054E-03-4.44241E-08 6.28651E-04-1.28368E-04
 -1       875-2.75668E-03-2.75648E-03-3.04200E-03 6.68232E-09 6.12203E-04 1.11681E-05
 -1       876-2.44820E-03-2.44811E-03-2.70175E-03-1.49044E-07 6.08955E-04-4.53127E-04
 -1       877-2.36150E-03-2.38486E-03-2.65750E-03-8.18375E-06 6.10184E-04-2.81764E-04
 -1       878-2.34332E-03-2.31761E-03-2.59724E-03 9.51084E-06 4.44540E-04-2.39482E-04
 -1       879-2.58088E-03-2.58109E-03-2.84826E-03 3.05300E-08-8.02094E-05-6.32340E-04
 -1       880-2.21062E-03-2.22661E-03-2.47836E-03 1.57490E-05 6.82023E-05-6.31290E-04
 -1       881-2.53470E-03-2.52146E-03-2.81981E-03 7.84290E-06-2.81689E-04-6.16987E-04
 -1       882-2.18040E-03-2.18048E-03-2.40620E-03 4.43223E-08-1.86133E-04-4.58506E-04
 -1       883-2.34066E-03-2.34075E-03-2.58320E-03 1.50567E-07-4.54355E-04-6.13771E-04
 -1       884-2.50089E-03-2.50668E-03-2.79980E-03-1.25524E-05-6.38611E-04 2.80087E-04
 -1       885-2.14766E-03-2.14394E-03-2.41171E-03 1.45797E-05-4.21798E-04 2.81165E-04
 -1       886-2.43540E-03-2.43525E-03-2.68746E-03-4.06389E-08-5.37568E-04 1.46187E-04
 -1       887-2.02405E-03-2.02397E-03-2.23353E-03-3.04750E-09-4.16459E-04 2.73352E-05
 -1       888-2.44494E-03-2.44475E-03-2.69799E-03-1.16533E-08-6.06942E-04 2.29458E-05
 -1       889-2.43005E-03-2.43120E-03-2.73501E-03-2.41922E-05-6.15252E-04-1.35800E-04
 -1       890-2.55720E-03-2.55706E-03-2.82205E-03-1.67444E-07-6.83121E-04 4.57664E-04
 -1       891-2.06323E-03-2.06338E-03-2.27706E-03-1.21685E-07-3.40960E-04 6.39281E-04
 -1       892-2.33547E-03-2.34150E-03-2.60012E-03-8.99681E-06-3.25943E-04 4.71308E-04
 -1       893-2.23979E-03-2.23985E-03-2.47188E-03-1.63340E-07-5.19264E-04 5.98355E-04
 -1       894-2.33850E-03-2.33845E-03-2.58085E-03-2.18053E-07-6.84387E-04 6.22133E-04
 -1       895-2.67665E-03-2.67423E-03-3.00008E-03 1.76826E-05-5.76648E-04-3.09181E-04
 -1       896-2.29459E-03-2.29452E-03-2.53226E-03 1.49513E-07-5.80695E-04-4.76354E-04
 -1       897-2.61588E-03-2.61591E-03-2.88698E-03 2.17797E-07-6.30211E-04-6.76653E-04
 -1       898-2.41154E-03-2.41609E-03-2.68328E-03-7.68781E-06 2.78922E-04-5.85581E-04
 -1       899-2.06188E-03-2.06195E-03-2.27555E-03-1.51591E-07 4.75504E-04-5.88777E-04
 -1       900-2.54276E-03-2.54274E-03-2.80626E-03-2.16868E-07 6.68402E-04-6.34615E-04
 -1       901-2.39252E-03-2.35764E-03-2.67270E-03 1.43357E-05 5.46413E-04 3.36855E-04
 -1       902-2.26111E-03-2.26105E-03-2.49535E-03 1.70740E-07 6.09110E-04 5.26630E-04
 -1       903-2.59023E-03-2.59026E-03-2.85869E-03 2.28721E-07 6.42917E-04 6.96230E-04
 -1       904-2.12897E-03-2.12904E-03-2.34941E-03-4.31615E-08 1.93738E-04-4.32825E-04
 -1       905-2.50423E-03-2.50584E-03-2.81100E-03-1.53995E-05-2.90435E-04-2.89088E-04
 -1       906-1.94999E-03-1.94567E-03-2.16745E-03 5.43766E-06-9.02516E-05-3.21984E-04
 -1       907-2.35265E-03-2.37251E-03-2.63865E-03-7.27820E-06-1.28845E-05-1.57986E-04
 -1       908-2.12965E-03-2.12970E-03-2.35009E-03-7.53344E-09 6.62814E-05-3.02533E-04
 -1       909-2.35221E-03-2.35221E-03-2.59567E-03-4.45261E-08 2.77437E-04-2.70971E-04
 -1       910-2.68532E-03-2.68526E-03-2.96332E-03 5.39092E-08-4.33176E-04-2.45782E-04
 -1       911-2.23492E-03-2.25912E-03-2.51943E-03 4.23840E-06-3.39072E-04-1.20064E-04
 -1       912-2.42569E-03-2.43931E-03-2.71172E-03-1.40534E-05-9.94986E-05 1.24779E-05
 -1       913-2.30080E-03-2.29524E-03-2.57033E-03 1.12669E-05 7.45868E-05 1.62152E-05
 -1       914-2.06204E-03-2.06177E-03-2.29948E-03 9.50453E-06-2.60273E-04 2.10276E-05
 -1       915-2.20622E-03-2.20621E-03-2.43453E-03-1.61418E-08-1.73596E-04 1.71235E-04
 -1       916-2.27050E-03-2.27049E-03-2.50546E-03 1.43069E-08 1.68263E-04 1.60340E-04
 -1       917-2.14063E-03-2.14060E-03-2.36214E-03 6.60327E-09 2.37842E-04 2.22813E-05
 -1       918-2.01446E-03-1.94000E-03-2.24880E-03-5.85108E-06 4.09974E-04 2.62074E-05
 -1       919-2.26660E-03-2.27728E-03-2.52498E-03-2.61919E-06 2.99488E-04-1.13002E-04
 -1       920-2.16339E-03-2.16424E-03-2.40970E-03-7.63918E-06 7.36078E-05 2.85252E-04
 -1       921-2.26341E-03-2.26342E-03-2.49768E-03 3.18370E-08 2.39366E-04 2.74892E-04
 -1       922-2.32499E-03-2.32502E-03-2.56566E-03-3.81293E-08-2.41548E-04 3.33715E-04
 -1       923-2.40142E-03-2.40147E-03-2.64999E-03-1.72414E-08-7.84592E-05 3.28736E-04
 -1       924-2.35688E-03-2.35688E-03-2.60085E-03 6.22095E-08 3.54276E-04 3.25555E-04
 -1       925-2.35679E-03-2.39253E-03-2.67851E-03-3.60865E-05 5.06460E-04 1.52192E-04
 -1       926-1.87606E-03-1.85311E-03-2.11624E-03-9.05609E-06 7.93718E-04-1.32503E-04
 -1       927-2.07126E-03-2.03082E-03-2.38185E-03 6.69680E-06-8.03010E-04 1.97284E-04
 -1       928-1.98124E-03-1.96008E-03-2.21137E-03-1.30610E-05-1.15332E-04-8.57387E-04
 -1       929-1.96176E-03-2.01103E-03-2.34765E-03-1.16124E-05 1.38224E-04 8.75599E-04
 -1       930-1.99328E-03-1.99673E-03-2.26344E-03 1.67249E-05 4.51131E-04-7.87457E-04
 -1       931-1.65763E-03-1.61830E-03-1.86776E-03-3.12068E-06 8.28887E-04 5.37980E-04
 -1       932-1.86266E-03-1.87480E-03-2.12297E-03 1.05779E-05-4.70289E-04 8.10954E-04
 -1       933-2.02577E-03-2.00760E-03-2.34791E-03-1.45157E-05-8.38417E-04-5.07200E-04
 -1       934-1.66543E-03-1.72402E-03-1.99842E-03 8.80206E-07-1.76282E-04 8.70598E-04
 -1       935-1.96308E-03-1.97796E-03-2.20984E-03-2.57942E-06-1.06670E-05 4.59407E-04
 -1       936-2.09792E-03-2.10318E-03-2.36451E-03-1.39749E-06 4.12393E-04 4.11036E-04
 -1       937-2.11159E-03-2.11031E-03-2.38961E-03 7.42457E-06 1.50436E-04 1.39733E-04
 -1       938-2.18313E-03-2.17822E-03-2.45462E-03-4.21403E-06-1.75231E-04 1.27785E-04
 -1       939-1.95823E-03-1.96059E-03-2.17545E-03-4.24289E-06-2.05545E-06-1.43162E-04
 -1       940-2.15445E-03-2.13924E-03-2.42660E-03 1.15471E-06-3.60050E-04-1.51196E-04
 -1       941-2.18446E-03-2.17753E-03-2.44428E-03-6.45668E-07 3.18365E-04-1.43977E-04
 -1       942-2.12907E-03-2.14871E-03-2.40674E-03-3.81594E-06 1.67112E-04-4.97114E-04
 -1       943-1.87311E-03-1.85423E-03-2.12592E-03 1.18241E-05 8.47425E-04 1.64067E-04
 -1       944-1.87519E-03-1.83983E-03-2.10527E-03-3.95080E-07-7.89969E-04-1.41637E-04
 -1       945-1.99776E-03-2.02650E-03-2.31467E-03 9.66156E-06-3.90639E-04 4.18854E-04
 -1       946-1.72017E-03-1.71069E-03-1.94555E-03 7.07554E-06 8.60307E-04-4.81458E-04
 -1       947-1.66529E-03-1.68323E-03-1.93904E-03-1.25716E-05-4.79670E-04-8.53836E-04
 -1       948-1.74557E-03-1.75020E-03-1.99817E-03-1.60548E-05 5.03311E-04 8.85642E-04
 -1       949-1.65909E-03-1.64485E-03-1.85420E-03-6.55643E-06-8.23369E-04 5.36241E-04
 -1       950-2.15673E-03-2.19141E-03-2.50906E-03-8.97056E-06-1.62515E-04-4.00435E-04
 -1       951-1.57694E-03-1.68282E-03-1.89037E-03 2.02240E-05 1.21136E-04-1.04434E-03
 -1       952-2.03796E-03-2.03061E-03-2.38788E-03-3.02279E-06 4.99129E-04-4.04196E-04
 -1       953-2.02949E-03-2.02812E-03-2.36929E-03-1.79233E-05-4.40221E-04-4.50875E-04
 -1       954-1.91900E-03-1.91116E-03-2.12744E-03-4.44346E-06 4.65236E-04 1.02778E-04
 -1       955-1.99419E-03-2.00788E-03-2.26447E-03-1.02924E-06-4.70548E-04 9.74221E-05
 -1       956-1.81744E-03-1.79835E-03-2.20021E-03 2.05113E-05 8.44432E-04-8.45689E-04
 -1       957-1.77754E-03-1.78064E-03-2.10259E-03-2.33512E-07 8.48399E-04 8.87744E-04
 -1       958-1.83304E-03-1.81672E-03-2.15599E-03 2.50627E-06-8.20639E-04 8.75808E-04
 -1       959-1.80999E-03-1.80782E-03-2.14441E-03-2.58497E-06-8.45102E-04-8.41381E-04
 -1       960-3.95836E-03-3.96989E-03-4.59985E-03-7.14580E-05 1.19023E-03 1.21382E-03
 -1       961-2.67649E-03-2.67582E-03-2.95428E-03 5.71765E-07 1.37562E-03 8.11533E-04
 -1       962-3.08726E-03-3.07866E-03-3.45403E-03 2.03448E-05 7.71083E-04 1.43082E-03
 -1       963-3.00065E-03-3.00836E-03-3.35922E-03-1.67637E-05 1.42220E-03-7.75932E-04
 -1       964-4.09411E-03-4.09062E-03-4.75710E-03 7.65561E-05 1.18585E-03-1.19147E-03
 -1       965-3.11196E-03-3.10039E-03-3.47644E-03-1.69976E-05 7.52583E-04-1.40668E-03
 -1       966-3.94459E-03-3.94985E-03-4.58117E-03 7.14719E-05-1.17381E-03 1.20246E-03
 -1       967-3.13074E-03-3.12745E-03-3.49936E-03-2.06962E-05-7.47249E-04 1.41414E-03
 -1       968-2.68407E-03-2.68339E-03-2.96265E-03-5.66980E-07-1.37500E-03 8.05452E-04
 -1       969-3.95935E-03-3.94491E-03-4.59143E-03-7.30374E-05-1.18206E-03-1.18863E-03
 -1       970-3.11521E-03-3.12656E-03-3.48932E-03 1.54543E-05-1.41222E-03-7.71363E-04
 -1       971-2.70811E-03-2.70884E-03-2.98994E-03 5.46093E-07-7.66039E-04-1.38649E-03
 -1       972-2.93811E-03-2.97567E-03-3.29228E-03 1.98501E-06 1.34885E-03 6.35794E-04
 -1       973-3.05857E-03-3.05772E-03-3.37555E-03 2.96922E-07 1.33449E-03 4.43299E-04
 -1       974-2.15901E-03-2.12012E-03-2.41135E-03 7.01898E-06 8.48509E-04 6.82078E-04
 -1       975-2.91673E-03-2.88576E-03-3.24964E-03-3.29076E-05 1.41167E-03 2.62069E-04
 -1       976-2.63159E-03-2.63049E-03-2.90426E-03 6.68124E-08 1.43730E-03 1.07628E-04
 -1       977-1.93656E-03-1.89219E-03-2.18109E-03-3.31471E-08 8.39896E-04 3.61821E-04
 -1       978-2.78059E-03-2.80872E-03-3.10194E-03 4.70568E-06 1.40045E-03-6.41854E-05
 -1       979-2.78742E-03-2.78654E-03-3.07622E-03-1.73199E-07 1.30491E-03-2.44379E-04
 -1       980-1.69084E-03-1.66283E-03-1.89655E-03-6.09669E-06 8.21048E-04 1.26301E-05
 -1       981-2.98943E-03-2.99316E-03-3.32966E-03-9.31867E-06 1.36141E-03-4.05037E-04
 -1       982-2.81335E-03-2.81256E-03-3.10510E-03-4.43413E-07 1.35618E-03-6.11157E-04
 -1       983-2.00646E-03-1.97353E-03-2.25029E-03 5.89641E-06 8.31386E-04-3.07716E-04
 -1       984-2.32520E-03-2.26988E-03-2.61821E-03-8.35607E-07 8.67420E-04-6.26227E-04
 -1       985-2.79633E-03-2.79709E-03-3.08711E-03-4.20102E-07-5.91476E-04 1.32298E-03
 -1       986-2.95933E-03-2.96017E-03-3.26692E-03-2.84399E-07-4.25569E-04 1.31265E-03
 -1       987-2.27053E-03-2.32106E-03-2.61497E-03 6.73239E-06-6.04354E-04 8.44749E-04
 -1       988-2.95530E-03-2.91988E-03-3.26236E-03-3.25787E-06-2.81968E-04 1.34110E-03
 -1       989-2.94056E-03-2.94149E-03-3.24622E-03-6.36209E-08-1.04836E-04 1.32051E-03
 -1       990-2.07268E-03-2.11321E-03-2.37217E-03-1.65389E-06-3.18501E-04 8.75978E-04
 -1       991-3.29894E-03-3.29168E-03-3.67648E-03 1.22755E-05 5.29963E-05 1.36361E-03
 -1       992-3.06060E-03-3.06156E-03-3.37873E-03 1.73092E-07 2.31280E-04 1.36131E-03
 -1       993-2.12586E-03-2.18454E-03-2.46906E-03-4.43696E-06-3.29682E-05 9.08752E-04
 -1       994-3.06530E-03-3.05699E-03-3.41035E-03 9.27964E-06 3.92191E-04 1.37080E-03
 -1       995-2.88258E-03-2.88339E-03-3.18239E-03 4.44339E-07 6.05938E-04 1.36944E-03
 -1       996-2.12654E-03-2.17266E-03-2.44713E-03-1.47898E-05 3.17552E-04 8.83246E-04
 -1       997-2.18252E-03-2.23249E-03-2.51787E-03-8.43567E-06 6.44242E-04 8.88956E-04
 -1       998-2.73731E-03-2.73653E-03-3.02120E-03 4.51276E-07-1.35908E-03-6.23015E-04
 -1       999-3.23364E-03-3.23481E-03-3.61010E-03 1.42628E-05-1.34435E-03-4.23547E-04
 -1      1000-2.40650E-03-2.34255E-03-2.71868E-03-2.62698E-06-8.48804E-04-6.41038E-04
 -1      1001-2.92649E-03-2.92564E-03-3.22967E-03 1.65902E-07-1.27937E-03-2.35301E-04
 -1      1002-2.97371E-03-2.99539E-03-3.31314E-03-1.41425E-06-1.28893E-03-5.37094E-05
 -1      1003-2.22382E-03-2.17100E-03-2.50429E-03-2.00000E-06-8.17548E-04-3.00536E-04
 -1      1004-3.08503E-03-3.08412E-03-3.40458E-03-6.93784E-08-1.30592E-03 1.13060E-04
 -1      1005-3.14581E-03-3.16110E-03-3.51521E-03 7.50160E-06-1.33580E-03 2.66660E-04
 -1      1006-2.11087E-03-2.07752E-03-2.36062E-03-1.06258E-06-8.02944E-04 1.45780E-05
 -1      1007-2.87995E-03-2.87913E-03-3.17844E-03-2.93320E-07-1.31367E-03 4.44139E-04
 -1      1008-2.88638E-03-2.91564E-03-3.22489E-03-4.61956E-07-1.35871E-03 6.37346E-04
 -1      1009-1.72284E-03-1.68703E-03-1.93821E-03 4.05157E-06-8.23081E-04 3.68779E-04
 -1      1010-2.14075E-03-2.10061E-03-2.39279E-03-1.01205E-05-8.35135E-04 6.82768E-04
 -1      1011-2.78206E-03-2.78282E-03-3.07135E-03-4.16839E-07 5.82898E-04-1.31565E-03
 -1      1012-2.87536E-03-2.87617E-03-3.17418E-03-2.38053E-07 3.67012E-04-1.26936E-03
 -1      1013-2.44864E-03-2.49585E-03-2.81494E-03 1.53976E-05 6.04816E-04-8.25696E-04
 -1      1014-3.32983E-03-3.35255E-03-3.72735E-03 1.62501E-05 1.94561E-04-1.41204E-03
 -1      1015-3.36997E-03-3.53270E-03-3.96326E-03-8.20905E-05 7.51739E-06-1.32496E-03
 -1      1016-2.14204E-03-2.15099E-03-2.37395E-03 5.04279E-06 2.63764E-04-9.29806E-04
 -1      1017-3.13297E-03-3.18786E-03-3.58271E-03 5.41439E-05-2.10943E-05-1.21716E-03
 -1      1018-2.71521E-03-2.71612E-03-2.99753E-03 1.57936E-07-2.14905E-04-1.31418E-03
 -1      1019-2.29072E-03-2.29117E-03-2.52838E-03-1.47042E-08 2.40653E-05-9.40111E-04
 -1      1020-2.97184E-03-2.99451E-03-3.33411E-03 2.02042E-05-3.69561E-04-1.34946E-03
 -1      1021-2.88440E-03-2.87035E-03-3.22039E-03-1.16806E-05-5.93633E-04-1.38820E-03
 -1      1022-2.01551E-03-2.04903E-03-2.30392E-03-1.99994E-05-3.04451E-04-8.39631E-04
 -1      1023-2.23819E-03-2.27645E-03-2.54693E-03 3.05531E-06-6.37257E-04-8.54117E-04
 -1      1024-2.68420E-03-2.68405E-03-2.96203E-03-3.68421E-08 5.41629E-04-1.33361E-04
 -1      1025-2.30579E-03-2.28867E-03-2.58220E-03 1.27577E-05 3.98195E-04-2.56682E-04
 -1      1026-2.49941E-03-2.52188E-03-2.81656E-03-1.68917E-05 6.36843E-04-2.56004E-04
 -1      1027-2.42225E-03-2.42206E-03-2.67297E-03-7.14625E-09 6.05263E-04-1.01060E-05
 -1      1028-2.06452E-03-2.05897E-03-2.30116E-03-8.35629E-06 3.96024E-04-1.73600E-05
 -1      1029-2.47486E-03-2.47466E-03-2.73104E-03 4.57720E-08 6.28193E-04 1.30919E-04
 -1      1030-2.57223E-03-2.57209E-03-2.83862E-03-1.56708E-07 6.63884E-04-4.41628E-04
 -1      1031-2.36545E-03-2.36525E-03-2.61028E-03 1.35481E-08-6.16909E-04-2.66846E-05
 -1      1032-2.60414E-03-2.61730E-03-2.93968E-03 2.12754E-05-6.17706E-04 1.35065E-04
 -1      1033-2.75541E-03-2.77404E-03-3.10238E-03-1.39213E-05-5.73849E-04 3.18229E-04
 -1      1034-2.46342E-03-2.46335E-03-2.71857E-03-1.53811E-07-5.90158E-04 4.85345E-04
 -1      1035-2.49686E-03-2.47641E-03-2.77531E-03-1.71574E-06-4.25221E-04 2.51358E-04
 -1      1036-2.25211E-03-2.25237E-03-2.48551E-03-7.82323E-09 3.82441E-05-6.94989E-04
 -1      1037-2.13733E-03-2.17251E-03-2.42350E-03-1.42355E-06 9.52275E-06-4.57016E-04
 -1      1038-2.25076E-03-2.25099E-03-2.48398E-03 3.76281E-08-1.10579E-04-6.60985E-04
 -1      1039-2.26491E-03-2.26522E-03-2.49971E-03-6.15032E-08 1.57321E-04-7.64337E-04
 -1      1040-2.47162E-03-2.38453E-03-2.68945E-03 3.03844E-06-2.60963E-04-6.52236E-04
 -1      1041-2.78237E-03-2.78246E-03-3.07063E-03 1.58528E-07-4.75292E-04-6.25502E-04
 -1      1042-2.31535E-03-2.36517E-03-2.69491E-03-3.13854E-05-2.89108E-04-4.31249E-04
 -1      1043-2.15673E-03-2.17824E-03-2.43444E-03 2.20123E-05-9.79676E-05 6.30438E-04
 -1      1044-2.47471E-03-2.48593E-03-2.80429E-03-2.84551E-05 7.36601E-05 6.27267E-04
 -1      1045-2.28097E-03-2.28103E-03-2.51712E-03 4.35994E-08 1.98102E-04 4.24342E-04
 -1      1046-2.31964E-03-2.33258E-03-2.60438E-03 1.53826E-05 2.82417E-04 5.98109E-04
 -1      1047-2.42256E-03-2.42266E-03-2.67359E-03 1.59815E-07 4.68344E-04 6.32545E-04
 -1      1048-2.38081E-03-2.38289E-03-2.68391E-03 1.80969E-05 3.12622E-04-6.40465E-04
 -1      1049-2.68886E-03-2.68890E-03-2.96740E-03-1.49725E-07 4.99908E-04-5.72600E-04
 -1      1050-2.31911E-03-2.33098E-03-2.60866E-03-2.12037E-05 3.25210E-04-4.45708E-04
 -1      1051-2.80531E-03-2.80528E-03-3.09595E-03-1.99665E-07 6.46789E-04-6.05171E-04
 -1      1052-2.39783E-03-2.39776E-03-2.64619E-03 1.55842E-07 5.98804E-04 4.81685E-04
 -1      1053-2.45583E-03-2.47402E-03-2.75810E-03 9.19976E-06 6.18710E-04 2.92306E-04
 -1      1054-2.63184E-03-2.63187E-03-2.90459E-03 2.25675E-07 6.46391E-04 6.83583E-04
 -1      1055-2.41429E-03-2.40114E-03-2.70505E-03 1.61841E-05-4.29308E-04 6.08397E-04
 -1      1056-2.48156E-03-2.51360E-03-2.81009E-03-2.49635E-05-2.63608E-04 6.03031E-04
 -1      1057-2.53666E-03-2.53667E-03-2.79953E-03-2.06936E-07-6.26955E-04 6.45247E-04
 -1      1058-2.48857E-03-2.52224E-03-2.82711E-03-1.09440E-05-6.15962E-04-4.47570E-04
 -1      1059-2.42716E-03-2.42701E-03-2.67843E-03 8.03897E-08-5.99066E-04-2.74101E-04
 -1      1060-3.22652E-03-3.22654E-03-3.56079E-03 2.08713E-07-6.26521E-04-6.53641E-04
 -1      1061-2.31162E-03-2.31168E-03-2.55094E-03-4.39214E-08-1.99330E-04 4.27552E-04
 -1      1062-2.19097E-03-2.18199E-03-2.42338E-03 1.34747E-06 6.42003E-05 2.99556E-04
 -1      1063-2.39320E-03-2.39321E-03-2.64091E-03 4.48564E-08 2.74628E-04 2.79580E-04
 -1      1064-2.18441E-03-2.18446E-03-2.41051E-03-1.14581E-08-9.39554E-05 2.95857E-04
 -1      1065-2.34383E-03-2.36579E-03-2.63308E-03-5.02942E-06-1.77010E-05 1.36619E-04
 -1      1066-2.47282E-03-2.47282E-03-2.72875E-03-4.38237E-08-2.81482E-04 2.67477E-04
 -1      1067-2.30398E-03-2.30394E-03-2.54241E-03 2.07725E-08 3.00244E-04 1.33554E-04
 -1      1068-2.21424E-03-2.19304E-03-2.45200E-03-8.37321E-06 4.36142E-04 2.43567E-04
 -1      1069-2.39729E-03-2.39729E-03-2.64538E-03-2.58891E-09-8.22353E-05-8.67049E-06
 -1      1070-2.16352E-03-2.14795E-03-2.40570E-03-5.53156E-06 7.75559E-05-1.47873E-05
 -1      1071-2.18726E-03-2.18725E-03-2.41360E-03-1.21855E-08 1.52951E-04-1.47255E-04
 -1      1072-2.28982E-03-2.30156E-03-2.54368E-03 8.36048E-06 2.28783E-04 2.08896E-06
 -1      1073-2.30662E-03-2.26677E-03-2.57619E-03-9.16763E-06-2.70522E-04-1.01265E-05
 -1      1074-2.14016E-03-2.15753E-03-2.39844E-03-2.61192E-06-1.64286E-04-1.53563E-04
 -1      1075-2.19182E-03-2.20550E-03-2.44214E-03 8.28744E-06-3.31827E-04 1.12951E-04
 -1      1076-2.28531E-03-2.28521E-03-2.52182E-03 3.66179E-09-4.36510E-04-2.46145E-05
 -1      1077-2.40770E-03-2.38188E-03-2.66317E-03 4.02532E-06-2.67963E-04-2.60231E-04
 -1      1078-2.35885E-03-2.35888E-03-2.60298E-03 1.37434E-08-7.78348E-05-2.61297E-04
 -1      1079-2.25951E-03-2.25956E-03-2.49338E-03-1.63792E-08 7.94273E-05-3.05268E-04
 -1      1080-2.48563E-03-2.48566E-03-2.74291E-03-3.42083E-08 2.31284E-04-3.07103E-04
 -1      1081-2.55502E-03-2.55486E-03-2.81948E-03 4.25810E-08-5.59961E-04-1.44037E-04
 -1      1082-2.34701E-03-2.34696E-03-2.58996E-03 6.18027E-08-4.18668E-04-2.72030E-04
 -1      1083-1.45408E-04-1.30823E-04-3.33414E-03 1.12783E-05 3.00057E-07-6.39565E-06
 -1      1084-3.28193E-04-3.04878E-04-3.11052E-03 4.28290E-05 9.52325E-05-7.48635E-05
 -1      1085-2.60960E-04-2.55991E-04-3.08524E-03-5.75490E-05 7.08087E-05 9.47968E-05
 -1      1086-3.48665E-04-3.12379E-04-3.12601E-03-4.84830E-05 9.13651E-05 8.36949E-05
 -1      1087-3.19301E-04-3.99012E-04-3.15305E-03-2.91863E-05-5.58983E-05-1.06309E-04
 -1      1088-2.80736E-04-2.80574E-04-3.06815E-03 5.65700E-05-7.92724E-05 9.13060E-05
 -1      1089-2.26604E-04-2.58299E-04-3.14629E-03 5.42349E-05 6.44677E-05-8.74196E-05
 -1      1090-3.31349E-04-2.54323E-04-3.17966E-03 4.43844E-05-1.07542E-04 6.58946E-05
 -1      1091-3.37638E-04-2.57596E-04-3.18596E-03-3.89383E-05-1.11834E-04-7.70697E-05
 -1      1092-4.27939E-05-1.26081E-04-3.11157E-03 1.20746E-05-1.11128E-06 2.71049E-05
 -1      1093-3.23398E-05-6.04787E-05-3.10411E-03-1.53352E-05 7.67967E-06 1.10192E-06
 -1      1094-8.32943E-05-4.85044E-05-3.11408E-03-3.60922E-05-1.83930E-05-3.35186E-06
 -1      1095-5.64549E-05-2.83067E-05-3.07390E-03 6.02107E-06-6.88331E-06-7.53131E-07
 -1      1096-6.94829E-04-6.98645E-04-3.09809E-03-4.48038E-06 2.11748E-05 2.30457E-05
 -1      1097-7.04027E-04-7.13203E-04-3.06892E-03-5.72155E-06 1.30810E-05-7.18244E-08
 -1      1098-6.78500E-06-3.65865E-06-2.89091E-03 1.11923E-04 8.39464E-07-1.46888E-05
 -1      1099 3.20717E-07 1.11740E-05-2.87863E-03-9.87550E-05-1.00526E-05 1.27754E-05
 -1      1100-3.62979E-04-5.84861E-04-3.02852E-03-3.62968E-06 4.43208E-06 2.30693E-04
 -1      1101-6.03511E-04-3.67906E-04-3.00399E-03 2.46428E-05 2.49639E-04-4.93221E-05
 -1      1102-3.49447E-04-3.78909E-04-3.03002E-03-8.64618E-05-2.27217E-04-2.12602E-04
 -1      1103-4.08779E-04-6.35763E-04-3.00545E-03-8.30365E-06-1.93196E-05-2.42707E-04
 -1      1104-4.31101E-04-4.08367E-04-3.06599E-03 7.96376E-05-2.24886E-04 2.42403E-04
 -1      1105-5.04502E-04-7.44521E-04-2.99200E-03-8.41903E-06 3.56948E-05 2.79465E-04
 -1      1106-9.40285E-06 4.04246E-06-2.89655E-03 1.04154E-04-1.37076E-05 1.87392E-07
 -1      1107-4.20299E-04-3.91585E-04-3.03140E-03 9.33756E-05 2.38831E-04-2.33587E-04
 -1      1108-3.79185E-04-4.00312E-04-3.04929E-03-8.51826E-05-2.42018E-04-2.40594E-04
 -1      1109-4.41421E-04-4.36222E-04-3.02481E-03 8.51960E-05 2.53514E-04-2.56284E-04
 -1      1110-7.10119E-04-5.43203E-04-2.98422E-03-2.67800E-05-2.65003E-04-8.18540E-05
 -1      1111-1.59216E-05-1.04145E-05-2.83420E-03-1.05470E-04-3.30027E-06 9.73988E-06
 -1      1112-3.81049E-04-4.09950E-04-3.01230E-03-9.06258E-05 2.54905E-04 2.47521E-04
 -1      1113-6.88539E-04-4.24026E-04-2.96527E-03-1.88148E-06 3.06379E-04 2.47368E-05
 -1      1114-4.28957E-04-4.34775E-04-3.01573E-03 8.26325E-05-2.61013E-04 2.71218E-04
 -1      1115-4.32863E-04-4.28186E-04-3.00213E-03-9.41636E-05 2.65840E-04 2.66083E-04
 -1      1116-1.20737E-04-2.11436E-04-3.06010E-03 3.73459E-05 3.27911E-05-3.95583E-05
 -1      1117-8.01867E-04-6.42900E-04-2.89210E-03 4.08472E-06-3.07902E-04 4.99044E-05
 -1      1118-8.59517E-05-3.87591E-05-3.02233E-03 4.05395E-05-4.09017E-06-1.13023E-05
 -1      1119-1.22414E-04-1.47188E-04-3.22031E-03-1.88790E-05-1.14272E-05-3.10268E-05
 -1      1120-4.60127E-04-8.28423E-04-2.87062E-03 7.08147E-06 1.03911E-05-3.78245E-04
 -1      1121-1.16742E-04-1.12086E-04-3.20724E-03 3.72150E-05 2.17065E-07-1.02076E-05
 -1      1122-9.64841E-05-7.97863E-05-3.20524E-03 3.32155E-05 1.52828E-06 8.41846E-06
 -1      1123-4.86580E-05-7.53148E-05-2.93807E-03 2.92411E-05 1.14339E-05 5.11754E-06
 -1      1124-3.60459E-05-8.30577E-05-2.91819E-03 5.76640E-05-2.75346E-05 1.43891E-05
 -1      1125-1.26016E-04-6.22783E-05-2.93295E-03-4.25618E-05 1.69944E-05 2.04113E-05
 -1      1126-2.56292E-04-2.20792E-04-3.26175E-03-7.43462E-06 3.12537E-05 2.72970E-07
 -1      1127-2.48645E-04-2.23097E-04-3.25438E-03 4.18875E-06 4.16611E-05-5.50032E-06
 -1      1128-4.80428E-05-9.20731E-05-2.93586E-03-5.53685E-05-3.45270E-05-6.75976E-06
 -1      1129-1.13219E-05-1.15562E-05-2.88651E-03-5.58072E-05-1.40887E-05 2.91249E-06
 -1      1130-1.51191E-05-3.09642E-05-2.88101E-03-6.49693E-05 2.53085E-05 3.48440E-06
 -1      1131-7.23946E-05-2.81581E-04-3.05728E-03 4.01844E-05-7.58429E-05 7.49768E-05
 -1      1132-1.94523E-04-8.22386E-05-2.92619E-03 3.89143E-05-2.45865E-05 2.55407E-05
 -1      1133-7.59823E-05-5.76444E-05-2.77613E-03-1.06503E-04 1.25684E-05 5.30638E-05
 -1      1134-9.24343E-04-9.54957E-04-2.85133E-03 1.57086E-05-1.15165E-04 2.10808E-04
 -1      1135-9.07642E-04-9.30307E-04-2.82716E-03 1.91425E-05-1.00368E-04 1.68664E-04
 -1      1136-9.40805E-04-9.62892E-04-2.86985E-03 2.31943E-05 1.32280E-04-2.21288E-04
 -1      1137-2.84746E-04-3.03237E-04-3.24626E-03 4.27888E-06-1.71475E-05 4.77734E-05
 -1      1138-2.82344E-04-2.69833E-04-3.22630E-03-9.71253E-07-4.25848E-05-1.69350E-05
 -1      1139-6.46381E-05-4.59117E-06-2.91554E-03-4.54262E-05-2.23069E-05 2.75441E-05
 -1      1140-8.87681E-04-9.06890E-04-2.81128E-03-6.30963E-06 1.54648E-04 1.76062E-04
 -1      1141-7.70563E-05-2.74197E-05-2.87744E-03 5.06848E-05-1.07391E-06-2.18476E-05
 -1      1142-5.56774E-05-5.39951E-05-2.77082E-03 1.13240E-04 3.08994E-05-7.70227E-06
 -1      1143-9.04326E-04-9.13707E-04-2.80535E-03 1.26444E-05 1.19585E-04-1.99006E-04
 -1      1144-7.20836E-05-1.45803E-04-2.91612E-03-5.62528E-05 4.54454E-05 2.40808E-05
 -1      1145-9.07782E-04-9.25736E-04-2.80604E-03-4.58706E-06 1.52405E-04 1.51284E-04
 -1      1146-1.22511E-04-1.38130E-04-2.85538E-03 2.63897E-05-3.69024E-05 3.83570E-05
 -1      1147-2.85640E-04-2.23709E-04-2.85250E-03 2.50635E-05-2.49938E-05 4.89340E-05
 -1      1148-1.09210E-04-8.01354E-05-2.79231E-03-2.93439E-06 1.79310E-05 2.45448E-07
 -1      1149-1.99258E-04-1.46675E-04-3.12376E-03 6.36751E-06-5.83322E-05 2.45970E-05
 -1      1150-3.48542E-06-5.36105E-05-2.82512E-03-9.99707E-06 1.79897E-06-6.92527E-06
 -1      1151-3.53151E-05-1.00525E-04-2.80551E-03-2.50495E-05 5.21362E-05-2.73131E-05
 -1      1152-4.92104E-04-3.57209E-04-2.79197E-03-3.81949E-05-1.50194E-04-1.80428E-05
 -1      1153-3.23080E-04-1.55533E-04-2.96127E-03-3.57565E-05-1.19901E-04-4.03823E-05
 -1      1154-4.65523E-04-3.95909E-04-2.86067E-03-3.00339E-05-1.28003E-04-7.21585E-05
 -1      1155-6.50862E-04-5.03587E-04-3.18165E-03 5.30370E-06-1.84127E-04 1.60761E-05
 -1      1156-9.50964E-04-8.28178E-04-2.59148E-03-3.08544E-05 4.03471E-04 1.28689E-04
 -1      1157-7.07505E-04-4.87028E-04-3.12334E-03-2.91142E-05 1.45527E-04 9.50587E-05
 -1      1158-7.59452E-04-2.48208E-04-2.16260E-03-6.47282E-06 5.25761E-04 1.16947E-04
 -1      1159-1.17210E-03-1.09963E-03-2.65635E-03-4.12958E-05 5.31449E-04 2.53362E-04
 -1      1160-6.17315E-04-3.25313E-04-2.82274E-03-1.92743E-05 1.95300E-04 1.90395E-04
 -1      1161-4.36755E-04-4.10630E-04-3.03261E-03-8.10855E-05 1.65894E-04 1.74690E-04
 -1      1162-9.48934E-04-1.11638E-03-2.51688E-03 1.57210E-06-4.95044E-05 5.62847E-04
 -1      1163-4.72037E-04-7.67469E-04-3.08899E-03-3.24421E-06-4.89782E-05 1.82099E-04
 -1      1164-1.32565E-04-7.13885E-04-2.14495E-03 3.82639E-06-1.19319E-04 6.34038E-04
 -1      1165-9.64800E-04-1.06446E-03-2.50665E-03 2.58010E-05-2.64580E-04 6.14027E-04
 -1      1166-3.57448E-04-7.07488E-04-2.93606E-03 3.87166E-05-1.91685E-04 1.88570E-04
 -1      1167-4.72837E-04-6.78076E-04-3.04156E-03 3.18703E-05-1.44274E-04 2.52813E-04
 -1      1168-1.12467E-03-9.61134E-04-2.51147E-03 1.65400E-06 5.05995E-04 1.11393E-05
 -1      1169-5.36787E-04-3.93890E-04-3.08625E-03-7.41651E-06 1.73125E-04 4.15912E-05
 -1      1170-7.76730E-04-4.60519E-04-2.97947E-03-1.75379E-05 1.86358E-04 2.47292E-05
 -1      1171-1.69489E-04-1.50524E-04-2.98975E-03-8.10493E-05-8.89477E-05-6.52953E-05
 -1      1172-7.39476E-05-1.07496E-04-2.66455E-03-8.50299E-05-4.94048E-05-7.56036E-05
 -1      1173 9.83401E-06-3.47188E-05-2.76939E-03-4.15131E-05 5.52183E-07 5.61322E-06
 -1      1174-4.56122E-05-4.21652E-05-2.94807E-03-6.91219E-05-9.61239E-06 5.24167E-06
 -1      1175 7.01959E-05 8.37464E-06-2.59895E-03-9.33814E-05 3.30481E-05-1.84796E-06
 -1      1176-6.82476E-06-1.77305E-05-2.70629E-03-1.01969E-04-6.00034E-05-5.52324E-05
 -1      1177-1.49299E-04-1.67359E-04-2.88482E-03-3.57736E-05-3.27539E-05-3.92780E-05
 -1      1178-1.34326E-04-9.18630E-05-3.04229E-03-1.25482E-05-5.63998E-05-1.87300E-05
 -1      1179 2.57031E-05-4.28514E-05-2.78175E-03-5.09352E-06 2.49243E-05-6.18751E-06
 -1      1180-8.93913E-06-7.44338E-05-2.75495E-03-6.14976E-05 1.58102E-05-1.68856E-06
 -1      1181-1.14970E-04-7.81681E-05-3.03436E-03-4.85325E-05-1.49285E-05 8.26402E-07
 -1      1182-1.56611E-05 8.01221E-06-2.87938E-03-6.00647E-05-6.24147E-05-3.18155E-05
 -1      1183-1.27597E-03-1.29454E-03-2.38738E-03 9.18161E-06-9.72514E-05-1.78529E-04
 -1      1184-1.38692E-03-1.40837E-03-2.53444E-03 1.19656E-05-1.55819E-05-2.81764E-04
 -1      1185-1.22322E-03-1.23023E-03-2.32682E-03 4.77919E-06 5.71030E-05-1.65663E-04
 -1      1186-1.31160E-03-1.32003E-03-2.66404E-03-2.65567E-05-2.34354E-04-2.25650E-04
 -1      1187-1.15097E-03-1.11919E-03-2.48192E-03-1.19556E-05-3.18336E-04-1.18322E-04
 -1      1188-9.20433E-04-9.53759E-04-2.99469E-03-1.96186E-05-5.92072E-05-1.31203E-04
 -1      1189-1.37125E-04-1.43932E-04-2.87029E-03-4.90028E-05 2.60658E-05-5.58924E-05
 -1      1190-5.01967E-04-3.74998E-04-2.85813E-03-2.60168E-05-1.20418E-04-1.18184E-04
 -1      1191-1.44111E-04-1.38862E-04-2.83197E-03 4.20004E-05 4.36892E-05-3.38895E-05
 -1      1192-2.58958E-04-4.15405E-04-3.03067E-03 3.08981E-05 5.20868E-05-1.48346E-04
 -1      1193-2.09267E-04-3.24096E-04-2.76132E-03 1.02419E-05 6.53313E-06-8.84654E-05
 -1      1194-2.04406E-05 3.88464E-05-2.60749E-03 1.02776E-05 2.54881E-05 3.51889E-05
 -1      1195 2.57430E-05-1.60949E-04-2.73014E-03 1.29132E-05 2.41392E-06-9.67470E-05
 -1      1196-8.47445E-05-1.23913E-04-2.98116E-03 4.85207E-05 3.76774E-05-3.12580E-05
 -1      1197-2.31493E-04-2.18737E-04-2.74261E-03-6.68231E-05-6.79921E-05-1.46903E-04
 -1      1198-7.31245E-04-5.64622E-04-3.10645E-03-5.91000E-05-2.49600E-04-1.51579E-04
 -1      1199-1.06469E-03-9.79071E-04-2.71606E-03-3.12903E-05-4.03214E-04-1.27166E-04
 -1      1200-6.44393E-04-3.93575E-04-3.06790E-03-1.66285E-05-1.98364E-04-1.09657E-04
 -1      1201-8.76247E-04-3.36427E-04-2.21690E-03-6.54675E-06-5.96828E-04-1.52679E-04
 -1      1202-1.12053E-03-1.03598E-03-2.57123E-03-1.86199E-05-5.33640E-04-2.67486E-04
 -1      1203-7.71962E-04-4.12177E-04-2.96872E-03-2.68157E-05-2.74946E-04-2.02856E-04
 -1      1204-5.34948E-04-4.56417E-04-3.18441E-03-9.00966E-05-1.73914E-04-1.43729E-04
 -1      1205-5.64482E-04-4.36676E-04-3.06158E-03 3.16107E-05 1.84376E-04-2.12064E-05
 -1      1206-6.93360E-04-4.81353E-04-3.02365E-03 6.24158E-05 2.65053E-04-1.21044E-04
 -1      1207-5.57103E-04-5.16731E-04-3.20017E-03 6.76381E-05 1.52352E-04-1.30013E-04
 -1      1208-4.14969E-05-1.21863E-05-2.84792E-03 4.45676E-05 5.35035E-05-5.12312E-05
 -1      1209-1.92329E-04-1.20307E-04-2.85180E-03 7.74195E-05 9.87797E-05-1.01230E-04
 -1      1210-3.34918E-04-1.73807E-04-2.89979E-03 2.51094E-05 1.22868E-04-2.28834E-05
 -1      1211-1.56329E-04-3.34940E-04-2.81327E-03 3.09041E-05 6.99385E-05-9.46453E-05
 -1      1212-4.13122E-04-7.24447E-04-3.00942E-03-8.79723E-06 3.54951E-05-2.28186E-04
 -1      1213-3.49013E-04-6.77501E-04-2.89305E-03 3.54323E-05 1.95864E-04-2.28320E-04
 -1      1214-2.78617E-04-3.18237E-04-2.98521E-03 6.62359E-05 1.41015E-04-1.49492E-04
 -1      1215-4.76122E-04-6.30961E-04-2.92387E-03 2.42859E-05 1.29305E-04-2.01946E-04
 -1      1216-7.99864E-04-9.37312E-04-2.31518E-03 4.76617E-06-5.70632E-05 3.65201E-04
 -1      1217-9.78698E-04-9.97786E-04-2.41059E-03 3.85154E-05-2.53369E-04 4.11806E-04
 -1      1218-1.33736E-04-1.38305E-04-2.78552E-03 5.71374E-05 9.17291E-05-2.21163E-05
 -1      1219-1.19798E-03-1.19559E-03-2.60347E-03 4.08388E-06-1.32267E-04-5.70573E-05
 -1      1220-1.09325E-03-1.07643E-03-2.47311E-03 6.71276E-08 1.53763E-05-6.17457E-05
 -1      1221-9.49194E-04-9.57236E-04-3.09138E-03 2.75310E-06 6.76795E-05-8.10447E-05
 -1      1222-7.30382E-05-5.51164E-05-2.97352E-03 3.11826E-05-3.69213E-05 2.38820E-05
 -1      1223 7.73441E-05 7.00747E-06-2.69137E-03 3.01218E-05 3.69162E-05-3.07823E-06
 -1      1224-3.04252E-05 1.42992E-05-2.99192E-03-4.93667E-07-1.14718E-05-3.72393E-06
 -1      1225-5.77254E-06-7.32099E-05-2.75218E-03 6.31412E-05 2.63326E-05 4.56019E-06
 -1      1226-4.50195E-05-2.41340E-05-2.91093E-03 6.42334E-05-5.14402E-05 4.21316E-05
 -1      1227-7.14571E-05-4.55323E-05-2.98049E-03 6.89554E-05-1.69605E-06-1.52229E-05
 -1      1228-6.83734E-04-4.21655E-04-3.10120E-03 2.36282E-05-1.88204E-04 9.59515E-05
 -1      1229-8.44924E-04-4.89805E-04-3.02307E-03 1.72402E-05-3.14346E-04 2.32955E-05
 -1      1230-8.82626E-04-8.79912E-04-3.18314E-03-1.57264E-05-1.01382E-04-2.67808E-05
 -1      1231-1.30868E-03-1.20431E-03-2.52567E-03-1.91149E-05-5.26972E-04-5.59054E-05
 -1      1232-5.70714E-04-4.18894E-04-2.99589E-03-8.67272E-06-2.04569E-04-4.78342E-05
 -1      1233-9.21911E-04-5.92498E-04-3.01155E-03-2.15916E-05-3.42093E-04-2.78241E-05
 -1      1234-7.89029E-06 3.86379E-05-2.56246E-03 8.24932E-05 2.55697E-06-3.13793E-05
 -1      1235-1.24144E-05-1.03117E-05-2.69955E-03 1.12432E-04-7.07913E-05 6.45865E-05
 -1      1236-2.59694E-05-4.81280E-05-2.52682E-03 8.29397E-05-8.38687E-05 7.13972E-05
 -1      1237 1.06266E-05 5.18840E-05-2.55348E-03 5.72793E-05-2.41599E-05-1.04446E-05
 -1      1238-1.53147E-04-2.52161E-04-2.88479E-03 7.39563E-05-1.08725E-04 1.14615E-04
 -1      1239 3.07059E-05 1.46976E-05-2.83057E-03 7.62853E-05-6.97683E-06-6.70148E-06
 -1      1240-1.45780E-04-1.83638E-04-2.90874E-03-9.62740E-05-6.81081E-05-7.30764E-05
 -1      1241-2.20244E-05 6.22678E-06-2.97288E-03-4.19207E-05-3.00566E-06-6.70052E-06
 -1      1242 1.80228E-05 1.82729E-05-2.79901E-03-8.51751E-05 1.98949E-06 3.07013E-06
 -1      1243-2.25637E-04-2.69181E-04-2.68777E-03 6.72500E-05 1.69302E-04-9.28124E-05
 -1      1244-1.11644E-03-1.04140E-03-2.78588E-03 3.47225E-05-4.02850E-04 1.22741E-04
 -1      1245-8.85243E-04-3.40509E-04-2.22441E-03 3.31716E-06-5.93307E-04 1.58483E-04
 -1      1246-1.27758E-03-1.18857E-03-2.60941E-03 1.43825E-05-5.02405E-04 2.96661E-05
 -1      1247-9.52238E-04-1.00712E-03-2.66143E-03-1.04142E-05-9.91671E-05-2.48573E-04
 -1      1248-6.10947E-04-5.85825E-04-3.14994E-03-2.34971E-05-1.41722E-04-1.11866E-04
 -1      1249-6.40285E-04-6.88047E-04-2.99306E-03 9.35943E-06 1.01960E-05-1.58976E-04
 -1      1250-2.46789E-04-2.33101E-04-2.73293E-03 7.07082E-05-9.30076E-05 1.54801E-04
 -1      1251 3.33136E-05-3.96092E-05-2.62627E-03 7.68588E-05 3.40344E-05 4.01152E-05
 -1      1252-8.14425E-05-6.68216E-05-2.60603E-03 2.76095E-05 2.99770E-05 5.59790E-05
 -1      1253 3.04813E-05 5.17751E-05-2.79290E-03 7.72751E-05-4.43354E-06 7.24446E-06
 -1      1254-3.02678E-04-1.84041E-04-2.87449E-03 7.37645E-05-1.30317E-04 1.19816E-04
 -1      1255-2.43277E-04-2.22065E-04-2.86982E-03-3.53460E-05-1.88838E-05-8.29258E-05
 -1      1256 2.56349E-05-4.61136E-05-2.64993E-03-6.89787E-05 3.49831E-05-3.65502E-05
 -1      1257-1.06452E-03-9.64429E-04-2.51955E-03 1.61532E-05-5.30534E-04 2.70619E-04
 -1      1258-7.59109E-04-3.77315E-04-2.93912E-03 2.07026E-05-2.66026E-04 2.07141E-04
 -1      1259-5.34992E-04-4.47051E-04-3.17424E-03 7.12911E-05-1.65456E-04 1.41652E-04
 -1      1260 9.25715E-05-4.27042E-05-2.49640E-03 2.46976E-05-5.29424E-05-9.46719E-06
 -1      1261-4.79632E-05-1.89520E-04-2.82278E-03 2.55298E-05-1.69665E-05 1.22595E-04
 -1      1262 4.05033E-05 8.37420E-07-2.62417E-03 1.06577E-05 1.83304E-05 1.27857E-05
 -1      1263-4.49776E-04-3.25880E-04-3.17966E-03 8.61935E-07-8.02168E-05-2.34026E-05
 -1      1264-2.77721E-06 4.81449E-05-2.88326E-03 1.88012E-05-2.12083E-05 4.61846E-06
 -1      1265-8.84722E-04-9.83515E-04-3.09197E-03 2.31183E-06 4.66346E-05-2.49549E-04
 -1      1266-8.55919E-04-1.10495E-03-3.10328E-03 1.03574E-05 1.25082E-04-3.57930E-04
 -1      1267-9.23125E-04-9.60141E-04-3.07323E-03 5.75460E-05 2.15269E-04-2.60698E-04
 -1      1268-5.60129E-04-5.12550E-04-2.86243E-03-2.58680E-05 1.12439E-04 1.28045E-04
 -1      1269-1.62776E-03-1.62135E-03-2.81225E-03-3.13332E-05 4.05135E-04 1.44951E-04
 -1      1270-8.33874E-04-8.80396E-04-3.00827E-03-8.04212E-05 2.28998E-04 2.07732E-04
 -1      1271-5.11055E-05 4.69437E-05-2.50317E-03-2.84943E-05 9.76527E-06 4.97054E-05
 -1      1272-1.22584E-04-8.59726E-05-2.97360E-03-5.40808E-05 5.04867E-05 4.04985E-05
 -1      1273-2.28636E-04-1.41205E-04-2.88761E-03-7.33265E-05 9.00105E-05 1.06749E-04
 -1      1274-1.32434E-04-1.53837E-04-3.10912E-03-6.50961E-05-7.74749E-06-1.97814E-05
 -1      1275-2.60732E-04-2.47038E-04-3.27314E-03-1.21852E-05-6.37519E-06-2.00014E-06
 -1      1276-7.10434E-05-6.68330E-05-3.03340E-03-5.25825E-05 1.21602E-05 3.08578E-06
 -1      1277-7.49193E-05-5.44529E-05-3.07991E-03 1.65785E-06 1.39475E-05 8.84302E-06
 -1      1278-1.10502E-04-1.20271E-04-3.17817E-03-1.69440E-05 9.55721E-06-5.29386E-07
 -1      1279-4.22329E-04-5.02110E-04-3.11422E-03-8.51580E-05-1.17534E-04-1.58007E-04
 -1      1280-3.14540E-05-3.43265E-05-2.95744E-03-4.36303E-05-3.30542E-05-4.85135E-05
 -1      1281-1.88796E-04-2.19320E-04-3.04225E-03-4.51619E-05-3.97891E-05-5.23010E-05
 -1      1282 2.75623E-05-6.72027E-06-2.56014E-03 7.70041E-05 2.20941E-05-1.19286E-05
 -1      1283 4.64323E-06 4.75833E-06-2.52298E-03 5.65050E-05-7.90044E-05 9.43420E-05
 -1      1284-1.17804E-03-1.05975E-03-2.50649E-03 2.02808E-05 4.36692E-04-1.54078E-04
 -1      1285-1.01844E-03-9.53088E-04-2.68318E-03 4.60844E-05 2.96161E-04-2.35679E-04
 -1      1286-1.35938E-03-1.35842E-03-2.51071E-03 5.15268E-07 2.75062E-04-3.14025E-04
 -1      1287-5.74726E-04-5.70907E-04-2.90754E-03 3.36673E-05 1.20785E-04-1.25679E-04
 -1      1288-9.52855E-04-8.93425E-04-3.00793E-03-2.94249E-06 2.37747E-04-7.02070E-05
 -1      1289-1.27140E-03-1.27136E-03-2.65716E-03 1.46987E-05-6.89628E-05-6.68098E-05
 -1      1290-6.19031E-04-6.13585E-04-3.20929E-03-3.19199E-05-5.80461E-05-5.19889E-05
 -1      1291-1.05943E-03-1.02768E-03-2.71202E-03-9.02992E-06-1.80099E-04-1.29620E-04
 -1      1292-1.28447E-03-1.32920E-03-2.73224E-03-1.19428E-05-8.38769E-05-2.40801E-04
 -1      1293-5.28424E-04-5.95996E-04-3.19919E-03-1.54177E-06-6.58564E-05-1.51423E-04
 -1      1294-8.18473E-04-8.61925E-04-3.17743E-03-6.06159E-06 2.75216E-06-1.32150E-04
 -1      1295-3.69523E-04-3.84151E-04-2.97215E-03 7.68770E-05-1.62152E-04 1.65114E-04
 -1      1296-1.34035E-05-1.48965E-05-2.85422E-03 7.09818E-05-2.33739E-05 1.84834E-05
 -1      1297-2.91326E-04-2.59947E-04-3.03882E-03 4.57240E-05-6.53051E-05 6.23280E-05
 -1      1298-1.03144E-04-1.22613E-04-3.20864E-03 1.55646E-05 7.98888E-06 2.06587E-05
 -1      1299-1.20398E-04-1.47024E-04-3.19681E-03 2.64563E-05 1.16632E-05 1.69171E-05
 -1      1300-1.81814E-04-1.66899E-04-3.31406E-03 2.87236E-05-3.37364E-06 7.95148E-06
 -1      1301-1.70814E-04-1.59667E-04-3.22870E-03-1.94061E-07-1.40375E-05-3.37795E-06
 -1      1302-1.34881E-04-1.00304E-04-3.14685E-03 8.27486E-06-1.41522E-05 4.90465E-07
 -1      1303-2.86236E-04-2.85689E-04-3.27411E-03 2.12129E-06-2.73471E-05 2.54102E-05
 -1      1304-1.04902E-03-9.86979E-04-3.16356E-03 1.41101E-05 2.18358E-04 2.86217E-05
 -1      1305-2.95829E-04-1.21625E-04-2.94585E-03-2.46619E-05 1.00121E-04 1.52517E-05
 -1      1306 5.02122E-06 4.45155E-06-2.25904E-03 6.01986E-05 1.81164E-05 7.10378E-06
 -1      1307 8.64804E-05 6.51502E-06-2.60407E-03 7.68213E-05 3.72090E-06 2.79983E-06
 -1      1308 5.09173E-05-1.07879E-05-2.56482E-03 4.09853E-05-2.07366E-06 1.52637E-05
 -1      1309-3.89222E-04-3.24252E-04-2.96687E-03-2.05842E-05-3.93840E-05-4.24956E-05
 -1      1310-9.96626E-05-7.18486E-05-2.64025E-03 3.27419E-05 2.83100E-05 2.52391E-05
 -1      1311-3.53777E-04-8.60159E-04-2.26942E-03 6.19399E-07 1.17661E-04-6.21546E-04
 -1      1312-1.04579E-03-1.12677E-03-2.59398E-03 3.80758E-05 2.52683E-04-5.53779E-04
 -1      1313-1.16793E-03-1.19881E-03-2.30475E-03 3.09359E-05 1.36162E-04-5.09634E-04
 -1      1314-1.25295E-03-1.26632E-03-2.38917E-03 2.35188E-05-1.20614E-04 3.39491E-04
 -1      1315-9.00986E-04-8.98351E-04-3.02799E-03 5.85973E-05-2.08599E-04 2.28256E-04
 -1      1316-8.32251E-04-9.21133E-04-3.05337E-03 6.53462E-06-4.60410E-05 2.18122E-04
 -1      1317-1.26587E-04-1.11075E-04-3.07033E-03 3.32680E-05 3.61433E-05-4.75305E-05
 -1      1318-2.03413E-04-2.44672E-04-3.16902E-03 1.24244E-05-1.50385E-05-4.60327E-05
 -1      1319-4.51019E-04-5.19585E-04-3.22181E-03 5.93349E-06 2.79168E-05-9.15534E-05
 -1      1320-3.81890E-04-3.91573E-04-3.21290E-03 2.02203E-05 2.98048E-05-5.31480E-05
 -1      1321-3.09957E-04-3.26414E-04-3.18064E-03-1.59784E-05-5.00427E-05-5.98401E-05
 -1      1322-2.01059E-04-2.04546E-04-3.23897E-03 1.50463E-05-1.43016E-05-1.51736E-05
 -1      1323-8.31976E-04-4.44592E-04-2.91486E-03 3.46427E-06 2.22308E-04-4.96512E-05
 -1      1324-6.44160E-04-3.54897E-04-2.97375E-03 2.66240E-05 2.30839E-04-1.92061E-04
 -1      1325-1.90862E-04-5.85044E-05-2.57332E-03 1.71276E-05 3.12854E-06-6.24841E-05
 -1      1326-2.80000E-04-3.62981E-04-2.89184E-03-2.13479E-05-6.70358E-05-4.72051E-05
 -1      1327-2.44216E-04-2.89286E-04-2.87666E-03-3.74102E-05-9.11441E-05-7.21141E-06
 -1      1328-2.78447E-04-4.46681E-04-2.71578E-03-7.13107E-06-5.74275E-05-1.14189E-04
 -1      1329-3.05638E-04-5.05801E-04-2.87450E-03-1.39943E-05-2.74438E-05-2.37138E-04
 -1      1330-2.82389E-04-4.15844E-04-2.66310E-03 2.88114E-05 1.78570E-06-1.87529E-04
 -1      1331-3.44803E-04-4.61640E-04-3.04431E-03 2.01294E-05-4.69308E-05 1.47215E-04
 -1      1332-1.57201E-04-1.58545E-04-2.97914E-03 5.51655E-05-5.94369E-05 4.47383E-05
 -1      1333-4.29801E-04-3.73915E-04-3.27714E-03 2.83159E-05 6.28542E-05-3.99638E-05
 -1      1334-2.38461E-04-2.14144E-04-3.26323E-03 1.39916E-05 6.54742E-06 1.56419E-06
 -1      1335-3.58774E-04-3.52783E-04-3.30995E-03-9.65709E-06-2.78138E-06-9.15554E-06
 -1      1336-2.17527E-04-2.01385E-04-3.32542E-03-1.21609E-05 6.30890E-06-4.10718E-07
 -1      1337-1.45170E-04-1.62405E-04-3.19608E-03-2.36571E-05 5.86679E-07 4.37267E-06
 -1      1338-2.27087E-04-2.21802E-04-3.29790E-03-1.80313E-05-9.11969E-06 3.20203E-06
 -1      1339-1.34169E-04-1.05313E-04-3.23065E-03 4.23411E-06-1.10956E-06-1.10382E-05
 -1      1340-8.07857E-05-7.83219E-05-3.08286E-03-1.55487E-05 1.46680E-05-3.18915E-06
 -1      1341-1.36443E-04-1.23657E-04-3.17465E-03-1.07052E-05 1.97038E-05 1.00709E-05
 -1      1342-9.66274E-04-1.03323E-03-2.69042E-03-3.73964E-05-2.22903E-04-2.78960E-04
 -1      1343-1.21638E-03-1.35774E-03-2.52234E-03-1.44289E-05-8.55686E-05-4.38762E-04
 -1      1344-1.17113E-03-1.30286E-03-2.48092E-03-2.04633E-05-2.06898E-04-4.85649E-04
 -1      1345-2.07754E-04-1.96057E-04-2.85888E-03 3.53200E-05-1.78982E-05 7.07850E-05
 -1      1346-4.37906E-06-6.93346E-05-2.69282E-03 7.26818E-05 4.01869E-05 3.86974E-05
 -1      1347-1.17978E-04-1.31922E-04-3.09514E-03-4.44811E-05 2.22437E-05 1.88200E-05
 -1      1348-4.90662E-05-3.36603E-05-2.90841E-03-7.68138E-05 8.12892E-06 3.32714E-05
 -1      1349-2.99185E-04-2.76818E-04-3.23516E-03-3.44013E-05 5.21619E-05 4.20980E-05
 -1      1350-1.93141E-04-2.10965E-04-2.74902E-03-6.55831E-05-1.40845E-04-5.96038E-05
 -1      1351-4.57207E-04-7.35892E-04-2.95852E-03-4.99092E-05-1.44062E-04-3.16967E-04
 -1      1352-1.23512E-03-1.14600E-03-2.55738E-03 3.03077E-08 3.52714E-04-4.55965E-05
 -1      1353-1.41912E-03-1.42687E-03-2.52713E-03 1.10552E-06 2.08958E-04-1.73672E-04
 -1      1354-7.76204E-04-7.26720E-04-2.44264E-03 1.92922E-05-2.75043E-04 8.83762E-05
 -1      1355-1.01029E-03-9.37353E-04-2.30697E-03-1.00942E-05-3.72224E-04 9.96628E-06
 -1      1356-2.76196E-04-2.70108E-04-2.75984E-03-8.84488E-05-7.86833E-05-1.43414E-04
 -1      1357 6.20794E-05-3.37162E-05-2.63505E-03-7.16115E-05-4.34156E-06-4.86348E-06
 -1      1358-5.48185E-04-5.91035E-04-3.12355E-03-1.63023E-05-4.44777E-05-5.08336E-05
 -1      1359-5.10093E-04-5.20736E-04-3.07349E-03 2.51730E-05 6.29952E-05-1.58364E-05
 -1      1360-4.33772E-04-4.35489E-04-3.08213E-03 5.22388E-06-3.06187E-05 1.77642E-06
 -1      1361-4.32140E-04-4.11787E-04-3.12328E-03-5.22054E-06 3.35497E-05 1.01734E-05
 -1      1362-8.23950E-04-7.83018E-04-2.48348E-03-3.33744E-05-2.51827E-04-2.27252E-04
 -1      1363-9.18212E-04-1.01590E-03-2.39772E-03-2.12019E-05-1.88934E-04-3.45045E-04
 -1      1364 9.90936E-06 4.38263E-05-2.50049E-03-7.61745E-05-4.57765E-06 3.42548E-05
 -1      1365 1.14557E-05 9.01672E-06-2.49063E-03-6.99649E-05-6.91898E-05-5.97705E-05
 -1      1366-2.59220E-05 2.13671E-05-2.56389E-03-5.38973E-05-1.61284E-05 1.74755E-05
 -1      1367-5.40118E-04-5.28429E-04-3.12208E-03-2.54653E-05 6.25830E-05 7.97680E-05
 -1      1368-3.85850E-04-4.26983E-04-3.15213E-03-1.96227E-07-2.50525E-05 4.95702E-05
 -1      1369-1.68605E-04-2.12243E-04-3.10879E-03-2.11326E-05 2.32733E-05 6.06778E-05
 -1      1370-2.02252E-04-2.21979E-04-3.23568E-03 2.69266E-07 1.22781E-05 3.10908E-05
 -1      1371-2.34405E-04-2.15753E-04-2.68856E-03-7.18134E-05 8.75961E-05 1.74840E-04
 -1      1372-4.40067E-05-7.68129E-05-2.63698E-03-4.42547E-05-3.57380E-05 7.00545E-05
 -1      1373-6.13817E-04-4.63803E-04-2.86184E-03 2.26916E-05-1.72661E-04 4.52083E-05
 -1      1374-7.24637E-04-7.51333E-04-2.23199E-03-4.97086E-05-3.66628E-04-3.60718E-04
 -1      1375-1.09075E-03-1.23172E-03-2.63778E-03-7.00278E-06 5.38093E-05-5.06366E-04
 -1      1376-8.05187E-04-7.50058E-04-2.45547E-03-2.30201E-05-2.85577E-04-9.96770E-05
 -1      1377-1.11267E-03-1.03544E-03-2.32119E-03 3.07038E-06-3.85129E-04-3.14640E-05
 -1      1378-6.35485E-06 9.37760E-06-2.24876E-03-6.80543E-05 2.07626E-05 3.51789E-06
 -1      1379-1.08896E-04-1.10548E-04-2.63521E-03-4.79911E-05-6.71302E-05-6.49495E-05
 -1      1380 5.06894E-05 2.89569E-05-2.49325E-03-8.09641E-05 3.38717E-05 2.01385E-05
 -1      1381-1.79361E-04-1.87309E-04-3.28747E-03 1.29114E-05 3.08745E-06 2.32525E-06
 -1      1382-2.02465E-04-1.91632E-04-3.20555E-03-7.64060E-06-3.59484E-05-2.20298E-05
 -1      1383-4.38851E-04-4.02760E-04-3.27733E-03-1.76542E-05-4.91543E-05-1.89581E-05
 -1      1384-1.82074E-04-1.70641E-04-3.25361E-03 2.68288E-06-2.07765E-06 5.07669E-06
 -1      1385-9.27655E-05-9.30085E-05-3.11837E-03 8.92641E-06-2.15279E-05 1.40903E-05
 -1      1386-7.80430E-04-7.49069E-04-2.46829E-03 4.66146E-05-2.46196E-04 2.11751E-04
 -1      1387 1.89254E-04 9.25865E-05-2.50675E-03-3.13381E-05 4.15167E-05-3.17853E-06
 -1      1388-6.52553E-05-1.38163E-05-2.96950E-03-3.04368E-05 2.63852E-06-7.29563E-06
 -1      1389-4.56496E-05-8.38039E-06-2.89633E-03-6.67335E-05 4.94595E-06 2.01457E-05
 -1      1390-5.25947E-04-5.71824E-04-2.93335E-03 2.58128E-05 1.15848E-04-1.59140E-04
 -1      1391-8.89978E-05-7.07180E-05-3.01162E-03-4.27279E-05 4.45743E-05 1.44687E-05
 -1      1392-1.61964E-04-1.64556E-04-3.09210E-03-3.43857E-05 4.43394E-05 3.26720E-05
 -1      1393-4.09482E-04-3.87783E-04-3.30084E-03-3.18829E-05 7.16178E-05 3.98289E-05
 -1      1394-4.24857E-04-7.66925E-04-3.10370E-03-3.06512E-05-2.28587E-04-2.64719E-04
 -1      1395-3.23178E-04-8.23364E-04-2.91566E-03-4.36454E-05-3.93439E-05-2.62990E-04
 -1      1396-5.58743E-05-7.83901E-05-2.64282E-03-4.61159E-05-2.38592E-05 5.97049E-05
 -1      1397-2.04508E-04-1.27073E-04-2.85389E-03-6.57974E-05 1.22039E-04 1.23246E-04
 -1      1398-2.72184E-04-2.67886E-04-2.74952E-03-7.60236E-05 9.80050E-05 1.51687E-04
 -1      1399-6.03187E-05-1.00930E-04-2.61845E-03-9.13288E-05-3.42595E-05 6.20667E-05
 -1      1400 1.71518E-05 4.87227E-05-2.60006E-03-1.06751E-04 1.09406E-04 1.47019E-04
 -1      1401-9.92160E-05-4.38741E-05-2.83925E-03-6.80593E-05 2.17185E-05 3.04718E-05
 -1      1402-3.98174E-04-4.99677E-04-3.02634E-03-4.39135E-05 7.14974E-05 1.69849E-04
 -1      1403-7.26855E-04-7.69198E-04-3.07663E-03-1.81975E-05 3.95823E-05 1.45553E-04
 -1      1404-1.09373E-04-2.85257E-04-2.89194E-03 1.41457E-05-2.28537E-05 1.33356E-04
 -1      1405-2.59038E-04-2.98145E-04-2.71942E-03 6.19723E-05-1.53143E-04 8.61943E-05
 -1      1406-5.98461E-05-2.10342E-05-2.59025E-03 3.93988E-05-7.90154E-05-3.41795E-05
 -1      1407-6.68338E-04-1.26665E-04-2.04639E-03 1.51920E-05 5.60251E-04-1.22394E-04
 -1      1408-1.19020E-03-1.11016E-03-2.63543E-03 3.51549E-05 5.20848E-04-2.43447E-04
 -1      1409-1.28570E-03-1.12229E-03-2.60068E-03-1.62645E-06 5.53541E-04-4.01195E-05
 -1      1410-2.07832E-04-2.09857E-04-3.16070E-03-2.34096E-05-5.61089E-05-4.55137E-05
 -1      1411-5.54249E-04-5.57112E-04-3.14570E-03 2.34107E-05-6.36121E-05 5.04080E-05
 -1      1412-2.83939E-04-2.94399E-04-3.22758E-03 2.84629E-05-5.81265E-05 5.66610E-05
 -1      1413-3.48499E-04-3.03117E-04-3.18170E-03 3.07875E-05-7.66359E-05 2.98984E-05
 -1      1414-1.24018E-04-8.11615E-05-3.05644E-03 2.87417E-05-3.04565E-05 3.74598E-05
 -1      1415-5.67392E-04-5.60193E-04-2.87086E-03 3.81764E-05-1.08300E-04 1.62926E-04
 -1      1416-4.48622E-05-5.78811E-06-2.52828E-03 7.07419E-05 7.25440E-05 3.76538E-05
 -1      1417-1.63343E-04-1.84790E-04-2.98490E-03 9.52584E-05 3.59436E-05-4.06920E-05
 -1      1418 8.63691E-05 6.11660E-05-2.55894E-03 1.13594E-04 1.29068E-04-1.12809E-04
 -1      1419-8.69608E-04-8.96145E-04-2.34058E-03-4.99845E-05 3.87525E-04 3.78920E-04
 -1      1420-1.34924E-03-1.39680E-03-2.47649E-03-4.43016E-06 2.72524E-04 3.21310E-04
 -1      1421-6.58096E-04-6.57490E-04-2.10995E-03 5.68712E-05-3.37858E-04 3.66843E-04
 -1      1422-1.14023E-04-1.23629E-04-3.14372E-03-1.12474E-05-4.69377E-06-7.63711E-06
 -1      1423-1.28360E-04-1.19297E-04-3.12154E-03-2.02673E-05-1.99930E-05-8.44542E-06
 -1      1424-7.31261E-04-7.77829E-04-2.21676E-03-4.19316E-05-3.53111E-04-3.46801E-04
 -1      1425-9.93094E-04-9.56514E-04-2.44631E-03 4.22258E-05-3.90340E-04 5.40174E-04
 -1      1426-1.13411E-04-1.08670E-04-3.03451E-03 3.49620E-05-3.58380E-05 2.74346E-05
 -1      1427-5.05885E-04-4.46268E-04-3.22856E-03 1.58187E-05-8.29958E-05 9.27502E-06
 -1      1428-3.95386E-04-4.02271E-04-3.28852E-03 2.98435E-05-4.79432E-05 6.93981E-05
 -1      1429-8.47781E-04-8.65105E-04-2.96445E-03 9.00671E-06 5.80029E-05-8.06921E-05
 -1      1430-1.36669E-03-1.38527E-03-2.52251E-03 1.42838E-05-2.13612E-05-2.01746E-04
 -1      1431-9.83429E-04-9.10501E-04-2.31685E-03-2.65411E-05-3.59983E-04-2.44800E-04
 -1      1432-3.55519E-04-3.58140E-04-3.33277E-03 1.27078E-05 1.47043E-05 2.17817E-05
 -1      1433-8.85682E-05-1.29569E-04-3.10961E-03-3.88537E-06-6.69604E-07 2.39244E-05
 -1      1434-2.18212E-04-1.96829E-04-2.71112E-03 7.34752E-05 8.51719E-05-1.51744E-04
 -1      1435-2.70014E-05-4.68136E-05-2.57810E-03 3.26995E-05-3.99975E-05-7.37942E-05
 -1      1436-1.30175E-03-1.32133E-03-2.40803E-03-5.02157E-06-2.88174E-04 1.47381E-04
 -1      1437-1.21541E-03-1.26342E-03-2.36120E-03 1.82974E-05-2.59081E-04 3.13816E-04
 -1      1438-7.42717E-04-7.17281E-04-3.10383E-03 3.90715E-05-1.42684E-04 1.38417E-04
 -1      1439-3.14508E-04-3.50166E-04-3.18265E-03 3.40807E-05 6.32678E-05-6.42126E-05
 -1      1440-2.58127E-04-3.61533E-04-3.13263E-03 7.54710E-06-1.30223E-05-6.78504E-05
 -1      1441-7.54182E-05-9.87072E-05-3.08441E-03 3.65701E-05 6.39231E-06-1.85783E-05
 -1      1442-1.18938E-03-1.19465E-03-2.58036E-03-2.76696E-06-5.66855E-05 6.43367E-05
 -1      1443-1.25598E-03-1.20509E-03-2.54394E-03-1.29021E-05-2.40577E-04 1.82439E-05
 -1      1444-2.44768E-04-2.41204E-04-2.74448E-03 8.21616E-05-6.84718E-05 1.41236E-04
 -1      1445-5.46528E-04-4.07738E-05-2.04309E-03-1.97554E-05 5.99939E-04 4.18743E-04
 -1      1446-8.64132E-04-4.31033E-04-2.33022E-03-4.96684E-05 6.26687E-04 2.29992E-04
 -1      1447-5.93456E-04-3.82165E-04-3.03308E-03-3.92733E-05 2.46073E-04 3.03687E-04
 -1      1448-8.03409E-04-8.08219E-04-2.30291E-03-3.52828E-05 5.39914E-04 3.90254E-04
 -1      1449 1.41247E-04 3.39522E-05-2.53797E-03-3.32433E-05 7.76491E-06-2.58392E-06
 -1      1450-1.37938E-03-1.33919E-03-2.60715E-03 1.25529E-05-2.57616E-04-4.05263E-05
 -1      1451-9.46174E-04-9.13949E-04-3.12170E-03 6.01840E-06-1.31073E-04 3.19983E-05
 -1      1452 1.53801E-05-1.27029E-05-3.03119E-03-1.00515E-05 4.11443E-06-3.78682E-06
 -1      1453-4.61840E-05-3.48752E-05-2.74235E-03-1.15201E-04-7.70258E-05-5.83878E-05
 -1      1454-9.12272E-04-9.09895E-04-3.04639E-03-5.97175E-06-2.74701E-05 9.46124E-05
 -1      1455-5.12419E-04-5.48704E-04-3.04832E-03 3.01349E-05-6.84969E-05 1.22267E-04
 -1      1456-9.47487E-04-1.05603E-03-3.14539E-03 5.36932E-06-1.86421E-05 2.61897E-04
 -1      1457-1.91427E-04-2.15441E-04-2.74007E-03 7.65493E-05 1.81457E-04-7.05940E-05
 -1      1458-7.77074E-05-4.20675E-05-2.76803E-03 1.13078E-04 6.59959E-05-7.38054E-05
 -1      1459-6.77866E-06 2.40676E-05-2.60521E-03 8.03861E-05 6.03758E-05 3.91488E-05
 -1      1460-1.89225E-04-2.04814E-04-2.82543E-03 3.34015E-05 8.17010E-05 2.45774E-05
 -1      1461 2.43408E-05-1.07618E-06-2.87385E-03 7.93600E-05 8.95013E-06-2.21147E-05
 -1      1462-1.37569E-04-1.83196E-04-2.84854E-03 7.55714E-05 1.20858E-04-1.16153E-04
 -1      1463-1.09696E-04-9.75412E-05-3.24858E-03 1.41714E-06 6.96202E-08-1.78568E-05
 -1      1464-1.10118E-04-1.05497E-04-3.20005E-03 6.56870E-06 8.95673E-06 5.24338E-06
 -1      1465-8.23941E-04-3.26883E-04-2.21700E-03 9.16897E-06-6.55958E-04 2.69883E-04
 -1      1466-4.06754E-04 8.68748E-05-1.92999E-03 1.32878E-05-5.70866E-04 3.86357E-04
 -1      1467-6.84263E-04-3.67089E-04-2.95161E-03 3.35781E-05-2.74766E-04 2.15861E-04
 -1      1468-6.60030E-04-4.58636E-04-3.06004E-03 4.19224E-05-1.86861E-04 3.02998E-04
 -1      1469-9.00426E-04-8.35408E-04-2.35089E-03 3.75172E-05-5.60044E-04 4.10918E-04
 -1      1470-5.13277E-04-6.91747E-04-3.07560E-03-6.44796E-05 1.37890E-04 2.55958E-04
 -1      1471-1.04869E-03-1.11532E-03-2.53620E-03-8.61785E-06 1.86046E-04 3.52703E-04
 -1      1472-6.87477E-04-7.68374E-04-2.92232E-03 2.44208E-06 6.86100E-05 1.88656E-04
 -1      1473-1.03972E-03-6.17949E-04-2.52317E-03-2.41597E-05-6.09851E-04-2.79444E-04
 -1      1474-5.05882E-04 2.99102E-05-1.99080E-03-2.22610E-05-5.61994E-04-4.10749E-04
 -1      1475-6.50790E-04-4.32987E-04-3.01284E-03-4.00537E-05-2.17021E-04-2.72913E-04
 -1      1476-8.51870E-04-8.36872E-04-2.37769E-03-5.40793E-05-5.31434E-04-3.85062E-04
 -1      1477-7.78440E-04-5.26590E-04-3.09026E-03-4.72827E-05-2.27085E-04-1.67875E-04
 -1      1478-5.83897E-04-3.94793E-04-2.97820E-03 3.27845E-05-1.88440E-04 5.58644E-05
 -1      1479-6.11502E-05-9.09052E-05-2.68711E-03 7.25048E-05-2.77833E-05-6.04441E-05
 -1      1480-6.23602E-05-5.00812E-05-2.90236E-03 7.38408E-05 5.60590E-06-1.27469E-05
 -1      1481-1.08046E-04-1.41538E-04-3.05865E-03-2.31945E-05-1.62580E-05-3.87108E-05
 -1      1482-1.05663E-03-9.36182E-04-2.40532E-03-1.84424E-05-5.06104E-04-2.65153E-04
 -1      1483-9.02587E-04-6.20234E-04-3.14289E-03-6.04350E-06-2.22138E-04-1.01224E-04
 -1      1484-8.89992E-04-8.56601E-04-2.36145E-03 4.69077E-05 3.95760E-04-3.54330E-04
 -1      1485-8.32383E-04-8.28475E-04-3.01440E-03 6.68438E-05 2.10183E-04-2.21871E-04
 -1      1486-3.11786E-05-3.98343E-05-2.88649E-03-7.64277E-05 7.51033E-06 8.72036E-06
 -1      1487-1.18575E-04-1.06244E-04-2.95649E-03-6.12052E-05 4.99496E-05 3.88169E-05
 -1      1488-8.54457E-05-1.03650E-04-3.04819E-03-4.60743E-05 8.09048E-06-9.55883E-06
 -1      1489 4.44820E-05 9.03986E-05-2.52735E-03-3.41592E-05-4.59906E-05 4.49752E-05
 -1      1490 1.22837E-05 1.28128E-05-2.60358E-03-1.69361E-05-2.82880E-05 1.50795E-05
 -1      1491-8.60186E-05-1.13011E-04-3.01531E-03-6.61768E-05-2.75768E-07 8.39450E-06
 -1      1492-2.82838E-05-2.25248E-06-2.83084E-03-7.20197E-05 4.43173E-05 2.07829E-05
 -1      1493-8.55406E-04-3.54449E-04-2.20587E-03 2.67277E-05-6.02427E-04 1.25900E-04
 -1      1494-1.14333E-03-1.04463E-03-2.53187E-03 3.86392E-05-5.26047E-04 2.62205E-04
 -1      1495-2.08040E-04-1.81662E-04-3.09956E-03-3.09338E-05 1.76160E-05 4.74341E-06
 -1      1496-3.06058E-05-5.33709E-04-2.03228E-03 9.38212E-06 4.05641E-04-5.98734E-04
 -1      1497-4.41439E-04-8.86179E-04-2.38864E-03 3.75087E-05 2.21531E-04-6.66425E-04
 -1      1498-3.87816E-04-6.02556E-04-3.03391E-03 5.02286E-05 3.18712E-04-2.37618E-04
 -1      1499-8.45282E-04-8.37275E-04-2.34724E-03 2.78424E-05 3.91572E-04-5.31245E-04
 -1      1500-8.03923E-04-9.88975E-04-3.24156E-03 3.24560E-05 1.52194E-04-3.42564E-04
 -1      1501-3.36491E-04-5.44473E-04-2.79236E-03 4.93173E-06 1.04946E-04-1.08665E-04
 -1      1502-1.88453E-04-4.20819E-04-2.84222E-03 2.65083E-05 5.82368E-05-1.90431E-04
 -1      1503-5.86154E-04-6.26867E-04-2.93461E-03-3.19877E-05 1.37157E-04 1.44843E-04
 -1      1504-9.54520E-04-9.69891E-04-3.06632E-03 3.73658E-07 8.04130E-05 8.08692E-05
 -1      1505-8.00047E-04-9.13640E-04-2.94610E-03-2.78069E-06 1.03277E-04 2.27050E-04
 -1      1506-1.35876E-03-1.36615E-03-2.48372E-03 3.64092E-06-1.47529E-04 1.60820E-04
 -1      1507-9.52562E-04-8.82323E-04-2.97560E-03-2.06253E-05-2.09452E-04 6.21131E-05
 -1      1508-1.06639E-03-1.00742E-03-2.47954E-03 4.73331E-05-4.02258E-04 3.85850E-04
 -1      1509 3.32143E-05 1.88477E-05-2.93851E-03-3.73242E-05-5.89746E-06 5.96982E-07
 -1      1510-1.45969E-04-1.30054E-04-2.95151E-03-4.72812E-05 3.27492E-05 6.36798E-05
 -1      1511-4.02639E-04-4.64094E-04-3.27481E-03-1.80658E-05 2.58077E-05 7.55526E-05
 -1      1512-1.06342E-03-1.09332E-03-3.19425E-03 4.46421E-05-1.98245E-04 2.58704E-04
 -1      1513 3.16427E-05-8.91033E-06-2.58181E-03 7.83378E-05-2.53670E-05-1.33603E-05
 -1      1514-5.87310E-06 2.53728E-05-2.56786E-03 7.84334E-05-4.27394E-06 2.09666E-05
 -1      1515 6.53352E-06-1.53050E-05-2.27301E-03 5.93976E-05-7.21533E-06 1.75555E-05
 -1      1516-1.60477E-06-1.15907E-05-2.51250E-03 8.18827E-05 5.65385E-05-8.32845E-05
 -1      1517-9.39258E-05-7.27409E-05-2.60737E-03 6.15778E-05 7.30022E-05-6.51684E-05
 -1      1518-7.02988E-04-5.24092E-04-3.10955E-03 7.10856E-05 2.34638E-04-1.49951E-04
 -1      1519-2.63866E-04-2.30083E-04-2.76889E-03 5.94513E-05 9.97107E-05-1.45617E-04
 -1      1520-2.86192E-04-1.36688E-04-2.70486E-03 3.59434E-05 7.88593E-05-8.36184E-05
 -1      1521-2.31771E-04-7.55254E-05-2.90235E-03 3.70485E-05 9.42770E-05-2.51216E-05
 -1      1522-4.96683E-05-6.23249E-05-2.72790E-03 3.88891E-05-3.96792E-05-5.11557E-05
 -1      1523-1.12951E-04-7.91675E-05-2.82077E-03 7.52662E-05 9.43966E-05-9.84667E-05
 -1      1524-4.33904E-04 8.52856E-05-1.93350E-03 1.84231E-05 5.64278E-04-3.91554E-04
 -1      1525-8.22553E-04-3.11648E-04-2.25347E-03 7.86054E-06 6.15428E-04-2.64640E-04
 -1      1526-7.72136E-04-7.42477E-04-2.27360E-03 4.64069E-05 5.44908E-04-3.76337E-04
 -1      1527-6.66479E-04-4.68906E-04-3.07734E-03 5.48294E-05 1.98882E-04-2.73577E-04
 -1      1528-9.17015E-04-9.99525E-04-2.43540E-03-5.54876E-05-2.34553E-04-5.39266E-04
 -1      1529-1.14295E-05-4.94841E-04-1.87350E-03-5.02137E-05-1.38770E-04-6.32840E-04
 -1      1530-1.05656E-03-1.25045E-03-2.40777E-03-1.81594E-05-6.45699E-05-6.27783E-04
 -1      1531 5.67720E-06-7.54877E-05-2.70616E-03 8.04771E-05-1.78753E-05-8.94075E-06
 -1      1532 2.92727E-05-3.32737E-05-2.69448E-03 4.17346E-05-1.14948E-06-7.59726E-06
 -1      1533-9.65117E-05-1.43050E-04-3.05720E-03-3.90913E-05 6.82780E-06 2.11899E-05
 -1      1534-7.86207E-04-7.63667E-04-2.27976E-03 4.96788E-05-3.68078E-04 5.19082E-04
 -1      1535-3.87900E-04-6.00872E-04-3.00193E-03 1.99615E-05-2.83860E-04 2.53136E-04
 -1      1536-2.27499E-04-7.27169E-04-2.12319E-03-1.16632E-05-3.84003E-04 5.83309E-04
 -1      1537-8.44251E-04-1.00882E-03-2.66369E-03 3.02696E-05-2.75995E-04 4.60153E-04
 -1      1538 1.67526E-05-3.16122E-04-2.79375E-03 5.14684E-05-2.03927E-04 1.16484E-04
 -1      1539-5.39081E-04-6.48018E-04-3.33320E-03 7.12796E-05-1.32442E-04 1.84700E-04
 -1      1540-1.31179E-03-1.31556E-03-2.46121E-03 2.45827E-05-2.87167E-04 2.83399E-04
 -1      1541 1.33803E-05-2.63180E-06-2.56021E-03-8.12751E-05 1.86598E-05 1.12157E-05
 -1      1542-8.25623E-06 2.21941E-05-2.56452E-03-7.76665E-05-5.84676E-06 2.37174E-05
 -1      1543-9.74703E-06-4.81417E-06-2.26187E-03-6.97084E-05 1.81036E-05-1.11809E-05
 -1      1544-2.97156E-05-1.55124E-05-2.53652E-03-6.75585E-05-6.79828E-05-8.01279E-05
 -1      1545 2.57437E-05 2.25811E-05-2.47503E-03-8.47026E-05-8.10402E-05-7.60910E-05
 -1      1546-5.52081E-04-9.11904E-04-3.11979E-03-1.69367E-05 6.67610E-05 2.23467E-04
 -1      1547-9.76625E-04-1.11852E-03-2.51916E-03-1.57512E-06 7.34090E-05 5.21313E-04
 -1      1548-1.85737E-04-6.95169E-04-2.06889E-03-9.88241E-06 1.30674E-04 6.02720E-04
 -1      1549-3.43276E-04-6.56564E-04-2.94057E-03-3.73760E-05 2.17383E-04 2.41513E-04
 -1      1550-1.07327E-03-1.16090E-03-2.56496E-03-3.64899E-05 2.57578E-04 5.45027E-04
 -1      1551-1.24461E-04-1.49990E-04-3.20469E-03 5.93056E-06 9.65783E-06-3.04815E-06
 -1      1552-1.14868E-03-1.05902E-03-2.36691E-03-3.67357E-06-5.21463E-04 9.23991E-05
 -1      1553-1.10531E-03-7.46293E-04-3.12264E-03 1.03974E-05-3.19269E-04 9.20779E-05
 -1      1554-8.20991E-04-6.91760E-04-3.04319E-03 5.18662E-05-2.94263E-04 1.69398E-04
 -1      1555-2.30711E-04-2.29773E-04-3.34812E-03 2.40082E-05 3.21394E-06-1.09401E-05
 -1      1556-4.55664E-04-1.23339E-06-1.94604E-03-1.09494E-05-5.76563E-04-1.15241E-04
 -1      1557-1.02700E-03-9.28801E-04-2.34608E-03-2.77704E-06-4.96666E-04-1.16104E-04
 -1      1558-1.14328E-04-1.54788E-04-2.74487E-03 8.80794E-06 7.10943E-06-1.34717E-05
 -1      1559 1.94483E-04-3.44950E-04-1.85012E-03 1.68542E-06-3.90859E-04-5.38723E-04
 -1      1560-2.73695E-04-7.87331E-04-2.23264E-03-3.64816E-06-2.68580E-04-6.33120E-04
 -1      1561-6.74622E-04-7.40370E-04-2.22642E-03-5.80846E-05-3.78220E-04-5.49464E-04
 -1      1562-6.58569E-04-8.53882E-04-3.20071E-03-4.12723E-05-2.65774E-04-1.83201E-04
 -1      1563-1.00714E-04-1.38282E-04-2.68699E-03 8.59687E-05-1.50861E-05-6.82030E-05
 -1      1564-6.74945E-05-4.41067E-05-2.87492E-03 8.15658E-05 1.04604E-05-2.31331E-05
 -1      1565-1.84358E-04 4.58167E-05-2.50088E-03 3.88768E-06-5.73767E-05 7.07587E-05
 -1      1566-3.24156E-04-3.19064E-04-3.30390E-03 5.85387E-06-8.47263E-06-1.17198E-05
 -1      1567-5.48311E-04-7.21943E-04-3.08566E-03-6.18902E-05-1.33820E-04-2.57126E-04
 -1      1568-3.63806E-04-2.56681E-04-2.80753E-03-1.53689E-05 8.23806E-05 9.64853E-06
 -1      1569 1.89013E-05-2.51342E-05-2.61403E-03-2.73576E-05-5.64992E-05 3.65000E-05
 -1      1570-2.36804E-04-7.72584E-04-2.11887E-03 2.62250E-05-2.64362E-04 6.17965E-04
 -1      1571-7.48844E-04-9.48782E-04-2.59707E-03 2.20555E-05-1.16570E-04 4.88386E-04
 -1      1572-7.58399E-05-6.58031E-05-2.78129E-03 1.01640E-04-5.64510E-05 7.90167E-05
 -1      1573-9.24674E-04-8.21869E-04-2.25044E-03 1.03932E-05 4.06006E-04 5.32025E-05
 -1      1574-1.24308E-03-1.21765E-03-2.34506E-03-4.03153E-06 3.12385E-04 1.54105E-04
 -1      1575-1.33558E-03-1.31883E-03-2.43792E-03-1.41945E-05 2.33687E-04 2.94915E-05
 -1      1576-9.41478E-04-8.80167E-04-3.03931E-03-9.28062E-06 2.49057E-04 8.95554E-05
 -1      1577-1.14388E-03-1.09674E-03-2.38976E-03 5.85164E-06-4.00597E-04 2.04437E-04
 -1      1578-5.98292E-05-1.24927E-04-2.96982E-03-2.09094E-05-6.83994E-06-1.44289E-05
 -1      1579-1.29357E-04-2.68672E-04-2.87415E-03-2.85832E-05 3.81777E-05 1.33871E-04
 -1      1580-1.02438E-04-2.87514E-04-2.65666E-03-2.44910E-05 8.58920E-05 2.85080E-05
 -1      1581-1.52119E-04-2.58908E-04-2.86481E-03-8.39348E-05 1.18206E-04 1.39614E-04
 -1      1582 1.32697E-04-4.06833E-04-1.89395E-03-1.05926E-08 3.93253E-04 5.45055E-04
 -1      1583-3.22522E-04-8.31141E-04-2.27392E-03-2.53367E-06 2.78615E-04 6.30144E-04
 -1      1584-7.81847E-04-8.45264E-04-2.30394E-03-4.73746E-05 4.07706E-04 5.51483E-04
 -1      1585-6.38350E-04-8.54502E-04-3.18005E-03-3.54128E-05 2.83229E-04 1.71832E-04
 -1      1586-1.51071E-04-1.27575E-04-2.39783E-03 9.10083E-05-3.13615E-05 4.38214E-05
 -1      1587 6.48647E-06 2.57859E-05-2.24639E-03 6.14690E-05-4.12708E-05-1.72125E-05
 -1      1588-1.89809E-04-2.04557E-04-2.68756E-03 7.58465E-05-1.79815E-04 7.72350E-05
 -1      1589-3.08511E-04-3.08772E-04-2.81047E-03 6.77459E-05-7.89476E-05 1.74238E-04
 -1      1590-9.28795E-04-4.84002E-04-2.41184E-03-2.91212E-05-6.10068E-04-2.55306E-04
 -1      1591-6.37205E-04-4.35498E-04-3.05029E-03-3.98507E-05-2.33484E-04-2.89884E-04
 -1      1592 2.12594E-05-5.40956E-05-2.65282E-03 2.96500E-05-2.85022E-06 1.32954E-05
 -1      1593 7.85194E-05-2.71892E-05-2.60035E-03 3.11315E-05 1.24438E-05-2.55694E-06
 -1      1594 6.87122E-05-1.51233E-05-2.56941E-03 3.32792E-05 7.65420E-06-1.08638E-05
 -1      1595-6.72597E-05-1.86208E-05-2.84617E-03 4.13849E-05-5.26672E-06-4.55646E-06
 -1      1596-1.39072E-04-1.47847E-04-2.37534E-03-1.03670E-04-4.82849E-05-5.61442E-05
 -1      1597-4.40290E-05-1.69939E-05-2.25447E-03-6.03653E-05-3.68188E-05 2.64870E-05
 -1      1598-2.48742E-04-2.64121E-04-2.74258E-03-7.65433E-05-7.48650E-05-1.55877E-04
 -1      1599-2.09049E-04-2.15348E-04-2.73162E-03-7.81381E-05-1.40024E-04-7.03979E-05
 -1      1600-2.05273E-04-7.37691E-04-2.12041E-03-1.68388E-05-1.36609E-04-6.06444E-04
 -1      1601-5.39860E-04-9.17153E-04-3.08199E-03-1.70072E-05-8.48735E-05-2.39708E-04
 -1      1602-9.29991E-04-1.07243E-03-2.45954E-03-1.59581E-05-9.43525E-05-5.31077E-04
 -1      1603-1.02559E-03-1.12769E-03-2.56423E-03-3.21609E-05-2.54785E-04-5.54328E-04
 -1      1604-3.76815E-04-6.78494E-04-2.98429E-03-3.06125E-05-1.91625E-04-2.36274E-04
 -1      1605-1.14942E-03-1.23592E-03-3.17390E-03 4.91184E-06 6.32615E-05-3.09452E-04
 -1      1606-4.89291E-04-3.77385E-04-2.86761E-03 3.83931E-05-1.79263E-04 1.05397E-04
 -1      1607-5.65840E-04-4.93742E-04-3.04084E-03 1.28673E-05-1.25714E-04 6.01612E-05
 -1      1608-1.07305E-03-1.07164E-03-2.93649E-03-1.57292E-05 1.34984E-04-2.32704E-05
 -1      1609-9.11777E-04-1.06922E-03-2.40008E-03-1.89790E-05 8.22560E-05 5.63892E-04
 -1      1610-5.99659E-04-9.61314E-04-3.07931E-03-6.95794E-06 9.92684E-05 2.39935E-04
 -1      1611-2.49217E-04-7.61223E-04-2.15464E-03-1.11706E-05 1.32582E-04 6.42034E-04
 -1      1612-1.02026E-03-1.09551E-03-2.52700E-03-3.65711E-05 2.55041E-04 5.57681E-04
 -1      1613-4.17802E-04-7.49260E-04-3.03256E-03-2.14653E-05 2.27568E-04 2.62514E-04
 -1      1614-6.18704E-04-7.93634E-04-3.07435E-03-5.69584E-05 1.65210E-04 2.56422E-04
 -1      1615-5.27903E-04 1.01528E-05-2.01458E-03-5.55402E-06-5.58658E-04-4.00605E-04
 -1      1616-8.60837E-04-8.64852E-04-2.37149E-03-3.53467E-05-5.27562E-04-3.86879E-04
 -1      1617-1.32041E-04-1.18390E-04-2.35317E-03 9.84357E-05-6.10866E-05 4.91001E-05
 -1      1618-5.14656E-05-5.61052E-05-2.27451E-03 5.51145E-05 1.53206E-05 4.28419E-05
 -1      1619-4.13080E-05-3.48646E-05-2.54334E-03 5.63196E-05-6.66650E-05 7.04101E-05
 -1      1620-2.09139E-04-2.00726E-04-2.70327E-03 8.09485E-05-7.34726E-05 1.61746E-04
 -1      1621-2.34798E-04-2.43169E-04-2.72227E-03 7.66862E-05-1.62072E-04 7.29331E-05
 -1      1622-4.23207E-04-3.18684E-04-3.06836E-03 3.67839E-05 1.50413E-04-7.47678E-05
 -1      1623-9.21755E-05-9.40499E-05-2.99452E-03 4.49206E-05 1.97462E-05-4.18562E-05
 -1      1624-8.72778E-05-6.39378E-05-2.31832E-03-5.71221E-05-3.31592E-05 2.55505E-05
 -1      1625-2.30504E-04-2.21179E-04-2.77418E-03-6.90765E-05-1.45203E-04-7.94134E-05
 -1      1626-8.41487E-04-3.45875E-04-2.19642E-03 2.34280E-05-6.31487E-04-5.57687E-06
 -1      1627-9.11281E-04-8.22051E-04-2.28461E-03 1.98042E-05 3.22465E-04 1.53789E-05
 -1      1628-1.33056E-03-1.36154E-03-2.44826E-03-9.64926E-06 2.42449E-04 1.66019E-04
 -1      1629-8.72563E-04-4.29276E-04-2.35546E-03 2.99270E-05-6.11525E-04 2.52358E-04
 -1      1630-5.50749E-04-1.85097E-05-2.04276E-03 9.05360E-07-5.76527E-04 3.95046E-04
 -1      1631-8.96964E-04-8.46814E-04-2.37560E-03 4.24455E-05-5.41470E-04 3.86199E-04
 -1      1632-6.89531E-04-4.85753E-04-3.09819E-03 3.08227E-05-2.21583E-04 2.84556E-04
 -1      1633-7.76323E-04-2.53440E-04-2.15530E-03 3.44237E-06 6.29764E-04-1.43905E-04
 -1      1634-7.46179E-04-3.82277E-04-2.99113E-03 1.54041E-05 2.40585E-04-1.05213E-04
 -1      1635-1.16701E-03-1.03814E-03-2.53776E-03 1.06247E-05 5.24420E-04-1.07657E-04
 -1      1636-1.12689E-03-1.06422E-03-2.54392E-03 2.05119E-05 5.28923E-04-2.62769E-04
 -1      1637-6.99989E-04-3.44718E-04-3.01302E-03 2.81720E-05 2.73497E-04-2.22877E-04
 -1      1638-1.37632E-04-1.47977E-04-2.39900E-03-9.67100E-05-4.06081E-05-5.41702E-05
 -1      1639-1.93978E-04-1.88786E-04-2.68066E-03-8.22843E-05-7.04445E-05-1.80948E-04
 -1      1640-1.97425E-04-2.14827E-04-2.70445E-03-5.63069E-05 1.58124E-04 9.05738E-05
 -1      1641-2.65389E-04-4.13728E-04-2.79105E-03-2.92869E-05 6.70933E-05 9.75649E-05
 -1      1642-2.62908E-05 1.24028E-05-2.62841E-03-4.88486E-05 5.65149E-05-6.22468E-05
 -1      1643-1.52082E-05-1.72057E-04-2.75263E-03-3.72880E-05 3.84113E-05 1.18036E-04
 -1      1644-1.36877E-05-2.73701E-05-2.71119E-03-8.09498E-05 1.19469E-04 1.09984E-04
 -1      1645-2.11136E-05-1.93700E-05-2.87150E-03 4.94307E-05 2.12432E-05-3.73240E-05
 -1      1646-3.43686E-04-8.48288E-04-2.27311E-03-1.02948E-05 2.83781E-04 6.43823E-04
 -1      1647-8.08879E-04-8.59994E-04-2.31989E-03-4.65750E-05 4.16778E-04 5.64060E-04
 -1      1648-1.42693E-04-2.88633E-04-2.89678E-03-2.07613E-05-5.42799E-05-1.25844E-04
 -1      1649-3.16808E-05-1.93463E-04-2.59965E-03-4.76644E-06-8.17911E-05-1.28454E-05
 -1      1650-1.63801E-04-2.38390E-04-2.89999E-03-9.47753E-05-1.10480E-04-1.01129E-04
 -1      1651-1.92947E-04-4.24753E-04-2.68611E-03 3.95941E-05 1.30175E-04-1.42218E-04
 -1      1652-4.14501E-04-8.43267E-04-2.96477E-03 2.70766E-05 5.27801E-05-1.98498E-04
 -1      1653-1.32369E-04-1.22411E-04-2.36630E-03 9.32738E-05 4.67332E-05-4.62998E-05
 -1      1654-3.70956E-05-5.56450E-05-2.28502E-03 5.66155E-05-2.95178E-05-3.72840E-05
 -1      1655-2.70334E-04-2.42474E-04-2.73323E-03 7.81725E-05 1.64734E-04-6.79833E-05
 -1      1656-2.70715E-04-2.74449E-04-2.79590E-03 8.17408E-05 7.44176E-05-1.48172E-04
 -1      1657-8.17323E-04-2.61395E-04-2.22869E-03 1.44710E-07 6.36271E-04-2.69783E-04
 -1      1658-4.06720E-04 1.33492E-04-1.90545E-03-3.16657E-06 5.45913E-04-3.91249E-04
 -1      1659-9.16153E-04-7.07796E-04-3.22089E-03 4.39844E-05 1.66930E-04-2.77062E-04
 -1      1660-8.61644E-04-8.04597E-04-2.33759E-03 4.21454E-05 5.36552E-04-4.00767E-04
 -1      1661 3.79828E-05-2.71348E-05-2.64052E-03-3.09330E-05 2.59839E-06 2.24976E-05
 -1      1662-1.01796E-03-9.92632E-04-3.00584E-03-3.69298E-06-1.95555E-04 9.59813E-05
 -1      1663-2.81193E-04-7.95902E-04-2.22744E-03-4.65357E-06-2.83311E-04-6.22229E-04
 -1      1664-7.93859E-04-8.51014E-04-2.33525E-03-3.03590E-05-3.96780E-04-5.44692E-04
 -1      1665-4.23032E-05 3.93308E-05-2.64791E-03 7.54100E-05 5.75468E-06 8.77139E-06
 -1      1666-8.81858E-05-2.42726E-05-2.70397E-03 3.79301E-05 1.08936E-05-5.32557E-06
 -1      1667-8.19429E-04-9.12851E-04-2.29489E-03-3.28640E-05-1.23267E-05-3.62985E-04
 -1      1668-1.28428E-03-1.29644E-03-2.42576E-03 1.23266E-05 4.53111E-05-3.47369E-04
 -1      1669-8.27269E-04-8.44035E-04-2.26854E-03-5.49046E-05 3.72905E-04 3.71589E-04
 -1      1670-7.43337E-04-5.16877E-04-3.06718E-03-6.62125E-05 2.90386E-04 1.58958E-04
 -1      1671-1.15580E-03-1.04742E-03-2.48145E-03 1.10416E-07 3.77050E-04 1.82749E-04
 -1      1672-1.28817E-03-1.27690E-03-2.41914E-03-1.17301E-05 2.72117E-04 3.01517E-04
 -1      1673-8.97065E-04-9.15215E-04-3.04894E-03-6.63986E-05 2.38444E-04 2.28503E-04
 -1      1674 1.34694E-04-3.74993E-04-1.89394E-03-1.46545E-05-4.01489E-04-5.66359E-04
 -1      1675-4.57814E-04-6.66748E-04-3.07914E-03-3.98613E-05-2.80935E-04-1.95081E-04
 -1      1676-3.55012E-05-1.77480E-05-2.48001E-03 8.18397E-05-5.72217E-05 7.17400E-05
 -1      1677 8.25371E-06 2.73010E-06-2.24361E-03 7.21142E-05-4.71444E-07-1.96066E-05
 -1      1678-3.05578E-05 2.06294E-05-2.58086E-03 6.56496E-05 2.68613E-06-2.07345E-05
 -1      1679-3.46132E-05-4.73839E-05-2.62138E-03 7.83870E-05 2.11975E-05 3.80695E-06
 -1      1680-1.03363E-03-1.06601E-03-2.48934E-03 4.64030E-05 2.53176E-04-3.86920E-04
 -1      1681-1.30522E-03-1.32717E-03-2.43866E-03-4.81632E-07 1.36681E-04-3.31319E-04
 -1      1682 1.10903E-04-3.78933E-04-1.90515E-03-1.19050E-05 3.95080E-04 5.76422E-04
 -1      1683-5.19248E-04-7.19704E-04-3.08949E-03-4.42576E-05 2.96359E-04 1.75320E-04
 -1      1684-5.96140E-06-2.58880E-05-2.60720E-03 4.47770E-05-5.07605E-05-2.74560E-05
 -1      1685-3.87802E-04-4.29623E-04-3.12931E-03-1.44197E-05-1.36042E-05-3.98262E-05
 -1      1686-4.90771E-04-4.94371E-04-3.13874E-03-1.15263E-05-9.11144E-06 2.48193E-05
 -1      1687-1.73093E-04-1.50226E-04-3.21817E-03 2.31940E-05-2.65826E-06 8.14783E-07
 -1      1688 3.63664E-05 2.47077E-05-2.99623E-03 1.56392E-05-9.73783E-06 1.60093E-05
 -1      1689-5.40595E-06-2.83459E-05-2.57316E-03-6.97681E-05-2.38205E-05 4.05741E-07
 -1      1690-7.55876E-06 2.85572E-05-2.52487E-03-6.95342E-05-3.83487E-06-1.30998E-05
 -1      1691 4.77616E-06 7.81308E-06-2.24052E-03-6.20308E-05-5.01580E-08-2.05506E-05
 -1      1692-5.65048E-05-5.88864E-05-2.54799E-03-7.84974E-05 7.16264E-05 8.60159E-05
 -1      1693 6.95794E-06-7.06464E-07-2.49935E-03-5.86203E-05 8.11817E-05 7.27392E-05
 -1      1694-3.33450E-05-2.91709E-05-2.71824E-03-1.15871E-04 7.56624E-05 8.36248E-05
 -1      1695-5.78228E-05 3.20993E-05-2.79652E-03 1.63306E-06-1.38032E-06-2.42532E-06
 -1      1696-5.18776E-05 3.98290E-05-2.77159E-03-4.67734E-06 4.80446E-07 1.32750E-05
 -1      1697-1.11048E-04-4.91137E-05-2.76146E-03 4.50694E-06 1.24916E-05-1.31223E-06
 -1      1698 7.35102E-05 2.17698E-05-2.89997E-03-2.12351E-06 2.89258E-06-9.00376E-06
 -1      1699-5.65474E-05 2.57635E-05-2.71185E-03 2.18670E-05 9.32660E-06-9.82802E-06
 -1      1700-1.78873E-05-9.17779E-05-2.63427E-03 8.09194E-05 1.31138E-05-1.36836E-05
 -1      1701-7.04098E-04-5.06732E-04-3.07661E-03-5.39911E-05 1.97299E-04 2.83279E-04
 -1      1702-3.91618E-04-2.94496E-04-2.77384E-03-5.51561E-05 8.86583E-05 1.50668E-04
 -1      1703-1.39171E-03-1.37445E-03-2.51144E-03 5.40841E-06 3.13110E-04-1.64079E-04
 -1      1704-8.98564E-04-8.54997E-04-3.03465E-03 2.48102E-05 2.19207E-04-1.10880E-04
 -1      1705-9.59233E-04-8.69592E-04-2.32657E-03 1.30062E-05 3.82525E-04-7.69934E-05
 -1      1706-1.43448E-03-1.40094E-03-2.51278E-03-1.00129E-05 3.16183E-04 5.49933E-05
 -1      1707-1.01799E-03-9.90139E-04-2.88587E-03 1.16949E-05 1.45661E-04-9.16504E-06
 -1      1708 1.29715E-05-6.75564E-05-2.82199E-03-3.08396E-05-1.38422E-05-1.04882E-05
 -1      1709 5.46410E-05-2.42293E-05-2.73077E-03 2.47927E-06 2.31336E-06-1.25322E-05
 -1      1710 9.71641E-05 3.49620E-05-2.47821E-03 3.51733E-05-2.10704E-05-2.59662E-05
 -1      1711-6.36431E-04-2.79255E-04-2.81032E-03-2.28848E-05 2.50704E-04 1.78735E-04
 -1      1712-1.35488E-03-1.18621E-03-2.67495E-03-1.49360E-06 5.68569E-04 9.08552E-05
 -1      1713-1.04182E-03-6.32465E-04-2.51484E-03-1.70026E-06 6.04239E-04 2.48157E-04
 -1      1714-1.06231E-03-9.93259E-04-2.48538E-03-4.75501E-05 5.54803E-04 2.68752E-04
 -1      1715-1.50477E-03-1.52273E-03-2.64553E-03-7.60480E-07-1.36617E-04 2.24290E-05
 -1      1716-9.72649E-04-9.92441E-04-3.12005E-03 1.17592E-05-3.21912E-05 6.78162E-05
 -1      1717-4.83831E-04-5.41873E-04-2.92284E-03 4.06163E-05 8.24746E-05-1.30177E-04
 -1      1718-4.31726E-05 2.46362E-05-2.64202E-03 3.57131E-05-2.55848E-05 8.75089E-07
 -1      1719-3.97316E-04-3.86307E-04-3.01670E-03-8.63793E-05 1.53024E-04 1.72813E-04
 -1      1720-1.07543E-03-1.24771E-03-2.39412E-03 8.39870E-06 6.97526E-05-4.68676E-04
 -1      1721-2.16985E-04-2.17195E-04-2.72803E-03-6.66462E-05-1.45860E-04-8.62592E-05
 -1      1722-9.16029E-05-4.46611E-05-2.63169E-03-3.78490E-05-6.42862E-05 4.96667E-05
 -1      1723-1.70184E-04-1.40635E-04-3.20063E-03-1.26367E-05-1.46330E-07-7.29418E-07
 -1      1724-1.08120E-04-1.05931E-04-3.12554E-03 3.26180E-05 4.61727E-06-5.13490E-06
 -1      1725-3.37008E-05-5.48241E-04-2.00789E-03 2.57835E-05-1.27608E-04 5.55950E-04
 -1      1726-2.39675E-04-4.85548E-04-2.88266E-03-6.92357E-06-7.99144E-05 5.03043E-05
 -1      1727-5.85995E-05-1.81620E-06-2.66424E-03 6.57775E-05-8.30585E-06-7.38706E-06
 -1      1728 8.37291E-05 1.76464E-05-2.62083E-03-6.63675E-05-1.75530E-06 1.00137E-05
 -1      1729-2.42005E-05-2.43410E-04-2.64803E-03 1.49579E-05 4.68112E-05-5.84678E-05
 -1      1730 1.17326E-05 8.97084E-05-2.57332E-03 3.74059E-05-7.79475E-06 1.88721E-05
 -1      1731 2.24440E-05-1.64644E-05-2.84315E-03 5.11710E-05 8.24851E-06-5.92753E-06
 -1      1732-4.91026E-05 5.31582E-05-2.66595E-03 4.00796E-05 1.45290E-07 9.20435E-06
 -1      1733-3.19958E-04-2.03668E-04-2.70669E-03 9.46104E-06 1.06602E-04-1.93653E-05
 -1      1734-1.27239E-04-1.27463E-04-3.12155E-03 7.52738E-05-7.90979E-06 6.95321E-06
 -1      1735-2.29715E-04-2.41995E-04-2.75488E-03-8.08383E-05 1.46863E-04 8.88729E-05
 -1      1736-2.10997E-04-2.44855E-04-2.72477E-03-7.57606E-05 1.59906E-04 8.13576E-05
 -1      1737-7.81320E-04-2.22328E-04-2.08808E-03 2.28453E-05 6.33182E-04 1.19370E-04
 -1      1738-8.24737E-04-3.76305E-04-2.88206E-03-1.34227E-05 3.57133E-04 8.23168E-05
 -1      1739-1.52550E-05 6.48476E-05-2.71113E-03 1.82044E-05 2.06730E-05-5.62538E-06
 -1      1740-1.03932E-04-5.76070E-05-2.77080E-03 9.11806E-07-2.33844E-05-1.00269E-05
 -1      1741 2.42850E-06 6.33461E-05-2.59754E-03 4.41398E-05-2.73626E-05-7.55417E-06
 -1      1742-1.24532E-04-1.11257E-04-2.67703E-03 3.03022E-05-6.94239E-05-7.33003E-06
 -1      1743 9.08209E-05-5.78563E-05-2.87696E-03 3.06317E-05-3.20622E-05 3.48302E-05
 -1      1744-8.17680E-04-8.08074E-04-2.25555E-03 4.78255E-05 3.47686E-04-3.68157E-04
 -1      1745-7.76476E-04-7.31356E-04-3.05789E-03-1.39995E-05 1.57552E-04 3.60271E-05
 -1      1746 1.64309E-05-4.32908E-05-2.65878E-03 5.71954E-05-6.05261E-06-2.07395E-05
 -1      1747 7.46395E-05 3.63727E-06-2.57755E-03 2.50118E-05-7.66963E-06-2.99986E-05
 -1      1748-3.69140E-05-9.10106E-06-2.70335E-03 3.18745E-05 2.89155E-06-1.50969E-07
 -1      1749 1.83273E-05 5.67893E-05-2.54153E-03 4.93055E-05-5.42993E-05 3.92143E-06
 -1      1750-1.41385E-03-1.40315E-03-2.57679E-03 2.19312E-06 1.44657E-04-1.75656E-04
 -1      1751-1.27559E-03-1.25254E-03-2.35582E-03 8.21740E-06 1.57055E-04 3.25692E-05
 -1      1752 1.09096E-04 1.26807E-04-2.65643E-03 1.06702E-04-2.35485E-06-2.53358E-06
 -1      1753-1.37956E-03-1.45431E-03-2.52515E-03 1.04654E-05 1.52407E-04 4.58029E-04
 -1      1754-7.92468E-04-8.05196E-04-2.31242E-03 6.23321E-05 3.73274E-04-5.10752E-04
 -1      1755-1.03715E-03-9.49698E-04-2.40336E-03 2.11302E-05 3.46743E-04-1.98296E-04
 -1      1756-1.26058E-03-1.31221E-03-2.37945E-03-7.30355E-06 1.54609E-04 2.86660E-04
 -1      1757 2.26508E-05-2.95604E-05-2.59864E-03-8.39517E-05-2.11981E-05 5.56844E-05
 -1      1758-4.59416E-05-1.62758E-05-2.88074E-03-6.59167E-05-1.80259E-05 5.00731E-06
 -1      1759-2.99969E-04-5.32263E-04-2.94308E-03 5.55901E-05-2.95978E-04 2.47857E-04
 -1      1760-4.04988E-04-2.60525E-04-3.00733E-03-2.35483E-05 1.33501E-04 8.33830E-06
 -1      1761-1.36222E-03-1.35337E-03-2.48362E-03 9.84596E-06 1.50145E-04 1.69140E-04
 -1      1762-1.41130E-03-1.38765E-03-2.49662E-03 3.69629E-06 1.40048E-04-4.83728E-05
 -1      1763-9.15737E-04-1.03337E-03-2.40901E-03-1.04210E-05 6.98877E-05 3.25761E-04
 -1      1764-1.41506E-04-1.37384E-04-2.88251E-03-8.86132E-05 3.00990E-05 5.94112E-05
 -1      1765-9.90054E-05 7.62864E-06-2.71189E-03 1.11869E-05-5.48449E-06-1.05832E-05
 -1      1766-1.51604E-04-1.54473E-04-2.75920E-03 2.10611E-05-4.83879E-06-1.69061E-05
 -1      1767-4.30268E-05-4.72612E-06-2.63135E-03 3.31491E-05-3.43537E-05-4.74206E-05
 -1      1768-9.46379E-05-2.01317E-05-2.66109E-03-6.93729E-05 4.51952E-05-3.17538E-05
 -1      1769-1.12718E-04-1.03239E-04-2.67403E-03-3.20554E-05 6.65891E-05-3.90626E-05
 -1      1770 1.35436E-05-1.86702E-05-2.80788E-03-7.31610E-05 1.67959E-05 1.79766E-05
 -1      1771-1.73527E-04-1.73973E-04-2.68328E-03-7.20134E-05 7.19583E-05 1.69492E-04
 -1      1772-1.07999E-03-1.25627E-03-2.43033E-03 4.82318E-05 2.06816E-04-6.01403E-04
 -1      1773-7.24594E-05-6.65040E-05-3.02300E-03 3.71983E-05-2.49111E-05 1.92179E-05
 -1      1774-1.52248E-04-1.30626E-04-3.08370E-03 6.61509E-05 1.06316E-05-1.16633E-05
 -1      1775 1.58171E-05 4.82257E-05-2.87034E-03 3.01374E-05 9.06781E-06-4.78357E-06
 -1      1776-2.48892E-04-3.09384E-04-2.78512E-03 8.57842E-05-1.45206E-04 6.24327E-05
 -1      1777-1.05682E-04-4.23467E-05-2.69854E-03 7.92495E-05-6.67857E-05-2.62081E-05
 -1      1778-1.34816E-03-1.34912E-03-2.50432E-03 2.34516E-05 2.77936E-04-3.18431E-04
 -1      1779-5.96848E-05 2.49050E-05-2.78746E-03-1.07583E-05 7.12826E-06-2.54449E-05
 -1      1780-3.94930E-04-2.07617E-04-2.69552E-03 3.60793E-06 1.10358E-04 5.02609E-05
 -1      1781-3.64508E-04-3.73837E-04-3.21419E-03-1.21095E-05 8.03014E-06-1.72276E-05
 -1      1782-4.96864E-04-3.63046E-04-3.01680E-03-3.27425E-05 1.62946E-04 7.55813E-05
 -1      1783-2.64762E-04-8.42961E-05-2.79768E-03-3.08379E-05 1.27732E-04 2.61485E-05
 -1      1784-4.12226E-04 1.30410E-04-1.91928E-03-5.53966E-06 5.70322E-04 3.91053E-04
 -1      1785-7.91246E-04-7.78312E-04-2.26559E-03-5.33054E-05 5.41925E-04 4.02084E-04
 -1      1786-2.50048E-04-3.99867E-04-2.72431E-03-7.86398E-06 3.10261E-05 1.32899E-04
 -1      1787-1.03341E-04-1.39000E-04-2.79362E-03-7.02419E-06 2.33751E-05-1.88032E-05
 -1      1788-6.96310E-05-6.53062E-05-2.67816E-03-3.22755E-05 4.47508E-05-3.61323E-05
 -1      1789-8.10817E-05-1.14101E-04-3.02911E-03 3.37488E-05-1.10459E-05 7.22307E-06
 -1      1790-5.81245E-04-5.60849E-04-2.97954E-03 9.43346E-06-5.48316E-05 1.17263E-04
 -1      1791-4.42223E-04-5.42843E-04-3.10500E-03-2.35213E-05 4.14787E-05 1.63964E-04
 -1      1792-1.06662E-04-2.50431E-04-2.70607E-03-1.54475E-05-1.73313E-05 9.09570E-06
 -1      1793-2.58633E-05 9.39639E-05-2.64120E-03-3.14831E-05-1.05869E-05 1.60870E-05
 -1      1794-3.84875E-04-6.58400E-04-3.14456E-03 8.90130E-06-3.39566E-05 1.92548E-04
 -1      1795-2.71634E-04-2.63076E-04-3.03666E-03-4.45239E-05 6.45871E-05 5.86178E-05
 -1      1796 2.08485E-05-1.91530E-05-2.90807E-03-3.88578E-05 2.27235E-05 1.50207E-05
 -1      1797-2.70531E-05-5.29027E-05-2.58480E-03 5.72684E-05-9.32130E-05-3.36405E-05
 -1      1798 9.69037E-05 7.77703E-05-2.75675E-03 8.81929E-05-6.42978E-05 2.38059E-05
 -1      1799-8.44733E-04-3.53071E-04-2.24784E-03 2.74665E-05 6.32367E-04-5.84810E-06
 -1      1800-7.80343E-05-1.24400E-05-2.78493E-03-1.43250E-06 1.01059E-05-6.94627E-06
 -1      1801-2.05322E-05-1.02701E-04-2.63906E-03-7.23102E-05-2.76403E-06 2.50841E-05
 -1      1802 1.30927E-04 1.56614E-04-2.62874E-03-1.01794E-04-3.83040E-07 2.39525E-05
 -1      1803 1.03355E-04-1.31698E-05-2.51162E-03-6.66772E-05 8.25587E-06 6.24493E-06
 -1      1804-3.50476E-04-2.27168E-04-2.72685E-03 1.11584E-05 1.10585E-04-2.60807E-05
 -1      1805-1.10012E-04-1.13227E-04-2.69436E-03-7.87720E-06-2.86152E-05 9.38172E-06
 -1      1806-8.77494E-04-1.01998E-03-2.32962E-03 2.13922E-06-6.44142E-05 5.64936E-04
 -1      1807-1.15645E-03-1.21140E-03-2.36136E-03 2.33179E-05-1.45251E-04 4.85650E-04
 -1      1808-7.12951E-04-8.21715E-04-3.16016E-03 3.22495E-05-1.04809E-04 2.13326E-04
 -1      1809-9.92336E-04-1.05058E-03-2.93002E-03 1.06633E-05 2.65770E-05 1.92807E-04
 -1      1810-2.97972E-04-3.93231E-04-2.87833E-03 1.96166E-05-1.47015E-05 8.12246E-05
 -1      1811-9.39202E-05-9.61462E-05-2.72761E-03 2.63292E-05-1.66182E-05-1.07339E-05
 -1      1812-1.34041E-04-4.76517E-05-3.00475E-03-9.75564E-06-6.93660E-06 1.53945E-05
 -1      1813-8.34024E-06 7.88591E-05-2.60724E-03 7.05078E-05-2.77877E-05-2.58311E-06
 -1      1814 3.10407E-06-5.60269E-05-2.96648E-03 7.32238E-05 1.67644E-06 7.41991E-06
 -1      1815-4.75999E-05 1.72248E-05-2.65163E-03-5.10144E-05 3.23737E-05-5.14350E-06
 -1      1816-1.46718E-04-1.65810E-04-2.72260E-03-3.64650E-05 3.32443E-05-1.94031E-05
 -1      1817-1.29544E-04-2.02587E-04-2.99611E-03-5.05616E-06 7.98260E-06 3.18732E-05
 -1      1818-5.15112E-05 6.32785E-05-2.66534E-03-4.92374E-05 1.16604E-05-2.06886E-05
 -1      1819-1.20441E-03-1.19201E-03-2.59668E-03 1.53980E-06 8.06456E-05 6.05811E-05
 -1      1820 3.98697E-05-5.00424E-05-2.75811E-03 1.55091E-06 6.34235E-06-5.40569E-06
 -1      1821-6.29023E-04-6.09832E-04-3.09982E-03-1.63580E-05 1.04037E-04 5.80533E-05
 -1      1822-6.35685E-04-5.35887E-04-3.19904E-03-4.34169E-06-1.25373E-04-3.64814E-05
 -1      1823-1.89197E-04-1.79345E-04-3.15811E-03 7.66202E-05 3.07868E-06-1.25145E-05
 -1      1824 9.85074E-05 1.03492E-06-2.62304E-03-3.51652E-05 7.30517E-06-1.38764E-06
 -1      1825 1.91877E-05 5.15189E-05-2.88913E-03-4.18084E-05-2.11134E-05 9.29730E-06
 -1      1826 3.81184E-08-1.21578E-06-2.24281E-03-3.88741E-05-1.46024E-05 1.73791E-05
 -1      1827 7.27251E-06-2.25557E-05-2.58303E-03-7.91859E-05-1.75574E-05 2.75181E-05
 -1      1828-6.93189E-04-6.42770E-04-2.98946E-03 1.94692E-05 1.30980E-04-2.85712E-05
 -1      1829-1.00878E-03-1.00995E-03-3.13537E-03-2.55891E-06 7.41329E-05 6.16654E-05
 -1      1830 1.28958E-04 7.56535E-05-2.52540E-03-4.06329E-05 2.70126E-05 8.98099E-06
 -1      1831-9.51627E-04-4.74530E-04-2.35300E-03-1.81191E-05-6.22283E-04 8.58957E-06
 -1      1832-2.57243E-04-3.85759E-04-2.79957E-03 1.08206E-05 1.45971E-05 1.16531E-04
 -1      1833-1.27955E-04-8.80632E-05-2.77258E-03 3.29034E-05 3.19624E-05 6.49473E-06
 -1      1834-4.65707E-05 1.03095E-04-2.65625E-03 2.22330E-05 1.25950E-06 7.70720E-07
 -1      1835-5.71634E-05 1.67374E-05-2.65692E-03 3.33865E-05 3.02546E-05 2.08414E-05
 -1      1836 1.12888E-05 1.02206E-04-2.58292E-03 2.94814E-05-5.31449E-06 2.46832E-06
 -1      1837-3.94201E-04-6.17327E-04-2.95530E-03 3.08155E-05 2.83796E-04-2.50154E-04
 -1      1838-4.29618E-05-4.05208E-05-2.29312E-03-5.24982E-05 5.97126E-06-1.42139E-05
 -1      1839-2.37557E-05 1.43393E-05-2.57370E-03-8.63100E-05-4.42759E-07-1.60708E-05
 -1      1840-1.97956E-04-2.08094E-04-3.00724E-03 3.66921E-05-1.04345E-04 9.57239E-05
 -1      1841-2.67894E-04-4.07642E-04-2.78269E-03 8.58036E-06-6.37032E-05-1.20066E-04
 -1      1842-1.06932E-04-8.50861E-05-2.68201E-03-2.54735E-05-3.92890E-05 3.97592E-05
 -1      1843-2.44728E-04-7.47523E-04-2.18600E-03 8.50220E-06-3.26389E-07 6.04156E-04
 -1      1844 7.49750E-05-4.42264E-05-2.63733E-03-1.32184E-05-2.18098E-05 1.44172E-05
 -1      1845 4.00672E-05-4.49236E-05-2.72431E-03 3.31683E-05-2.08870E-05-3.27344E-06
 -1      1846-1.48657E-04-2.76737E-04-2.95584E-03 1.27469E-05-1.08308E-05-1.01539E-04
 -1      1847-2.65199E-05 9.17899E-05-2.62766E-03-3.28472E-05-3.62332E-06-1.08258E-05
 -1      1848 3.43894E-05-4.29554E-06-2.48623E-03-6.05376E-05 7.07370E-06 3.84546E-05
 -1      1849-7.13230E-05-4.01383E-05-2.56063E-03-7.71354E-05 1.17547E-05 1.18198E-05
 -1      1850-4.32822E-05-6.55280E-05-2.55149E-03 6.82013E-05 1.00717E-05-1.07195E-05
 -1      1851-3.91215E-05-1.17188E-04-2.69552E-03-7.12336E-05-9.44466E-06 1.25659E-05
 -1      1852 7.49345E-05-7.53430E-08-2.57479E-03-2.51844E-05-1.43870E-05 2.73197E-05
 -1      1853-7.22141E-05-2.68151E-05-2.59077E-03-5.80290E-05 2.28397E-05-2.01198E-05
 -1      1854-1.12537E-04-1.42915E-04-2.88795E-03-8.46999E-05 2.27514E-05 2.84177E-05
 -1      1855-4.12575E-05 9.11953E-05-2.66563E-03 5.11014E-06 5.92971E-06-1.57813E-05
 -1      1856-8.75940E-05 2.37389E-05-2.70785E-03 1.21581E-05-1.00354E-05 2.20423E-05
 -1      1857-1.75757E-05 7.77135E-05-2.62675E-03-4.46345E-05-1.38687E-06 1.34935E-05
 -1      1858 5.08495E-05 4.32352E-05-2.82894E-03-2.14565E-05 1.91125E-07 3.42118E-06
 -1      1859-7.89940E-06 6.11107E-05-2.61949E-03 6.58496E-05-2.15346E-06 9.62202E-06
 -1      1860-1.52891E-05-3.24947E-05-2.89116E-03 6.79497E-05-1.29427E-05-2.37653E-06
 -1      1861 7.02072E-06 1.42530E-05-2.20555E-03 4.69335E-05 1.85793E-05 1.27061E-05
 -1      1862-2.54072E-05-2.69964E-05-2.24929E-03 4.86396E-05-7.22224E-06-5.66760E-06
 -1      1863-2.65264E-05 1.98469E-05-2.56137E-03 6.49197E-05 5.43078E-06 8.15676E-06
 -1      1864 3.00992E-05-5.44508E-07-2.55065E-03 8.28187E-05-1.81056E-05-5.16947E-06
 -1      1865 1.58434E-05 7.54385E-06-2.23007E-03 4.70808E-05-1.79671E-05-1.57410E-05
 -1      1866-4.47382E-05-5.29827E-05-2.99740E-03 5.50574E-05-5.32885E-06 3.79086E-06
 -1      1867-2.81861E-04-2.49155E-04-2.75921E-03 7.49484E-05 1.02854E-04-1.67585E-04
 -1      1868-1.37077E-04-1.31298E-04-2.61942E-03 8.74209E-05 2.34034E-06-6.82942E-05
 -1      1869-2.56637E-04-2.79081E-04-2.76955E-03-6.25530E-05 1.65731E-04 9.84935E-05
 -1      1870-8.83392E-05-8.66017E-05-2.65116E-03-8.45439E-05 6.53505E-05-5.22483E-06
 -1      1871-1.21317E-04-1.22000E-04-2.62691E-03-9.82126E-05 5.31983E-05 6.36801E-06
 -1      1872-2.29098E-04-3.26364E-04-2.66585E-03 2.08119E-05 4.26024E-05-1.31865E-04
 -1      1873-1.28660E-03-1.25504E-03-2.66931E-03 3.00915E-06 9.19326E-05-4.72570E-05
 -1      1874-1.09163E-03-1.06056E-03-2.33160E-03-5.18235E-06-3.18942E-04 8.96069E-05
 -1      1875-1.27675E-03-1.29071E-03-2.42310E-03 3.93800E-06-2.16623E-04 1.58215E-04
 -1      1876-3.57555E-04-3.52742E-04-3.03768E-03-3.75087E-06 4.09932E-05-4.56294E-06
 -1      1877-2.74419E-04-2.71390E-04-3.31671E-03-1.09529E-05-3.42036E-07-2.71584E-05
 -1      1878-9.80676E-06 4.70817E-05-2.47118E-03 6.09555E-05 2.30947E-05 5.39784E-06
 -1      1879-6.82412E-05-1.04606E-04-2.94829E-03-1.25817E-05-8.10123E-06-7.41492E-06
 -1      1880-3.38280E-05 3.83721E-05-2.65993E-03-4.58615E-05-2.54676E-05 9.10820E-06
 -1      1881 1.27770E-04 1.11202E-04-2.70045E-03-6.25876E-05 1.46946E-06-5.51828E-06
 -1      1882-3.26584E-04-2.15666E-04-3.01513E-03 1.61466E-05 1.37731E-04-2.75226E-05
 -1      1883-5.81323E-04-5.38796E-04-3.04191E-03 1.77956E-06 9.51009E-05 4.75552E-05
 -1      1884-5.46838E-04-6.00722E-04-3.09129E-03 7.41156E-06 1.82288E-05-1.29152E-04
 -1      1885-3.18712E-04-7.98210E-04-2.27863E-03-2.28586E-06 1.25262E-06-6.33282E-04
 -1      1886-5.43260E-04-8.53438E-04-1.99833E-03 3.90687E-05 6.20156E-05-6.82070E-04
 -1      1887-1.42565E-04-1.14466E-04-2.71688E-03 1.56232E-05-1.25471E-05 3.97613E-05
 -1      1888-4.39698E-04-4.62167E-04-3.01801E-03 7.86729E-06 5.57557E-05-5.66201E-05
 -1      1889-2.72180E-04-3.25444E-04-3.28861E-03 1.65514E-05 1.27118E-05-5.85985E-05
 -1      1890-1.76767E-04-1.50301E-04-3.03357E-03-4.63207E-05-7.95062E-05-4.72697E-05
 -1      1891 5.48604E-06-1.63905E-05-2.85365E-03-7.25316E-05-1.28794E-05-6.36137E-06
 -1      1892-2.86318E-05 6.17008E-05-2.53835E-03 6.78656E-05 3.99360E-05 9.24907E-06
 -1      1893-8.95923E-05-1.23555E-04-2.89001E-03 7.67880E-05 2.88305E-05 5.72014E-06
 -1      1894 3.41755E-05-4.22246E-06-2.92186E-03 1.89304E-05 6.50129E-06 4.20564E-06
 -1      1895-4.00204E-04-7.11406E-04-2.97528E-03 3.04320E-05-4.53968E-05 2.02948E-04
 -1      1896-1.91080E-05-3.71986E-06-2.23533E-03-5.50123E-05-2.72693E-06 3.64961E-05
 -1      1897-1.00395E-04-9.82752E-05-2.39771E-03-8.61896E-05 5.72868E-05 3.10234E-05
 -1      1898-1.03400E-04-8.64406E-05-2.58129E-03-8.18922E-05-2.28668E-05 8.25625E-05
 -1      1899-4.28658E-05-4.35249E-05-3.14829E-03 1.06350E-05-1.19481E-05-8.25154E-06
 -1      1900-1.90050E-04-2.31460E-04-3.05040E-03-2.45251E-05 1.37922E-05 5.50930E-05
 -1      1901-1.15459E-03-1.16625E-03-2.55316E-03 1.37460E-05 1.97699E-05 7.01028E-05
 -1      1902-1.30560E-03-1.34126E-03-2.46134E-03 5.87674E-06-5.85904E-05 1.57547E-04
 -1      1903-4.04946E-04-3.78315E-04-3.32194E-03 1.91037E-05 5.88928E-05-4.53298E-05
 -1      1904-2.82303E-05 4.91235E-05-2.66118E-03-6.50396E-05-2.86086E-06 1.04258E-06
 -1      1905-2.71551E-05-6.75975E-06-2.58429E-03-5.10589E-05-2.24716E-05 9.84502E-06
 -1      1906 1.31017E-05 9.40604E-05-2.59224E-03-4.13993E-05-1.16505E-05-5.16615E-06
 -1      1907-3.95558E-04-5.05401E-04-3.17281E-03-2.35423E-06-7.01703E-06 1.30273E-04
 -1      1908-1.84084E-04-2.95365E-04-3.01876E-03-7.27862E-06 1.54214E-05 8.57435E-05
 -1      1909 6.24898E-05-4.28647E-05-2.75616E-03-3.96534E-06-2.66718E-05-2.19880E-06
 -1      1910 2.06146E-05-6.89186E-05-2.67835E-03-2.85663E-05 1.28094E-06 1.02932E-05
 -1      1911-1.91104E-04-1.73401E-04-3.12556E-03 2.60232E-05 1.74063E-05-2.40124E-06
 -1      1912-2.44477E-04-2.29905E-04-3.15415E-03-3.10414E-05 1.71914E-05 2.77309E-05
 -1      1913-2.41835E-04-2.59241E-04-3.13884E-03 2.69486E-05-3.95537E-04-4.14909E-04
 -1      1914 3.68289E-05 6.42531E-06-2.33478E-03-1.09708E-04-1.79494E-04-1.63974E-04
 -1      1915-8.64201E-04-6.39301E-04-3.32599E-03-4.57239E-05-2.79370E-04-3.37980E-04
 -1      1916-2.47711E-04-4.16996E-04-2.99595E-03-7.47881E-05-3.66002E-04-2.43391E-04
 -1      1917-1.88957E-04-1.57879E-04-2.63109E-03-7.24315E-05 1.06242E-04 1.76471E-04
 -1      1918-4.05002E-04 2.13000E-05-2.06127E-03-1.10868E-05-5.86693E-04-6.44778E-04
 -1      1919 2.65121E-06-3.95753E-04-2.07470E-03-7.73695E-06-6.62333E-04-6.14167E-04
 -1      1920-9.29064E-04-9.02262E-04-2.47864E-03-4.06893E-05-5.32922E-04-5.30824E-04
 -1      1921-1.43307E-04-6.29692E-04-2.20277E-03-4.49874E-05-5.41498E-04-6.05061E-04
 -1      1922-2.34686E-04-1.83858E-04-3.10910E-03 3.82867E-05 2.15473E-05-1.59831E-06
 -1      1923-3.00651E-05 6.12860E-05-2.61003E-03-3.69342E-05 4.24091E-06 4.58938E-06
 -1      1924-1.00377E-04-9.23542E-05-2.40490E-03 8.49361E-05 5.29297E-05-5.14179E-05
 -1      1925 3.33280E-05 3.06660E-05-2.18884E-03 7.43048E-05 4.15837E-05 2.66343E-06
 -1      1926-3.99102E-05-3.57060E-05-2.54972E-03 9.47797E-05 6.59820E-05 4.22325E-05
 -1      1927-1.89388E-04-2.04090E-04-3.15110E-03-4.71859E-05-1.88784E-05-2.81379E-05
 -1      1928-1.23947E-04-1.56304E-04-2.73160E-03-2.23358E-05-2.65501E-05-6.86973E-06
 -1      1929-1.57474E-04-7.99274E-05-2.94295E-03 1.38454E-07 2.99354E-06-6.75840E-06
 -1      1930-1.12704E-04-1.15404E-04-3.16068E-03 2.11869E-05 1.07001E-05-8.23967E-06
 -1      1931 9.67270E-06-7.73092E-05-2.67586E-03 3.19563E-05-2.15943E-05-2.17530E-06
 -1      1932-4.15254E-05-6.25099E-05-2.96657E-03-3.10193E-05 2.25959E-06-5.70002E-06
 -1      1933-8.92342E-04-3.66865E-04-2.47963E-03-7.74528E-06-5.82181E-04-5.33627E-04
 -1      1934-1.86067E-04-2.21396E-04-2.69240E-03 8.26275E-05 1.80169E-04-8.85126E-05
 -1      1935-9.81479E-04-4.62013E-04-2.24200E-03-1.92796E-05 6.41424E-04-1.43032E-05
 -1      1936-1.31835E-03-1.35052E-03-2.45255E-03 7.33026E-06 8.43292E-06 1.77960E-04
 -1      1937-4.17227E-04-8.93049E-04-2.42360E-03 3.69110E-05 4.43208E-07 5.99497E-04
 -1      1938-1.08418E-04-1.27666E-04-3.07970E-03 6.95716E-06-1.22613E-06-1.56731E-05
 -1      1939-1.26829E-04-1.49473E-04-2.40122E-03-9.39742E-05 5.34752E-05 4.68524E-05
 -1      1940 3.18699E-05 1.71023E-05-2.22000E-03-6.85761E-05-1.51924E-05 3.75615E-05
 -1      1941 1.92762E-05-8.69248E-06-2.81386E-03-6.55707E-05 7.17598E-06 1.11960E-05
 -1      1942-5.57628E-04-5.69653E-04-3.02657E-03 1.16965E-05 1.05143E-04-6.77740E-05
 -1      1943-1.13150E-04-1.15806E-04-3.11113E-03 3.23203E-05-2.99160E-06 1.85826E-08
 -1      1944 3.11626E-05 3.34577E-05-2.18821E-03-4.61680E-05-2.74039E-05 1.43729E-05
 -1      1945-2.33612E-04-2.09293E-04-3.12346E-03-1.95602E-05-4.24812E-04 3.79869E-04
 -1      1946 7.98188E-06 4.22764E-05-2.33299E-03 1.11732E-04-1.57956E-04 1.81180E-04
 -1      1947-4.35012E-04-2.55912E-04-3.03122E-03 9.71653E-05-2.49191E-04 3.61349E-04
 -1      1948-5.94117E-04-8.10634E-04-3.28060E-03 4.46273E-05-3.65277E-04 2.64890E-04
 -1      1949-1.47036E-05-1.66835E-05-2.88893E-03 7.75904E-05 1.95449E-06-2.29322E-05
 -1      1950-6.43139E-05-8.29521E-05-3.05805E-03 4.88908E-05 6.61240E-06-2.09789E-05
 -1      1951-1.10115E-04-1.29877E-04-3.02930E-03 3.48361E-05-3.16168E-05 3.65494E-05
 -1      1952-1.23180E-03-1.26494E-03-2.35098E-03 5.62543E-06 8.75804E-05 1.58127E-04
 -1      1953-6.66563E-04-1.74885E-04-2.18255E-03-4.00316E-05-5.99275E-04-5.50946E-04
 -1      1954-5.26364E-04-3.22790E-04-3.06988E-03-6.39744E-05-2.81006E-04-3.70816E-04
 -1      1955-6.16658E-04-1.96087E-04-2.25009E-03-5.59244E-06-6.29510E-04-6.64225E-04
 -1      1956-1.01707E-03-1.06303E-03-2.59367E-03-3.36532E-05-5.29347E-04-5.41382E-04
 -1      1957-2.75920E-04-2.81556E-04-3.17689E-03 2.68861E-06-3.99137E-04-3.89489E-04
 -1      1958 1.60379E-04-2.55869E-04-1.91551E-03-3.13073E-05-6.43346E-04-6.04277E-04
 -1      1959-4.98992E-04-6.76508E-04-3.20476E-03-7.15207E-05-3.28216E-04-2.37971E-04
 -1      1960-4.59631E-04-2.73391E-05-2.11510E-03 2.49874E-05-6.15433E-04 6.64069E-04
 -1      1961-2.87808E-06-3.97723E-04-2.06603E-03 2.85527E-06-6.44724E-04 5.95897E-04
 -1      1962-9.93168E-04-9.88464E-04-2.55311E-03 3.93915E-05-5.36191E-04 5.25563E-04
 -1      1963-1.24819E-03-1.30666E-03-2.38877E-03 7.97794E-06 1.74782E-05 3.00151E-04
 -1      1964-1.16803E-03-1.20638E-03-3.06800E-03 1.01113E-05 2.56222E-05 1.63034E-04
 -1      1965-7.32612E-04-2.31775E-04-2.27198E-03 5.09064E-05-6.06120E-04 5.44219E-04
 -1      1966 3.44178E-05-7.81268E-06-2.31954E-03-1.08927E-04-1.81085E-04-1.50540E-04
 -1      1967-3.34105E-04-8.27245E-04-2.43069E-03 7.95061E-06-5.49106E-04-6.08817E-04
 -1      1968-5.95659E-04-5.81903E-04-3.01493E-03-8.57179E-07 5.36340E-05 9.88266E-05
 -1      1969-3.72098E-04-8.48357E-04-2.43307E-03-3.00020E-05-5.16624E-04 6.27071E-04
 -1      1970-1.82264E-04-1.64186E-04-3.10320E-03 4.70092E-05 1.51887E-05-6.57140E-06
 -1      1971 1.05747E-04 1.17943E-04-2.28869E-03 9.99178E-05 1.51876E-04-1.76586E-04
 -1      1972-5.06321E-04-3.25505E-04-3.05592E-03 8.57423E-05 2.26677E-04-3.71366E-04
 -1      1973-8.42037E-04-3.34483E-04-2.44920E-03 2.37624E-06 5.99879E-04-5.44233E-04
 -1      1974-8.27164E-04-8.11223E-04-2.38067E-03 6.77865E-05 5.35046E-04-5.21230E-04
 -1      1975-3.70390E-05 4.39175E-05-2.61940E-03-6.96148E-05 1.17306E-06 1.38999E-05
 -1      1976-3.60435E-05 6.66632E-05-2.61780E-03-3.84516E-05-3.44875E-06-8.14420E-06
 -1      1977-2.85322E-04-2.70416E-04-3.15520E-03-2.22695E-05 4.01840E-04-3.72779E-04
 -1      1978-6.22045E-04-8.31851E-04-3.28301E-03 7.47780E-05 3.40976E-04-2.57196E-04
 -1      1979-3.94580E-05-1.95855E-06-2.55935E-03 5.61308E-05 2.97019E-05 1.40383E-05
 -1      1980-3.65915E-04-8.55610E-04-2.47061E-03 1.27073E-08 5.36169E-04-6.42727E-04
 -1      1981-1.01405E-03-1.06303E-03-2.58830E-03 5.01633E-05 5.27417E-04-5.44379E-04
 -1      1982-2.54099E-04-2.45722E-04-3.11681E-03-4.02528E-05 4.08408E-04-4.00607E-04
 -1      1983 5.06089E-07 5.44677E-05-2.30942E-03 1.01512E-04 1.60652E-04-1.79896E-04
 -1      1984-6.95478E-04-4.77605E-04-3.18291E-03 7.94589E-05 2.47218E-04-3.40901E-04
 -1      1985-5.93948E-04-8.20866E-04-3.25516E-03 5.62652E-05 3.61657E-04-2.84609E-04
 -1      1986-1.63242E-05-4.38005E-04-2.08288E-03 1.85877E-05 6.53300E-04-5.91312E-04
 -1      1987-3.18052E-04 1.29327E-04-1.99340E-03 3.35995E-05 5.88799E-04-6.33103E-04
 -1      1988-3.88599E-04-7.59322E-06-2.07289E-03 1.86566E-05 6.28748E-04-6.71678E-04
 -1      1989-6.01496E-04-1.27549E-04-2.18662E-03 4.80046E-05 6.19069E-04-5.37407E-04
 -1      1990 1.19799E-04 8.28563E-05-2.28250E-03-1.08702E-04 1.73337E-04 1.54174E-04
 -1      1991-2.62095E-04-4.47496E-04-3.00134E-03-7.93760E-05 3.73443E-04 2.28540E-04
 -1      1992-1.21375E-04-6.00347E-04-2.17612E-03-5.38929E-05 5.36690E-04 6.22986E-04
 -1      1993-2.65055E-05-4.05268E-04-2.08644E-03-1.86702E-05 6.70286E-04 6.20107E-04
 -1      1994-1.03250E-03-9.90843E-04-2.55253E-03-5.44336E-05 5.43719E-04 5.31046E-04
 -1      1995-1.08769E-04-8.77661E-05-2.64672E-03-2.32241E-05-4.77041E-05 4.20796E-05
 -1      1996-2.62462E-04-2.69356E-04-3.13998E-03 2.65182E-05 3.76202E-04 3.99511E-04
 -1      1997-8.27087E-04-6.16795E-04-3.30549E-03-6.65008E-05 2.61230E-04 3.45390E-04
 -1      1998-8.47764E-04-3.79003E-04-2.47101E-03 3.49934E-06-6.09324E-04 5.44947E-04
 -1      1999-8.75220E-04-8.88226E-04-2.41191E-03 6.41111E-05-5.53276E-04 5.53556E-04
 -1      2000 1.28184E-05-4.04304E-04-2.07644E-03 6.01292E-06 6.46039E-04-6.02608E-04
 -1      2001-6.81849E-06 5.86713E-05-2.58363E-03-4.30519E-05 1.72294E-05 5.79224E-06
 -1      2002-8.60409E-04-3.68823E-04-2.46517E-03-3.16170E-07 6.38680E-04 5.38307E-04
 -1      2003-4.34396E-04-1.19314E-05-2.07513E-03-2.13006E-05 5.91889E-04 6.64162E-04
 -1      2004 1.06433E-04 1.02141E-04-2.28787E-03-9.68554E-05 1.51129E-04 1.79002E-04
 -1      2005-4.92195E-04-3.27337E-04-3.04823E-03-8.80744E-05 2.44366E-04 3.66825E-04
 -1      2006-9.04097E-04-1.04549E-03-2.32773E-03-1.65465E-05 1.61595E-05 3.78296E-04
 -1      2007-1.33151E-03-1.36330E-03-2.53208E-03-1.61614E-05 1.46487E-04 4.78395E-04
 -1      2008-1.26433E-03-1.28699E-03-2.38803E-03 8.38055E-07 6.42862E-05 3.19660E-04
 -1      2009-3.73820E-04-8.63526E-04-2.44813E-03-1.86133E-05 5.37616E-04-6.28921E-04
 -1      2010-2.95806E-04 1.14704E-04-1.97737E-03 3.94917E-05-5.99602E-04 6.38270E-04
 -1      2011-7.04789E-04-5.03417E-04-3.19193E-03 7.88015E-05-2.40586E-04 3.52982E-04
 -1      2012-2.67394E-04-2.54253E-04-3.13607E-03 8.33989E-06 3.97514E-04 3.71003E-04
 -1      2013-7.03718E-04-9.11941E-04-3.37590E-03-7.11874E-05 3.34163E-04 2.60870E-04
 -1      2014 4.57865E-05 1.51151E-04-2.45716E-03 6.43507E-05 5.28510E-06-1.19669E-06
 -1      2015-1.20817E-03-1.24933E-03-2.36204E-03 1.27949E-05-6.36639E-05 3.27917E-04
 -1      2016-2.96172E-05 1.41370E-07-2.92454E-03 3.23783E-05 3.72004E-05-3.19968E-05
 -1      2017-4.13565E-04-8.67228E-04-2.37051E-03 2.50256E-05-2.12806E-04 7.09469E-04
 -1      2018 3.55949E-04-2.16374E-04-1.63970E-03 8.88968E-05 1.55777E-04-6.06789E-04
 -1      2019-6.20421E-06-5.00092E-04-1.91809E-03 4.17665E-05 2.45688E-04-7.30491E-04
 -1      2020-7.27752E-04-1.21984E-03-2.56518E-03-1.35864E-05-5.09571E-06-8.86361E-04
 -1      2021 7.48950E-05 1.43854E-04-2.24990E-03 1.09816E-04-1.49201E-04 1.71057E-04
 -1      2022-2.65698E-04-2.53693E-04-3.12157E-03-2.43059E-05-3.86960E-04 3.76859E-04
 -1      2023-6.33301E-04-8.69463E-04-3.29993E-03 6.23526E-05-3.68547E-04 2.77723E-04
 -1      2024-6.34635E-04-1.51894E-04-2.16794E-03-5.73645E-05 6.21049E-04 5.37560E-04
 -1      2025-4.55337E-04-6.81342E-05-2.12128E-03-2.21605E-05 6.30964E-04 6.69694E-04
 -1      2026-1.00748E-03-1.04644E-03-2.55847E-03-5.22998E-05 5.39387E-04 5.50821E-04
 -1      2027-3.46865E-04-8.42506E-04-2.46594E-03-6.20647E-07-5.36418E-04 6.34684E-04
 -1      2028-4.18129E-07-4.30422E-04-2.08484E-03 1.83115E-05-6.54272E-04 5.99963E-04
 -1      2029-6.12229E-06-4.15670E-04-2.05733E-03-8.12521E-06 6.45628E-04 6.07556E-04
 -1      2030-3.35434E-04-8.20974E-04-2.43021E-03 5.01494E-06 5.44618E-04 6.05298E-04
 -1      2031-4.72413E-06-4.74871E-04-1.95608E-03-4.13107E-06-3.87731E-04 5.80080E-04
 -1      2032-1.76338E-04-6.11471E-04-2.06801E-03-5.47902E-06 4.04192E-04-5.99799E-04
 -1      2033-7.25985E-04-8.78988E-04-2.49253E-03 4.00932E-05-2.31281E-04 3.22338E-04
 -1      2034-1.76917E-04-6.46427E-04-2.79020E-03 3.02306E-05 1.87635E-04-4.10477E-04
 -3
    1PSTEP                         3           1           1          
  100CL  101 1.000000000        2034                     0    1           1
 -4  ERROR       1    1
 -5  STR(%)      1    1    0    0
 -1         1 2.17441E+01
 -1         2 2.17646E+01
 -1         3 2.16063E+01
 -1         4 2.12503E+01
 -1         5 2.15330E+01
 -1         6 2.16404E+01
 -1         7 2.14187E+01
 -1         8 2.16354E+01
 -1         9 2.02081E+01
 -1        10 1.80742E+01
 -1        11 1.66374E+01
 -1        12 1.58399E+01
 -1        13 2.11370E+01
 -1        14 2.09761E+01
 -1        15 1.91411E+01
 -1        16 1.73558E+01
 -1        17 1.62386E+01
 -1        18 1.84884E+01
 -1        19 2.14508E+01
 -1        20 1.97596E+01
 -1        21 7.80308E+00
 -1        22 3.66553E+00
 -1        23 7.42663E+00
 -1        24 1.98336E+01
 -1        25 2.07621E+01
 -1        26 1.37813E+01
 -1        27 5.73431E+00
 -1        28 5.54608E+00
 -1        29 1.36301E+01
 -1        30 2.07200E+01
 -1        31 2.09968E+01
 -1        32 1.72571E+01
 -1        33 1.72571E+01
 -1        34 1.53712E+01
 -1        35 2.09829E+01
 -1        36 2.11235E+01
 -1        37 1.91269E+01
 -1        38 1.72571E+01
 -1        39 1.63142E+01
 -1        40 1.81770E+01
 -1        41 2.12946E+01
 -1        42 2.00693E+01
 -1        43 7.43472E+00
 -1        44 3.44119E+00
 -1        45 7.23793E+00
 -1        46 1.99574E+01
 -1        47 2.09067E+01
 -1        48 1.37520E+01
 -1        49 5.43795E+00
 -1        50 5.33956E+00
 -1        51 1.35977E+01
 -1        52 2.06038E+01
 -1        53 2.15330E+01
 -1        54 1.77803E+01
 -1        55 1.77803E+01
 -1        56 1.69931E+01
 -1        57 2.17441E+01
 -1        58 2.15330E+01
 -1        59 1.96566E+01
 -1        60 1.77803E+01
 -1        61 1.73867E+01
 -1        62 1.93686E+01
 -1        63 2.17441E+01
 -1        64 2.16404E+01
 -1        65 1.90995E+01
 -1        66 1.90995E+01
 -1        67 1.64402E+01
 -1        68 2.12503E+01
 -1        69 2.16404E+01
 -1        70 2.03699E+01
 -1        71 1.90995E+01
 -1        72 1.77698E+01
 -1        73 1.88452E+01
 -1        74 2.12503E+01
 -1        75 1.97691E+01
 -1        76 7.54868E+00
 -1        77 3.38189E+00
 -1        78 7.39870E+00
 -1        79 1.99295E+01
 -1        80 2.06511E+01
 -1        81 1.36589E+01
 -1        82 5.46528E+00
 -1        83 5.39029E+00
 -1        84 1.36641E+01
 -1        85 2.07850E+01
 -1        86 2.14187E+01
 -1        87 1.62648E+01
 -1        88 1.71262E+01
 -1        89 1.71262E+01
 -1        90 2.02877E+01
 -1        91 2.14187E+01
 -1        92 1.88418E+01
 -1        93 1.66955E+01
 -1        94 1.71262E+01
 -1        95 1.87069E+01
 -1        96 2.09103E+01
 -1        97 2.16354E+01
 -1        98 1.91115E+01
 -1        99 1.91115E+01
 -1       100 1.74133E+01
 -1       101 2.03421E+01
 -1       102 2.16354E+01
 -1       103 2.03734E+01
 -1       104 1.91115E+01
 -1       105 1.82624E+01
 -1       106 1.88777E+01
 -1       107 2.09912E+01
 -1       108 1.98522E+01
 -1       109 7.59819E+00
 -1       110 3.65578E+00
 -1       111 7.31678E+00
 -1       112 1.99549E+01
 -1       113 2.06355E+01
 -1       114 1.37252E+01
 -1       115 5.62699E+00
 -1       116 5.48628E+00
 -1       117 1.36358E+01
 -1       118 2.07952E+01
 -1       119 2.17646E+01
 -1       120 2.50958E+01
 -1       121 2.50958E+01
 -1       122 1.99619E+01
 -1       123 2.04413E+01
 -1       124 2.17646E+01
 -1       125 2.34302E+01
 -1       126 2.50958E+01
 -1       127 2.25289E+01
 -1       128 2.02016E+01
 -1       129 2.09300E+01
 -1       130 2.16063E+01
 -1       131 2.02772E+01
 -1       132 2.02772E+01
 -1       133 1.75413E+01
 -1       134 2.03132E+01
 -1       135 2.16063E+01
 -1       136 2.09417E+01
 -1       137 2.02772E+01
 -1       138 1.89092E+01
 -1       139 1.89272E+01
 -1       140 2.09743E+01
 -1       141 8.99502E+00
 -1       142 9.92308E+00
 -1       143 1.58399E+01
 -1       144 1.53350E+01
 -1       145 1.80742E+01
 -1       146 1.67411E+01
 -1       147 1.31838E+01
 -1       148 1.53712E+01
 -1       149 1.02612E+01
 -1       150 1.14028E+01
 -1       151 6.61481E+00
 -1       152 9.58936E+00
 -1       153 7.34223E+00
 -1       154 7.34223E+00
 -1       155 6.95134E+00
 -1       156 1.02878E+01
 -1       157 9.92308E+00
 -1       158 6.83232E+00
 -1       159 6.96561E+00
 -1       160 1.72571E+01
 -1       161 1.40994E+01
 -1       162 1.73862E+01
 -1       163 1.50234E+01
 -1       164 9.20524E+00
 -1       165 9.16121E+00
 -1       166 1.66374E+01
 -1       167 1.02878E+01
 -1       168 1.04412E+01
 -1       169 5.28983E+00
 -1       170 5.12656E+00
 -1       171 2.09829E+01
 -1       172 2.09968E+01
 -1       173 2.02081E+01
 -1       174 2.11370E+01
 -1       175 2.02081E+01
 -1       176 2.09761E+01
 -1       177 2.01387E+01
 -1       178 2.14508E+01
 -1       179 2.11370E+01
 -1       180 2.04483E+01
 -1       181 2.12946E+01
 -1       182 2.04083E+01
 -1       183 2.09829E+01
 -1       184 2.11235E+01
 -1       185 2.09968E+01
 -1       186 2.04771E+01
 -1       187 1.80742E+01
 -1       188 1.91411E+01
 -1       189 1.91411E+01
 -1       190 1.66374E+01
 -1       191 1.73558E+01
 -1       192 1.73558E+01
 -1       193 1.58399E+01
 -1       194 1.62386E+01
 -1       195 1.62386E+01
 -1       196 1.80802E+01
 -1       197 1.54316E+01
 -1       198 1.54316E+01
 -1       199 1.80802E+01
 -1       200 1.04934E+01
 -1       201 1.64717E+01
 -1       202 1.71604E+01
 -1       203 5.24892E+00
 -1       204 7.31770E+00
 -1       205 1.00080E+01
 -1       206 8.21082E+00
 -1       207 6.33027E+00
 -1       208 7.91367E+00
 -1       209 1.69665E+01
 -1       210 1.07630E+01
 -1       211 1.15472E+01
 -1       212 1.75411E+01
 -1       213 1.88689E+01
 -1       214 1.69991E+01
 -1       215 1.88689E+01
 -1       216 1.72571E+01
 -1       217 1.72571E+01
 -1       218 1.69991E+01
 -1       219 1.62961E+01
 -1       220 1.53531E+01
 -1       221 1.62961E+01
 -1       222 1.53712E+01
 -1       223 1.81770E+01
 -1       224 1.53531E+01
 -1       225 1.81770E+01
 -1       226 1.46373E+01
 -1       227 8.31998E+00
 -1       228 1.47067E+01
 -1       229 7.20017E+00
 -1       230 5.20340E+00
 -1       231 8.08543E+00
 -1       232 6.68213E+00
 -1       233 8.58051E+00
 -1       234 8.44435E+00
 -1       235 1.23121E+01
 -1       236 1.86718E+01
 -1       237 1.36546E+01
 -1       238 1.91915E+01
 -1       239 1.21803E+01
 -1       240 9.62813E+00
 -1       241 7.69390E+00
 -1       242 7.06079E+00
 -1       243 5.97944E+00
 -1       244 1.36546E+01
 -1       245 9.92308E+00
 -1       246 7.60646E+00
 -1       247 7.60646E+00
 -1       248 6.12772E+00
 -1       249 1.25006E+01
 -1       250 9.72449E+00
 -1       251 1.30638E+01
 -1       252 1.34626E+01
 -1       253 1.27323E+01
 -1       254 1.31405E+01
 -1       255 9.80120E+00
 -1       256 1.27981E+01
 -1       257 1.28162E+01
 -1       258 1.33689E+01
 -1       259 1.08320E+01
 -1       260 1.43300E+01
 -1       261 1.41810E+01
 -1       262 1.02878E+01
 -1       263 1.41810E+01
 -1       264 9.74650E+00
 -1       265 1.36397E+01
 -1       266 1.35901E+01
 -1       267 1.33321E+01
 -1       268 1.70636E+01
 -1       269 8.63675E+00
 -1       270 1.18125E+01
 -1       271 1.41036E+01
 -1       272 1.47353E+01
 -1       273 9.00881E+00
 -1       274 8.43803E+00
 -1       275 5.87069E+00
 -1       276 1.04961E+01
 -1       277 8.10209E+00
 -1       278 1.06629E+01
 -1       279 9.75622E+00
 -1       280 8.46579E+00
 -1       281 6.97852E+00
 -1       282 7.14679E+00
 -1       283 6.78308E+00
 -1       284 6.03895E+00
 -1       285 8.46579E+00
 -1       286 7.34223E+00
 -1       287 7.43959E+00
 -1       288 6.31603E+00
 -1       289 8.81499E+00
 -1       290 8.81499E+00
 -1       291 8.25172E+00
 -1       292 8.05628E+00
 -1       293 8.81499E+00
 -1       294 8.62669E+00
 -1       295 7.15392E+00
 -1       296 8.69626E+00
 -1       297 6.89183E+00
 -1       298 7.43967E+00
 -1       299 7.89379E+00
 -1       300 1.69931E+01
 -1       301 1.64402E+01
 -1       302 1.56069E+01
 -1       303 1.84985E+01
 -1       304 1.46176E+01
 -1       305 1.35482E+01
 -1       306 9.78550E+00
 -1       307 5.80493E+00
 -1       308 7.13234E+00
 -1       309 7.31440E+00
 -1       310 5.89243E+00
 -1       311 8.55718E+00
 -1       312 9.33610E+00
 -1       313 6.03196E+00
 -1       314 7.48660E+00
 -1       315 1.77803E+01
 -1       316 1.90995E+01
 -1       317 1.04202E+01
 -1       318 1.54376E+01
 -1       319 1.52106E+01
 -1       320 1.77784E+01
 -1       321 1.77212E+01
 -1       322 1.12226E+01
 -1       323 5.89243E+00
 -1       324 1.12226E+01
 -1       325 1.08262E+01
 -1       326 1.10288E+01
 -1       327 1.20936E+01
 -1       328 2.12503E+01
 -1       329 2.16404E+01
 -1       330 2.17441E+01
 -1       331 2.15330E+01
 -1       332 2.09067E+01
 -1       333 2.17441E+01
 -1       334 2.17441E+01
 -1       335 2.12503E+01
 -1       336 2.06038E+01
 -1       337 2.12503E+01
 -1       338 2.15330E+01
 -1       339 2.15330E+01
 -1       340 2.06511E+01
 -1       341 2.16404E+01
 -1       342 2.16404E+01
 -1       343 2.07850E+01
 -1       344 1.29666E+01
 -1       345 1.92839E+01
 -1       346 2.01213E+01
 -1       347 5.46389E+00
 -1       348 7.46066E+00
 -1       349 1.29926E+01
 -1       350 7.33880E+00
 -1       351 5.44043E+00
 -1       352 7.46313E+00
 -1       353 1.67528E+01
 -1       354 1.03931E+01
 -1       355 1.04939E+01
 -1       356 1.73992E+01
 -1       357 1.66936E+01
 -1       358 1.85699E+01
 -1       359 1.85699E+01
 -1       360 1.77803E+01
 -1       361 1.77803E+01
 -1       362 1.66936E+01
 -1       363 1.69931E+01
 -1       364 1.73867E+01
 -1       365 1.73867E+01
 -1       366 1.84773E+01
 -1       367 1.61019E+01
 -1       368 1.61019E+01
 -1       369 1.84773E+01
 -1       370 1.81290E+01
 -1       371 1.68585E+01
 -1       372 1.81290E+01
 -1       373 1.90995E+01
 -1       374 1.90995E+01
 -1       375 1.68585E+01
 -1       376 1.77698E+01
 -1       377 1.64402E+01
 -1       378 1.77698E+01
 -1       379 1.59389E+01
 -1       380 1.83439E+01
 -1       381 1.59389E+01
 -1       382 1.83439E+01
 -1       383 1.87451E+01
 -1       384 1.26349E+01
 -1       385 1.96271E+01
 -1       386 9.38562E+00
 -1       387 7.30222E+00
 -1       388 1.44719E+01
 -1       389 5.63784E+00
 -1       390 7.64625E+00
 -1       391 9.55817E+00
 -1       392 1.25886E+01
 -1       393 1.88540E+01
 -1       394 1.28361E+01
 -1       395 1.97094E+01
 -1       396 1.16668E+01
 -1       397 8.61259E+00
 -1       398 7.79521E+00
 -1       399 6.62230E+00
 -1       400 6.64576E+00
 -1       401 8.62726E+00
 -1       402 6.96287E+00
 -1       403 5.96219E+00
 -1       404 6.89311E+00
 -1       405 9.35998E+00
 -1       406 1.43023E+01
 -1       407 8.35930E+00
 -1       408 1.45434E+01
 -1       409 1.49370E+01
 -1       410 1.28154E+01
 -1       411 1.37067E+01
 -1       412 1.12569E+01
 -1       413 1.26116E+01
 -1       414 1.31128E+01
 -1       415 1.37345E+01
 -1       416 1.04071E+01
 -1       417 1.50641E+01
 -1       418 1.45014E+01
 -1       419 1.34147E+01
 -1       420 1.44719E+01
 -1       421 1.66640E+01
 -1       422 8.95338E+00
 -1       423 1.44593E+01
 -1       424 1.68546E+01
 -1       425 1.27219E+01
 -1       426 1.49628E+01
 -1       427 1.61980E+01
 -1       428 1.44929E+01
 -1       429 8.45892E+00
 -1       430 6.46863E+00
 -1       431 9.08055E+00
 -1       432 7.22337E+00
 -1       433 6.55966E+00
 -1       434 8.86728E+00
 -1       435 8.11255E+00
 -1       436 6.51238E+00
 -1       437 6.60341E+00
 -1       438 7.84476E+00
 -1       439 7.22480E+00
 -1       440 9.79297E+00
 -1       441 7.61426E+00
 -1       442 8.32525E+00
 -1       443 1.07149E+01
 -1       444 9.70402E+00
 -1       445 7.22480E+00
 -1       446 5.89243E+00
 -1       447 5.96219E+00
 -1       448 7.68403E+00
 -1       449 9.69168E+00
 -1       450 1.38283E+01
 -1       451 8.62726E+00
 -1       452 1.02793E+01
 -1       453 1.35582E+01
 -1       454 1.12226E+01
 -1       455 7.56203E+00
 -1       456 8.06685E+00
 -1       457 1.71262E+01
 -1       458 1.41795E+01
 -1       459 1.51404E+01
 -1       460 1.03088E+01
 -1       461 1.51222E+01
 -1       462 1.30328E+01
 -1       463 1.17271E+01
 -1       464 6.37751E+00
 -1       465 6.10801E+00
 -1       466 7.73473E+00
 -1       467 7.18110E+00
 -1       468 8.94572E+00
 -1       469 1.06711E+01
 -1       470 7.18110E+00
 -1       471 7.67135E+00
 -1       472 1.62648E+01
 -1       473 1.91115E+01
 -1       474 9.09112E+00
 -1       475 1.74133E+01
 -1       476 1.67589E+01
 -1       477 1.76495E+01
 -1       478 1.81033E+01
 -1       479 1.02674E+01
 -1       480 6.94356E+00
 -1       481 1.14784E+01
 -1       482 1.12749E+01
 -1       483 1.06577E+01
 -1       484 1.00507E+01
 -1       485 2.03421E+01
 -1       486 2.16354E+01
 -1       487 2.02877E+01
 -1       488 2.14187E+01
 -1       489 2.00284E+01
 -1       490 2.09103E+01
 -1       491 2.02877E+01
 -1       492 2.09912E+01
 -1       493 2.01358E+01
 -1       494 2.03421E+01
 -1       495 2.14187E+01
 -1       496 2.14187E+01
 -1       497 2.06355E+01
 -1       498 2.16354E+01
 -1       499 2.16354E+01
 -1       500 2.07952E+01
 -1       501 8.92876E+00
 -1       502 1.50390E+01
 -1       503 1.52983E+01
 -1       504 5.52662E+00
 -1       505 7.61001E+00
 -1       506 8.99009E+00
 -1       507 7.48036E+00
 -1       508 5.47196E+00
 -1       509 7.61669E+00
 -1       510 1.64812E+01
 -1       511 1.02158E+01
 -1       512 1.02974E+01
 -1       513 1.66875E+01
 -1       514 1.57026E+01
 -1       515 1.82796E+01
 -1       516 1.82796E+01
 -1       517 1.66955E+01
 -1       518 1.62648E+01
 -1       519 1.57026E+01
 -1       520 1.71262E+01
 -1       521 1.71262E+01
 -1       522 1.66955E+01
 -1       523 1.85233E+01
 -1       524 1.69425E+01
 -1       525 1.69425E+01
 -1       526 1.85233E+01
 -1       527 1.83788E+01
 -1       528 1.71168E+01
 -1       529 1.83788E+01
 -1       530 1.91115E+01
 -1       531 1.91115E+01
 -1       532 1.71168E+01
 -1       533 1.66455E+01
 -1       534 1.57964E+01
 -1       535 1.66455E+01
 -1       536 1.74133E+01
 -1       537 1.88777E+01
 -1       538 1.57964E+01
 -1       539 1.88777E+01
 -1       540 1.89778E+01
 -1       541 1.28507E+01
 -1       542 1.97610E+01
 -1       543 8.93278E+00
 -1       544 6.96158E+00
 -1       545 1.41853E+01
 -1       546 5.86131E+00
 -1       547 7.69181E+00
 -1       548 9.16711E+00
 -1       549 1.24831E+01
 -1       550 1.88022E+01
 -1       551 1.28582E+01
 -1       552 1.96424E+01
 -1       553 1.23800E+01
 -1       554 9.64458E+00
 -1       555 9.05232E+00
 -1       556 6.96977E+00
 -1       557 7.02443E+00
 -1       558 8.72424E+00
 -1       559 7.62397E+00
 -1       560 7.06233E+00
 -1       561 7.50520E+00
 -1       562 9.67086E+00
 -1       563 1.44622E+01
 -1       564 9.10921E+00
 -1       565 1.35884E+01
 -1       566 1.31577E+01
 -1       567 1.29250E+01
 -1       568 1.31086E+01
 -1       569 9.57090E+00
 -1       570 1.45702E+01
 -1       571 1.29533E+01
 -1       572 1.24186E+01
 -1       573 1.11924E+01
 -1       574 1.48846E+01
 -1       575 1.38716E+01
 -1       576 1.33094E+01
 -1       577 1.47908E+01
 -1       578 1.66218E+01
 -1       579 8.38124E+00
 -1       580 9.69998E+00
 -1       581 1.35338E+01
 -1       582 1.31985E+01
 -1       583 1.51932E+01
 -1       584 1.63858E+01
 -1       585 1.52231E+01
 -1       586 8.91757E+00
 -1       587 6.24276E+00
 -1       588 8.38286E+00
 -1       589 6.92137E+00
 -1       590 7.05612E+00
 -1       591 8.41292E+00
 -1       592 7.73432E+00
 -1       593 6.64455E+00
 -1       594 7.45791E+00
 -1       595 7.52686E+00
 -1       596 8.06341E+00
 -1       597 9.80171E+00
 -1       598 8.92610E+00
 -1       599 9.20292E+00
 -1       600 1.03609E+01
 -1       601 8.89270E+00
 -1       602 7.94464E+00
 -1       603 7.06233E+00
 -1       604 7.18110E+00
 -1       605 8.92610E+00
 -1       606 1.01103E+01
 -1       607 1.40286E+01
 -1       608 9.32973E+00
 -1       609 1.10747E+01
 -1       610 1.34680E+01
 -1       611 1.08729E+01
 -1       612 7.59640E+00
 -1       613 8.55571E+00
 -1       614 1.99619E+01
 -1       615 1.63883E+01
 -1       616 1.96722E+01
 -1       617 1.78253E+01
 -1       618 1.19157E+01
 -1       619 1.29003E+01
 -1       620 1.07338E+01
 -1       621 5.61891E+00
 -1       622 6.56942E+00
 -1       623 6.12780E+00
 -1       624 6.58719E+00
 -1       625 1.00427E+01
 -1       626 1.07165E+01
 -1       627 7.12428E+00
 -1       628 2.02772E+01
 -1       629 2.50958E+01
 -1       630 6.94406E+00
 -1       631 1.10787E+01
 -1       632 1.75413E+01
 -1       633 1.75550E+01
 -1       634 1.74609E+01
 -1       635 1.80276E+01
 -1       636 1.13987E+01
 -1       637 8.35992E+00
 -1       638 1.28955E+01
 -1       639 1.19173E+01
 -1       640 1.18281E+01
 -1       641 1.07165E+01
 -1       642 2.03132E+01
 -1       643 2.04413E+01
 -1       644 2.16063E+01
 -1       645 2.17646E+01
 -1       646 2.17646E+01
 -1       647 2.07621E+01
 -1       648 2.17646E+01
 -1       649 2.07200E+01
 -1       650 2.16063E+01
 -1       651 2.16063E+01
 -1       652 2.01468E+01
 -1       653 2.09300E+01
 -1       654 2.04413E+01
 -1       655 2.09743E+01
 -1       656 2.01340E+01
 -1       657 2.03132E+01
 -1       658 1.88936E+01
 -1       659 1.29154E+01
 -1       660 1.98961E+01
 -1       661 9.60087E+00
 -1       662 7.53209E+00
 -1       663 1.47131E+01
 -1       664 6.11062E+00
 -1       665 7.99117E+00
 -1       666 9.97719E+00
 -1       667 1.24908E+01
 -1       668 1.86943E+01
 -1       669 1.30553E+01
 -1       670 1.95806E+01
 -1       671 9.75694E+00
 -1       672 1.58840E+01
 -1       673 1.61785E+01
 -1       674 5.29992E+00
 -1       675 7.27113E+00
 -1       676 9.42987E+00
 -1       677 7.45659E+00
 -1       678 5.62609E+00
 -1       679 7.27023E+00
 -1       680 1.64276E+01
 -1       681 1.01086E+01
 -1       682 1.02484E+01
 -1       683 1.66067E+01
 -1       684 2.23840E+01
 -1       685 2.07184E+01
 -1       686 2.07184E+01
 -1       687 2.50958E+01
 -1       688 2.50958E+01
 -1       689 2.23840E+01
 -1       690 1.99619E+01
 -1       691 2.25289E+01
 -1       692 2.25289E+01
 -1       693 1.89511E+01
 -1       694 1.87114E+01
 -1       695 1.87114E+01
 -1       696 1.89511E+01
 -1       697 1.97158E+01
 -1       698 1.90513E+01
 -1       699 1.97158E+01
 -1       700 2.02772E+01
 -1       701 2.02772E+01
 -1       702 1.90513E+01
 -1       703 1.83328E+01
 -1       704 1.69648E+01
 -1       705 1.83328E+01
 -1       706 1.75413E+01
 -1       707 1.89272E+01
 -1       708 1.69648E+01
 -1       709 1.89272E+01
 -1       710 1.18171E+01
 -1       711 9.16511E+00
 -1       712 8.17636E+00
 -1       713 6.60766E+00
 -1       714 6.28148E+00
 -1       715 9.26147E+00
 -1       716 7.84000E+00
 -1       717 7.74210E+00
 -1       718 8.45782E+00
 -1       719 1.02365E+01
 -1       720 1.47361E+01
 -1       721 1.01386E+01
 -1       722 1.53392E+01
 -1       723 1.79062E+01
 -1       724 1.42698E+01
 -1       725 1.55203E+01
 -1       726 1.08976E+01
 -1       727 1.41375E+01
 -1       728 1.35611E+01
 -1       729 1.41082E+01
 -1       730 1.12810E+01
 -1       731 1.60527E+01
 -1       732 1.89957E+01
 -1       733 1.62839E+01
 -1       734 1.54616E+01
 -1       735 1.88499E+01
 -1       736 1.48713E+01
 -1       737 1.60972E+01
 -1       738 1.76902E+01
 -1       739 9.01140E+00
 -1       740 1.14972E+01
 -1       741 1.46883E+01
 -1       742 1.52208E+01
 -1       743 8.65162E+00
 -1       744 6.09417E+00
 -1       745 9.19878E+00
 -1       746 6.34861E+00
 -1       747 5.87335E+00
 -1       748 8.60327E+00
 -1       749 8.34883E+00
 -1       750 6.57831E+00
 -1       751 6.35750E+00
 -1       752 8.30608E+00
 -1       753 8.31496E+00
 -1       754 1.09354E+01
 -1       755 8.65186E+00
 -1       756 8.42216E+00
 -1       757 1.07165E+01
 -1       758 8.42216E+00
 -1       759 9.20132E+00
 -1       760 7.47356E+00
 -1       761 6.85574E+00
 -1       762 8.92040E+00
 -1       763 1.09800E+01
 -1       764 1.51600E+01
 -1       765 1.00099E+01
 -1       766 1.18060E+01
 -1       767 1.79062E+01
 -1       768 1.21471E+01
 -1       769 1.63883E+01
 -1       770 1.41795E+01
 -1       771 1.64402E+01
 -1       772 1.53350E+01
 -1       773 1.58650E+01
 -1       774 1.67411E+01
 -1       775 1.44452E+01
 -1       776 1.51222E+01
 -1       777 1.90995E+01
 -1       778 1.05271E+01
 -1       779 1.12116E+01
 -1       780 7.48960E+00
 -1       781 1.02761E+01
 -1       782 1.05340E+01
 -1       783 1.05934E+01
 -1       784 7.41985E+00
 -1       785 9.93943E+00
 -1       786 1.72571E+01
 -1       787 1.91115E+01
 -1       788 1.06428E+01
 -1       789 1.53712E+01
 -1       790 1.75413E+01
 -1       791 1.54376E+01
 -1       792 1.74133E+01
 -1       793 8.53999E+00
 -1       794 2.02772E+01
 -1       795 9.81882E+00
 -1       796 1.20446E+01
 -1       797 1.09691E+01
 -1       798 1.05934E+01
 -1       799 2.16063E+01
 -1       800 2.12503E+01
 -1       801 2.16404E+01
 -1       802 2.16354E+01
 -1       803 2.16063E+01
 -1       804 2.12946E+01
 -1       805 2.16063E+01
 -1       806 2.11235E+01
 -1       807 2.12503E+01
 -1       808 2.12503E+01
 -1       809 2.16404E+01
 -1       810 2.16404E+01
 -1       811 2.09912E+01
 -1       812 2.16354E+01
 -1       813 2.16354E+01
 -1       814 2.09743E+01
 -1       815 1.69991E+01
 -1       816 1.88689E+01
 -1       817 1.89957E+01
 -1       818 1.72571E+01
 -1       819 1.72571E+01
 -1       820 1.69991E+01
 -1       821 1.53531E+01
 -1       822 1.62961E+01
 -1       823 1.62961E+01
 -1       824 1.81770E+01
 -1       825 1.53712E+01
 -1       826 1.53531E+01
 -1       827 1.84888E+01
 -1       828 1.67723E+01
 -1       829 1.80428E+01
 -1       830 1.80428E+01
 -1       831 1.90995E+01
 -1       832 1.90995E+01
 -1       833 1.67723E+01
 -1       834 1.64402E+01
 -1       835 1.77698E+01
 -1       836 1.77698E+01
 -1       837 1.83439E+01
 -1       838 1.59389E+01
 -1       839 1.59389E+01
 -1       840 1.83439E+01
 -1       841 1.71168E+01
 -1       842 1.83788E+01
 -1       843 1.83788E+01
 -1       844 1.91115E+01
 -1       845 1.91115E+01
 -1       846 1.71168E+01
 -1       847 1.57964E+01
 -1       848 1.66455E+01
 -1       849 1.66455E+01
 -1       850 1.88777E+01
 -1       851 1.74133E+01
 -1       852 1.57964E+01
 -1       853 1.95269E+01
 -1       854 1.80711E+01
 -1       855 1.87357E+01
 -1       856 1.87357E+01
 -1       857 2.02772E+01
 -1       858 2.02772E+01
 -1       859 1.80711E+01
 -1       860 1.69648E+01
 -1       861 1.83328E+01
 -1       862 1.83328E+01
 -1       863 1.89272E+01
 -1       864 1.75413E+01
 -1       865 1.69648E+01
 -1       866 1.95883E+01
 -1       867 1.24642E+01
 -1       868 9.23971E+00
 -1       869 1.31639E+01
 -1       870 1.51083E+01
 -1       871 1.47929E+01
 -1       872 1.42165E+01
 -1       873 1.02923E+01
 -1       874 1.23865E+01
 -1       875 1.48524E+01
 -1       876 1.40281E+01
 -1       877 1.24111E+01
 -1       878 1.06181E+01
 -1       879 1.34836E+01
 -1       880 1.48133E+01
 -1       881 1.38259E+01
 -1       882 1.08693E+01
 -1       883 1.33246E+01
 -1       884 1.25769E+01
 -1       885 8.61934E+00
 -1       886 1.13774E+01
 -1       887 9.19445E+00
 -1       888 1.31520E+01
 -1       889 1.41131E+01
 -1       890 1.25950E+01
 -1       891 1.29022E+01
 -1       892 9.87913E+00
 -1       893 1.28419E+01
 -1       894 1.56181E+01
 -1       895 1.42343E+01
 -1       896 1.39763E+01
 -1       897 1.60893E+01
 -1       898 1.48711E+01
 -1       899 1.25440E+01
 -1       900 1.59293E+01
 -1       901 1.55780E+01
 -1       902 1.35834E+01
 -1       903 1.63317E+01
 -1       904 1.05849E+01
 -1       905 9.35058E+00
 -1       906 9.00836E+00
 -1       907 8.88285E+00
 -1       908 1.04016E+01
 -1       909 1.04594E+01
 -1       910 1.10903E+01
 -1       911 9.22933E+00
 -1       912 9.01180E+00
 -1       913 1.04050E+01
 -1       914 7.45473E+00
 -1       915 8.97692E+00
 -1       916 1.05637E+01
 -1       917 1.04348E+01
 -1       918 1.05934E+01
 -1       919 1.04348E+01
 -1       920 9.53699E+00
 -1       921 9.56670E+00
 -1       922 8.67964E+00
 -1       923 1.02367E+01
 -1       924 1.13190E+01
 -1       925 1.48524E+01
 -1       926 1.66374E+01
 -1       927 1.71262E+01
 -1       928 1.99619E+01
 -1       929 1.69931E+01
 -1       930 1.39005E+01
 -1       931 1.80742E+01
 -1       932 1.56069E+01
 -1       933 1.55152E+01
 -1       934 1.77803E+01
 -1       935 1.28483E+01
 -1       936 1.11384E+01
 -1       937 8.55085E+00
 -1       938 8.56364E+00
 -1       939 6.40754E+00
 -1       940 9.02780E+00
 -1       941 7.36563E+00
 -1       942 8.55010E+00
 -1       943 1.66374E+01
 -1       944 1.62648E+01
 -1       945 1.52464E+01
 -1       946 1.50234E+01
 -1       947 1.74609E+01
 -1       948 1.52106E+01
 -1       949 1.67589E+01
 -1       950 7.36620E+00
 -1       951 2.50958E+01
 -1       952 1.32540E+01
 -1       953 1.55152E+01
 -1       954 8.38772E+00
 -1       955 1.15628E+01
 -1       956 2.17646E+01
 -1       957 2.17441E+01
 -1       958 2.15330E+01
 -1       959 2.14187E+01
 -1       960 2.17441E+01
 -1       961 2.09761E+01
 -1       962 2.17441E+01
 -1       963 2.14508E+01
 -1       964 2.17646E+01
 -1       965 2.17646E+01
 -1       966 2.15330E+01
 -1       967 2.15330E+01
 -1       968 2.09103E+01
 -1       969 2.14187E+01
 -1       970 2.14187E+01
 -1       971 2.09300E+01
 -1       972 1.91411E+01
 -1       973 1.80742E+01
 -1       974 1.99091E+01
 -1       975 1.73558E+01
 -1       976 1.66374E+01
 -1       977 1.73558E+01
 -1       978 1.66374E+01
 -1       979 1.62386E+01
 -1       980 1.66374E+01
 -1       981 1.54316E+01
 -1       982 1.80802E+01
 -1       983 1.58304E+01
 -1       984 1.83940E+01
 -1       985 1.85699E+01
 -1       986 1.66936E+01
 -1       987 1.85699E+01
 -1       988 1.77803E+01
 -1       989 1.77803E+01
 -1       990 1.66936E+01
 -1       991 1.73867E+01
 -1       992 1.69931E+01
 -1       993 1.73867E+01
 -1       994 1.61019E+01
 -1       995 1.84773E+01
 -1       996 1.61019E+01
 -1       997 1.84773E+01
 -1       998 1.84670E+01
 -1       999 1.58900E+01
 -1      1000 1.84670E+01
 -1      1001 1.62648E+01
 -1      1002 1.66955E+01
 -1      1003 1.58900E+01
 -1      1004 1.71262E+01
 -1      1005 1.71262E+01
 -1      1006 1.66955E+01
 -1      1007 1.69425E+01
 -1      1008 1.85233E+01
 -1      1009 1.69425E+01
 -1      1010 1.91459E+01
 -1      1011 1.78325E+01
 -1      1012 1.94981E+01
 -1      1013 1.78325E+01
 -1      1014 2.50958E+01
 -1      1015 2.50958E+01
 -1      1016 1.94981E+01
 -1      1017 2.25289E+01
 -1      1018 1.99619E+01
 -1      1019 2.25289E+01
 -1      1020 1.87114E+01
 -1      1021 1.89511E+01
 -1      1022 1.87114E+01
 -1      1023 1.94398E+01
 -1      1024 1.20015E+01
 -1      1025 1.03098E+01
 -1      1026 1.49457E+01
 -1      1027 1.25125E+01
 -1      1028 7.87667E+00
 -1      1029 1.25125E+01
 -1      1030 1.41387E+01
 -1      1031 1.39138E+01
 -1      1032 1.43445E+01
 -1      1033 1.61863E+01
 -1      1034 1.60026E+01
 -1      1035 1.34046E+01
 -1      1036 1.42560E+01
 -1      1037 7.95815E+00
 -1      1038 1.36641E+01
 -1      1039 1.68229E+01
 -1      1040 1.77386E+01
 -1      1041 1.64880E+01
 -1      1042 1.14407E+01
 -1      1043 1.53143E+01
 -1      1044 1.49207E+01
 -1      1045 1.19933E+01
 -1      1046 1.40658E+01
 -1      1047 1.31745E+01
 -1      1048 1.12253E+01
 -1      1049 1.35773E+01
 -1      1050 1.09021E+01
 -1      1051 1.44619E+01
 -1      1052 1.46063E+01
 -1      1053 1.38879E+01
 -1      1054 1.66424E+01
 -1      1055 1.54266E+01
 -1      1056 1.65133E+01
 -1      1057 1.61829E+01
 -1      1058 1.55152E+01
 -1      1059 1.58900E+01
 -1      1060 1.64880E+01
 -1      1061 1.40473E+01
 -1      1062 1.06996E+01
 -1      1063 9.84460E+00
 -1      1064 1.07060E+01
 -1      1065 8.55724E+00
 -1      1066 1.19050E+01
 -1      1067 8.46928E+00
 -1      1068 9.76304E+00
 -1      1069 7.48559E+00
 -1      1070 7.47920E+00
 -1      1071 6.88659E+00
 -1      1072 7.95824E+00
 -1      1073 8.79572E+00
 -1      1074 7.71767E+00
 -1      1075 1.00632E+01
 -1      1076 1.02953E+01
 -1      1077 8.19700E+00
 -1      1078 6.88687E+00
 -1      1079 7.47882E+00
 -1      1080 7.95787E+00
 -1      1081 1.26463E+01
 -1      1082 1.22715E+01
 -1      1083 4.56904E+00
 -1      1084 8.47536E+00
 -1      1085 5.09969E+00
 -1      1086 7.55484E+00
 -1      1087 1.07007E+01
 -1      1088 5.72953E+00
 -1      1089 7.97287E+00
 -1      1090 1.43273E+01
 -1      1091 1.11224E+01
 -1      1092 7.31440E+00
 -1      1093 5.70733E+00
 -1      1094 7.18110E+00
 -1      1095 6.15364E+00
 -1      1096 9.02780E+00
 -1      1097 1.05340E+01
 -1      1098 7.12428E+00
 -1      1099 6.67268E+00
 -1      1100 1.18281E+01
 -1      1101 1.06577E+01
 -1      1102 1.55152E+01
 -1      1103 1.11224E+01
 -1      1104 1.52464E+01
 -1      1105 1.28483E+01
 -1      1106 8.04040E+00
 -1      1107 1.39005E+01
 -1      1108 1.35482E+01
 -1      1109 1.30328E+01
 -1      1110 1.07007E+01
 -1      1111 6.54819E+00
 -1      1112 1.29003E+01
 -1      1113 9.99801E+00
 -1      1114 1.40994E+01
 -1      1115 1.40593E+01
 -1      1116 8.47536E+00
 -1      1117 1.14028E+01
 -1      1118 6.10801E+00
 -1      1119 7.97287E+00
 -1      1120 1.96722E+01
 -1      1121 5.20867E+00
 -1      1122 3.39065E+00
 -1      1123 7.13234E+00
 -1      1124 8.35992E+00
 -1      1125 7.34223E+00
 -1      1126 5.09969E+00
 -1      1127 7.16205E+00
 -1      1128 8.68024E+00
 -1      1129 6.86357E+00
 -1      1130 7.23279E+00
 -1      1131 1.52464E+01
 -1      1132 9.58936E+00
 -1      1133 7.48660E+00
 -1      1134 1.52464E+01
 -1      1135 1.05340E+01
 -1      1136 1.02761E+01
 -1      1137 6.28249E+00
 -1      1138 3.57126E+00
 -1      1139 6.94356E+00
 -1      1140 9.99801E+00
 -1      1141 8.36730E+00
 -1      1142 7.89379E+00
 -1      1143 9.02780E+00
 -1      1144 9.78749E+00
 -1      1145 1.05340E+01
 -1      1146 1.10310E+01
 -1      1147 1.21890E+01
 -1      1148 8.61588E+00
 -1      1149 1.07542E+01
 -1      1150 7.45791E+00
 -1      1151 8.92610E+00
 -1      1152 1.03757E+01
 -1      1153 8.94092E+00
 -1      1154 1.06859E+01
 -1      1155 1.25140E+01
 -1      1156 1.33331E+01
 -1      1157 1.33331E+01
 -1      1158 1.91115E+01
 -1      1159 1.60059E+01
 -1      1160 1.60059E+01
 -1      1161 1.02276E+01
 -1      1162 1.60527E+01
 -1      1163 1.60527E+01
 -1      1164 2.02772E+01
 -1      1165 1.71883E+01
 -1      1166 1.71883E+01
 -1      1167 1.29638E+01
 -1      1168 1.48846E+01
 -1      1169 9.10628E+00
 -1      1170 1.48846E+01
 -1      1171 1.13482E+01
 -1      1172 1.13482E+01
 -1      1173 7.18110E+00
 -1      1174 6.86464E+00
 -1      1175 6.86464E+00
 -1      1176 1.10317E+01
 -1      1177 1.03559E+01
 -1      1178 8.63799E+00
 -1      1179 7.87150E+00
 -1      1180 8.13102E+00
 -1      1181 6.41316E+00
 -1      1182 8.89752E+00
 -1      1183 9.02780E+00
 -1      1184 8.19700E+00
 -1      1185 7.71767E+00
 -1      1186 9.03347E+00
 -1      1187 9.86427E+00
 -1      1188 9.86427E+00
 -1      1189 9.32973E+00
 -1      1190 1.10896E+01
 -1      1191 8.26502E+00
 -1      1192 9.54761E+00
 -1      1193 9.83977E+00
 -1      1194 7.84476E+00
 -1      1195 9.12735E+00
 -1      1196 7.55260E+00
 -1      1197 1.34968E+01
 -1      1198 1.31080E+01
 -1      1199 1.41897E+01
 -1      1200 1.41897E+01
 -1      1201 1.72571E+01
 -1      1202 1.54026E+01
 -1      1203 1.54026E+01
 -1      1204 1.23353E+01
 -1      1205 9.23669E+00
 -1      1206 1.19493E+01
 -1      1207 1.11879E+01
 -1      1208 8.42133E+00
 -1      1209 1.11339E+01
 -1      1210 9.18266E+00
 -1      1211 1.35362E+01
 -1      1212 1.51109E+01
 -1      1213 1.60661E+01
 -1      1214 1.05029E+01
 -1      1215 1.20776E+01
 -1      1216 1.08838E+01
 -1      1217 1.20194E+01
 -1      1218 9.39952E+00
 -1      1219 9.02780E+00
 -1      1220 7.71767E+00
 -1      1221 9.02780E+00
 -1      1222 1.02176E+01
 -1      1223 6.92137E+00
 -1      1224 6.64455E+00
 -1      1225 7.88756E+00
 -1      1226 1.11838E+01
 -1      1227 7.07420E+00
 -1      1228 1.57267E+01
 -1      1229 1.39135E+01
 -1      1230 9.86427E+00
 -1      1231 1.43300E+01
 -1      1232 1.12626E+01
 -1      1233 1.43300E+01
 -1      1234 7.84000E+00
 -1      1235 1.06118E+01
 -1      1236 1.13276E+01
 -1      1237 8.45782E+00
 -1      1238 1.12297E+01
 -1      1239 7.74210E+00
 -1      1240 1.11894E+01
 -1      1241 7.02233E+00
 -1      1242 6.70588E+00
 -1      1243 1.19295E+01
 -1      1244 1.57267E+01
 -1      1245 1.71262E+01
 -1      1246 1.39135E+01
 -1      1247 9.03347E+00
 -1      1248 1.07007E+01
 -1      1249 9.86427E+00
 -1      1250 1.21803E+01
 -1      1251 8.69276E+00
 -1      1252 9.92530E+00
 -1      1253 8.35682E+00
 -1      1254 1.18444E+01
 -1      1255 1.05227E+01
 -1      1256 8.29788E+00
 -1      1257 1.61863E+01
 -1      1258 1.61863E+01
 -1      1259 1.47868E+01
 -1      1260 1.43186E+01
 -1      1261 1.00940E+01
 -1      1262 9.58936E+00
 -1      1263 1.03559E+01
 -1      1264 7.87150E+00
 -1      1265 1.06992E+01
 -1      1266 1.46878E+01
 -1      1267 1.16545E+01
 -1      1268 9.04442E+00
 -1      1269 1.48227E+01
 -1      1270 1.17172E+01
 -1      1271 1.30275E+01
 -1      1272 7.24920E+00
 -1      1273 9.92195E+00
 -1      1274 7.32277E+00
 -1      1275 7.06325E+00
 -1      1276 5.88618E+00
 -1      1277 5.62666E+00
 -1      1278 6.53628E+00
 -1      1279 1.31080E+01
 -1      1280 8.94092E+00
 -1      1281 8.78216E+00
 -1      1282 8.05965E+00
 -1      1283 1.15472E+01
 -1      1284 1.16260E+01
 -1      1285 1.08647E+01
 -1      1286 1.11409E+01
 -1      1287 8.75158E+00
 -1      1288 9.51291E+00
 -1      1289 9.01180E+00
 -1      1290 1.08282E+01
 -1      1291 9.30598E+00
 -1      1292 9.30598E+00
 -1      1293 1.11224E+01
 -1      1294 1.08282E+01
 -1      1295 9.91447E+00
 -1      1296 6.42691E+00
 -1      1297 7.65944E+00
 -1      1298 5.94172E+00
 -1      1299 5.35252E+00
 -1      1300 3.97985E+00
 -1      1301 4.07015E+00
 -1      1302 3.48095E+00
 -1      1303 5.44283E+00
 -1      1304 1.05958E+01
 -1      1305 8.80063E+00
 -1      1306 8.77536E+00
 -1      1307 6.12542E+00
 -1      1308 7.35796E+00
 -1      1309 1.12626E+01
 -1      1310 1.04961E+01
 -1      1311 1.90995E+01
 -1      1312 1.60661E+01
 -1      1313 1.46878E+01
 -1      1314 1.02367E+01
 -1      1315 1.23167E+01
 -1      1316 1.11811E+01
 -1      1317 6.84202E+00
 -1      1318 7.95471E+00
 -1      1319 9.58805E+00
 -1      1320 6.02331E+00
 -1      1321 7.13600E+00
 -1      1322 4.38996E+00
 -1      1323 1.29190E+01
 -1      1324 1.48702E+01
 -1      1325 1.21036E+01
 -1      1326 1.07086E+01
 -1      1327 1.08897E+01
 -1      1328 1.53755E+01
 -1      1329 1.51865E+01
 -1      1330 1.51944E+01
 -1      1331 8.77883E+00
 -1      1332 7.04472E+00
 -1      1333 6.78753E+00
 -1      1334 5.15418E+00
 -1      1335 4.33547E+00
 -1      1336 5.13819E+00
 -1      1337 6.44421E+00
 -1      1338 5.87507E+00
 -1      1339 5.86555E+00
 -1      1340 7.17157E+00
 -1      1341 6.43469E+00
 -1      1342 1.31080E+01
 -1      1343 1.35192E+01
 -1      1344 1.75937E+01
 -1      1345 1.17092E+01
 -1      1346 8.56576E+00
 -1      1347 6.53628E+00
 -1      1348 5.88618E+00
 -1      1349 5.09969E+00
 -1      1350 1.32970E+01
 -1      1351 1.75937E+01
 -1      1352 8.68182E+00
 -1      1353 8.19671E+00
 -1      1354 1.29450E+01
 -1      1355 1.11318E+01
 -1      1356 1.17356E+01
 -1      1357 5.98125E+00
 -1      1358 9.86427E+00
 -1      1359 8.75158E+00
 -1      1360 6.29953E+00
 -1      1361 7.06374E+00
 -1      1362 1.11670E+01
 -1      1363 1.11670E+01
 -1      1364 6.74612E+00
 -1      1365 1.12296E+01
 -1      1366 6.90382E+00
 -1      1367 7.06374E+00
 -1      1368 8.17110E+00
 -1      1369 6.20704E+00
 -1      1370 6.20704E+00
 -1      1371 1.20876E+01
 -1      1372 9.10921E+00
 -1      1373 1.14028E+01
 -1      1374 1.55152E+01
 -1      1375 1.51109E+01
 -1      1376 1.10457E+01
 -1      1377 1.11859E+01
 -1      1378 8.60572E+00
 -1      1379 1.28913E+01
 -1      1380 8.40778E+00
 -1      1381 5.36134E+00
 -1      1382 7.84570E+00
 -1      1383 8.70242E+00
 -1      1384 5.42577E+00
 -1      1385 6.21806E+00
 -1      1386 1.47868E+01
 -1      1387 8.46579E+00
 -1      1388 6.74793E+00
 -1      1389 7.00746E+00
 -1      1390 9.12448E+00
 -1      1391 7.36797E+00
 -1      1392 6.63109E+00
 -1      1393 7.35845E+00
 -1      1394 1.77386E+01
 -1      1395 1.98171E+01
 -1      1396 8.81499E+00
 -1      1397 1.07008E+01
 -1      1398 1.21735E+01
 -1      1399 8.88718E+00
 -1      1400 1.07730E+01
 -1      1401 7.41441E+00
 -1      1402 8.97398E+00
 -1      1403 1.09380E+01
 -1      1404 1.00813E+01
 -1      1405 1.30083E+01
 -1      1406 1.01386E+01
 -1      1407 1.62386E+01
 -1      1408 1.52689E+01
 -1      1409 1.33177E+01
 -1      1410 9.54761E+00
 -1      1411 1.16775E+01
 -1      1412 1.08208E+01
 -1      1413 8.94926E+00
 -1      1414 8.85896E+00
 -1      1415 8.13176E+00
 -1      1416 9.35998E+00
 -1      1417 7.93333E+00
 -1      1418 1.04633E+01
 -1      1419 1.24725E+01
 -1      1420 1.12893E+01
 -1      1421 1.52464E+01
 -1      1422 4.63930E+00
 -1      1423 5.37618E+00
 -1      1424 1.23799E+01
 -1      1425 1.49822E+01
 -1      1426 5.94158E+00
 -1      1427 8.42594E+00
 -1      1428 6.00601E+00
 -1      1429 1.04050E+01
 -1      1430 8.88285E+00
 -1      1431 1.31080E+01
 -1      1432 6.72227E+00
 -1      1433 5.99491E+00
 -1      1434 1.21708E+01
 -1      1435 9.40424E+00
 -1      1436 1.34046E+01
 -1      1437 1.52464E+01
 -1      1438 1.47868E+01
 -1      1439 8.47536E+00
 -1      1440 9.58805E+00
 -1      1441 6.84202E+00
 -1      1442 8.79572E+00
 -1      1443 9.63219E+00
 -1      1444 1.21688E+01
 -1      1445 1.51222E+01
 -1      1446 1.71168E+01
 -1      1447 1.40113E+01
 -1      1448 1.40113E+01
 -1      1449 6.31603E+00
 -1      1450 9.44621E+00
 -1      1451 1.09684E+01
 -1      1452 7.64363E+00
 -1      1453 1.01104E+01
 -1      1454 1.21371E+01
 -1      1455 1.12804E+01
 -1      1456 1.40473E+01
 -1      1457 1.33980E+01
 -1      1458 1.05124E+01
 -1      1459 1.00099E+01
 -1      1460 1.06855E+01
 -1      1461 7.79982E+00
 -1      1462 1.11879E+01
 -1      1463 6.27096E+00
 -1      1464 4.83437E+00
 -1      1465 1.53531E+01
 -1      1466 1.53712E+01
 -1      1467 1.47172E+01
 -1      1468 1.47353E+01
 -1      1469 1.47353E+01
 -1      1470 1.23642E+01
 -1      1471 1.19364E+01
 -1      1472 1.11811E+01
 -1      1473 1.58900E+01
 -1      1474 1.53278E+01
 -1      1475 1.53278E+01
 -1      1476 1.55152E+01
 -1      1477 1.58900E+01
 -1      1478 1.04961E+01
 -1      1479 8.78273E+00
 -1      1480 7.74579E+00
 -1      1481 8.20404E+00
 -1      1482 1.31080E+01
 -1      1483 1.34828E+01
 -1      1484 1.35773E+01
 -1      1485 1.14641E+01
 -1      1486 6.95273E+00
 -1      1487 6.16624E+00
 -1      1488 7.60283E+00
 -1      1489 8.97116E+00
 -1      1490 8.79005E+00
 -1      1491 6.12776E+00
 -1      1492 7.05152E+00
 -1      1493 1.53350E+01
 -1      1494 1.47172E+01
 -1      1495 6.22096E+00
 -1      1496 1.45314E+01
 -1      1497 1.68585E+01
 -1      1498 1.38252E+01
 -1      1499 1.37390E+01
 -1      1500 1.67864E+01
 -1      1501 1.62839E+01
 -1      1502 1.40738E+01
 -1      1503 7.54885E+00
 -1      1504 9.51291E+00
 -1      1505 1.14231E+01
 -1      1506 1.19050E+01
 -1      1507 1.29736E+01
 -1      1508 1.19591E+01
 -1      1509 6.28545E+00
 -1      1510 6.22096E+00
 -1      1511 6.91867E+00
 -1      1512 1.52464E+01
 -1      1513 6.97830E+00
 -1      1514 9.26147E+00
 -1      1515 9.11549E+00
 -1      1516 1.03664E+01
 -1      1517 1.26496E+01
 -1      1518 1.18453E+01
 -1      1519 1.23800E+01
 -1      1520 1.11924E+01
 -1      1521 8.38286E+00
 -1      1522 8.91757E+00
 -1      1523 9.57043E+00
 -1      1524 1.50234E+01
 -1      1525 1.54316E+01
 -1      1526 1.44619E+01
 -1      1527 1.44619E+01
 -1      1528 1.77386E+01
 -1      1529 1.99619E+01
 -1      1530 1.98171E+01
 -1      1531 7.20896E+00
 -1      1532 6.24276E+00
 -1      1533 7.27359E+00
 -1      1534 1.54266E+01
 -1      1535 1.54266E+01
 -1      1536 1.56069E+01
 -1      1537 1.54266E+01
 -1      1538 1.54266E+01
 -1      1539 1.52464E+01
 -1      1540 1.01764E+01
 -1      1541 8.29788E+00
 -1      1542 7.05618E+00
 -1      1543 8.68138E+00
 -1      1544 1.17356E+01
 -1      1545 1.04939E+01
 -1      1546 1.41082E+01
 -1      1547 1.41082E+01
 -1      1548 1.63883E+01
 -1      1549 1.46443E+01
 -1      1550 1.46443E+01
 -1      1551 5.45800E+00
 -1      1552 1.33689E+01
 -1      1553 1.33689E+01
 -1      1554 1.27511E+01
 -1      1555 4.88886E+00
 -1      1556 1.62648E+01
 -1      1557 1.34828E+01
 -1      1558 9.59594E+00
 -1      1559 1.74609E+01
 -1      1560 1.87114E+01
 -1      1561 1.64880E+01
 -1      1562 1.64880E+01
 -1      1563 9.81046E+00
 -1      1564 7.00090E+00
 -1      1565 1.24622E+01
 -1      1566 7.12768E+00
 -1      1567 1.23353E+01
 -1      1568 9.80171E+00
 -1      1569 7.94464E+00
 -1      1570 1.66936E+01
 -1      1571 1.65133E+01
 -1      1572 1.16434E+01
 -1      1573 9.19287E+00
 -1      1574 9.19287E+00
 -1      1575 8.68182E+00
 -1      1576 9.99801E+00
 -1      1577 1.06108E+01
 -1      1578 7.66947E+00
 -1      1579 1.08078E+01
 -1      1580 1.30879E+01
 -1      1581 1.13439E+01
 -1      1582 1.75413E+01
 -1      1583 1.69648E+01
 -1      1584 1.52208E+01
 -1      1585 1.52208E+01
 -1      1586 1.58272E+01
 -1      1587 1.32750E+01
 -1      1588 1.58272E+01
 -1      1589 1.40994E+01
 -1      1590 1.69991E+01
 -1      1591 1.51446E+01
 -1      1592 8.10209E+00
 -1      1593 7.49106E+00
 -1      1594 6.74693E+00
 -1      1595 8.97833E+00
 -1      1596 1.50095E+01
 -1      1597 1.10915E+01
 -1      1598 1.68092E+01
 -1      1599 1.37154E+01
 -1      1600 1.64402E+01
 -1      1601 1.37813E+01
 -1      1602 1.37813E+01
 -1      1603 1.49942E+01
 -1      1604 1.49942E+01
 -1      1605 1.43500E+01
 -1      1606 8.56617E+00
 -1      1607 8.84265E+00
 -1      1608 9.51291E+00
 -1      1609 1.49207E+01
 -1      1610 1.49207E+01
 -1      1611 1.69931E+01
 -1      1612 1.55262E+01
 -1      1613 1.55262E+01
 -1      1614 1.34538E+01
 -1      1615 1.67411E+01
 -1      1616 1.51446E+01
 -1      1617 1.40150E+01
 -1      1618 1.07657E+01
 -1      1619 1.32345E+01
 -1      1620 1.27776E+01
 -1      1621 1.64838E+01
 -1      1622 9.31529E+00
 -1      1623 7.04044E+00
 -1      1624 1.17356E+01
 -1      1625 1.35482E+01
 -1      1626 1.66955E+01
 -1      1627 1.06256E+01
 -1      1628 1.05637E+01
 -1      1629 1.69425E+01
 -1      1630 1.67589E+01
 -1      1631 1.60026E+01
 -1      1632 1.60026E+01
 -1      1633 1.41795E+01
 -1      1634 1.24186E+01
 -1      1635 1.24186E+01
 -1      1636 1.36062E+01
 -1      1637 1.36062E+01
 -1      1638 1.54672E+01
 -1      1639 1.54672E+01
 -1      1640 1.22397E+01
 -1      1641 1.16342E+01
 -1      1642 8.82648E+00
 -1      1643 1.00405E+01
 -1      1644 1.06461E+01
 -1      1645 7.79982E+00
 -1      1646 1.61019E+01
 -1      1647 1.46350E+01
 -1      1648 9.90130E+00
 -1      1649 1.25602E+01
 -1      1650 1.11142E+01
 -1      1651 1.94981E+01
 -1      1652 2.23840E+01
 -1      1653 1.56057E+01
 -1      1654 1.22912E+01
 -1      1655 1.59641E+01
 -1      1656 1.35421E+01
 -1      1657 1.57964E+01
 -1      1658 1.74133E+01
 -1      1659 1.52231E+01
 -1      1660 1.52231E+01
 -1      1661 7.34223E+00
 -1      1662 1.09684E+01
 -1      1663 1.59389E+01
 -1      1664 1.44929E+01
 -1      1665 7.12428E+00
 -1      1666 7.79982E+00
 -1      1667 1.08247E+01
 -1      1668 1.04016E+01
 -1      1669 1.25988E+01
 -1      1670 1.20287E+01
 -1      1671 1.05682E+01
 -1      1672 1.05682E+01
 -1      1673 1.20287E+01
 -1      1674 1.54376E+01
 -1      1675 1.44929E+01
 -1      1676 1.14589E+01
 -1      1677 9.44695E+00
 -1      1678 9.63148E+00
 -1      1679 7.85587E+00
 -1      1680 1.12253E+01
 -1      1681 8.78895E+00
 -1      1682 1.52106E+01
 -1      1683 1.46350E+01
 -1      1684 8.76426E+00
 -1      1685 9.25343E+00
 -1      1686 8.40824E+00
 -1      1687 5.68115E+00
 -1      1688 5.74558E+00
 -1      1689 7.30752E+00
 -1      1690 7.07230E+00
 -1      1691 7.83162E+00
 -1      1692 1.04836E+01
 -1      1693 1.02484E+01
 -1      1694 9.72426E+00
 -1      1695 6.14726E+00
 -1      1696 5.91757E+00
 -1      1697 7.30158E+00
 -1      1698 7.09135E+00
 -1      1699 7.53128E+00
 -1      1700 7.13565E+00
 -1      1701 1.60668E+01
 -1      1702 1.21735E+01
 -1      1703 1.04348E+01
 -1      1704 1.04669E+01
 -1      1705 1.06256E+01
 -1      1706 1.05637E+01
 -1      1707 1.04050E+01
 -1      1708 7.18110E+00
 -1      1709 6.64455E+00
 -1      1710 7.59981E+00
 -1      1711 1.40361E+01
 -1      1712 1.33177E+01
 -1      1713 1.73558E+01
 -1      1714 1.53483E+01
 -1      1715 9.01180E+00
 -1      1716 1.05340E+01
 -1      1717 8.75158E+00
 -1      1718 8.35992E+00
 -1      1719 9.57951E+00
 -1      1720 1.41112E+01
 -1      1721 1.16668E+01
 -1      1722 9.23287E+00
 -1      1723 5.28587E+00
 -1      1724 4.74933E+00
 -1      1725 1.77803E+01
 -1      1726 1.65133E+01
 -1      1727 7.74210E+00
 -1      1728 7.00746E+00
 -1      1729 1.67856E+01
 -1      1730 7.74210E+00
 -1      1731 8.41764E+00
 -1      1732 7.47356E+00
 -1      1733 9.57961E+00
 -1      1734 5.71553E+00
 -1      1735 1.18171E+01
 -1      1736 1.29003E+01
 -1      1737 1.66374E+01
 -1      1738 1.33177E+01
 -1      1739 6.60341E+00
 -1      1740 8.32525E+00
 -1      1741 1.05694E+01
 -1      1742 1.22913E+01
 -1      1743 1.12804E+01
 -1      1744 1.18378E+01
 -1      1745 9.51291E+00
 -1      1746 7.03781E+00
 -1      1747 7.65932E+00
 -1      1748 6.67318E+00
 -1      1749 1.06392E+01
 -1      1750 1.02761E+01
 -1      1751 1.04050E+01
 -1      1752 7.96710E+00
 -1      1753 1.34612E+01
 -1      1754 1.39005E+01
 -1      1755 1.06502E+01
 -1      1756 9.53699E+00
 -1      1757 8.91153E+00
 -1      1758 6.74587E+00
 -1      1759 1.59624E+01
 -1      1760 7.54885E+00
 -1      1761 9.27443E+00
 -1      1762 8.78932E+00
 -1      1763 1.01841E+01
 -1      1764 6.29314E+00
 -1      1765 7.46467E+00
 -1      1766 1.00940E+01
 -1      1767 9.20132E+00
 -1      1768 8.64100E+00
 -1      1769 1.02607E+01
 -1      1770 8.16784E+00
 -1      1771 1.52749E+01
 -1      1772 1.67864E+01
 -1      1773 5.46910E+00
 -1      1774 6.63896E+00
 -1      1775 7.26047E+00
 -1      1776 1.32345E+01
 -1      1777 9.63148E+00
 -1      1778 1.04594E+01
 -1      1779 6.13838E+00
 -1      1780 1.01429E+01
 -1      1781 7.55152E+00
 -1      1782 7.54885E+00
 -1      1783 8.67012E+00
 -1      1784 1.80742E+01
 -1      1785 1.60668E+01
 -1      1786 1.24710E+01
 -1      1787 9.70402E+00
 -1      1788 9.66322E+00
 -1      1789 7.03363E+00
 -1      1790 8.40824E+00
 -1      1791 9.69149E+00
 -1      1792 1.36700E+01
 -1      1793 6.49569E+00
 -1      1794 1.40473E+01
 -1      1795 8.67117E+00
 -1      1796 7.74741E+00
 -1      1797 1.32345E+01
 -1      1798 1.16434E+01
 -1      1799 1.66455E+01
 -1      1800 7.31440E+00
 -1      1801 7.41441E+00
 -1      1802 7.07964E+00
 -1      1803 6.38821E+00
 -1      1804 1.06577E+01
 -1      1805 8.80063E+00
 -1      1806 1.53143E+01
 -1      1807 1.65133E+01
 -1      1808 1.52464E+01
 -1      1809 1.26222E+01
 -1      1810 1.09354E+01
 -1      1811 8.38286E+00
 -1      1812 6.52578E+00
 -1      1813 7.03618E+00
 -1      1814 7.67740E+00
 -1      1815 8.17846E+00
 -1      1816 1.08078E+01
 -1      1817 9.07370E+00
 -1      1818 7.27359E+00
 -1      1819 8.78932E+00
 -1      1820 6.38422E+00
 -1      1821 7.54885E+00
 -1      1822 7.13600E+00
 -1      1823 6.16648E+00
 -1      1824 7.06233E+00
 -1      1825 7.06233E+00
 -1      1826 7.20264E+00
 -1      1827 6.81915E+00
 -1      1828 1.05958E+01
 -1      1829 1.05340E+01
 -1      1830 7.06233E+00
 -1      1831 1.62961E+01
 -1      1832 1.18281E+01
 -1      1833 9.59594E+00
 -1      1834 6.51238E+00
 -1      1835 6.51238E+00
 -1      1836 6.58215E+00
 -1      1837 1.67864E+01
 -1      1838 7.22611E+00
 -1      1839 7.07964E+00
 -1      1840 1.47868E+01
 -1      1841 1.10756E+01
 -1      1842 9.85450E+00
 -1      1843 1.83328E+01
 -1      1844 6.52578E+00
 -1      1845 6.10801E+00
 -1      1846 9.54761E+00
 -1      1847 6.71650E+00
 -1      1848 7.22611E+00
 -1      1849 7.48660E+00
 -1      1850 7.72791E+00
 -1      1851 6.74587E+00
 -1      1852 6.94356E+00
 -1      1853 7.35969E+00
 -1      1854 7.35969E+00
 -1      1855 7.22337E+00
 -1      1856 7.13234E+00
 -1      1857 7.18256E+00
 -1      1858 7.18256E+00
 -1      1859 6.96642E+00
 -1      1860 7.58637E+00
 -1      1861 7.78257E+00
 -1      1862 7.72791E+00
 -1      1863 7.96710E+00
 -1      1864 7.80122E+00
 -1      1865 7.69402E+00
 -1      1866 6.78429E+00
 -1      1867 1.30328E+01
 -1      1868 1.04633E+01
 -1      1869 1.62789E+01
 -1      1870 8.95338E+00
 -1      1871 1.29926E+01
 -1      1872 1.51944E+01
 -1      1873 1.04050E+01
 -1      1874 9.41133E+00
 -1      1875 8.97692E+00
 -1      1876 8.84802E+00
 -1      1877 7.56746E+00
 -1      1878 7.89379E+00
 -1      1879 7.90629E+00
 -1      1880 7.90629E+00
 -1      1881 7.95651E+00
 -1      1882 8.90988E+00
 -1      1883 8.84802E+00
 -1      1884 9.12448E+00
 -1      1885 1.77698E+01
 -1      1886 2.23840E+01
 -1      1887 9.08055E+00
 -1      1888 9.25343E+00
 -1      1889 7.97287E+00
 -1      1890 9.90130E+00
 -1      1891 7.67646E+00
 -1      1892 6.89311E+00
 -1      1893 7.51306E+00
 -1      1894 7.22337E+00
 -1      1895 1.53143E+01
 -1      1896 8.34592E+00
 -1      1897 1.38519E+01
 -1      1898 8.34592E+00
 -1      1899 5.68176E+00
 -1      1900 8.03499E+00
 -1      1901 1.05340E+01
 -1      1902 1.05340E+01
 -1      1903 7.56746E+00
 -1      1904 6.23880E+00
 -1      1905 8.05996E+00
 -1      1906 7.24258E+00
 -1      1907 9.05531E+00
 -1      1908 8.76773E+00
 -1      1909 6.74793E+00
 -1      1910 7.34223E+00
 -1      1911 6.63503E+00
 -1      1912 7.05280E+00
 -1      1913 2.09300E+01
 -1      1914 1.92723E+01
 -1      1915 1.84670E+01
 -1      1916 1.79782E+01
 -1      1917 1.16323E+01
 -1      1918 2.14187E+01
 -1      1919 2.09300E+01
 -1      1920 1.84670E+01
 -1      1921 1.89511E+01
 -1      1922 6.73350E+00
 -1      1923 6.51886E+00
 -1      1924 1.54056E+01
 -1      1925 1.26702E+01
 -1      1926 1.28361E+01
 -1      1927 8.32655E+00
 -1      1928 8.25172E+00
 -1      1929 7.85477E+00
 -1      1930 5.27635E+00
 -1      1931 7.85477E+00
 -1      1932 7.99732E+00
 -1      1933 1.82796E+01
 -1      1934 1.54056E+01
 -1      1935 1.66374E+01
 -1      1936 1.18986E+01
 -1      1937 1.73867E+01
 -1      1938 7.55260E+00
 -1      1939 1.52749E+01
 -1      1940 1.26229E+01
 -1      1941 8.32553E+00
 -1      1942 8.71908E+00
 -1      1943 5.26149E+00
 -1      1944 7.50545E+00
 -1      1945 2.09103E+01
 -1      1946 1.90044E+01
 -1      1947 1.77670E+01
 -1      1948 1.83897E+01
 -1      1949 8.00663E+00
 -1      1950 5.68176E+00
 -1      1951 7.32121E+00
 -1      1952 1.05340E+01
 -1      1953 1.88689E+01
 -1      1954 1.72725E+01
 -1      1955 2.11235E+01
 -1      1956 1.73992E+01
 -1      1957 2.11235E+01
 -1      1958 2.12503E+01
 -1      1959 1.73992E+01
 -1      1960 2.09103E+01
 -1      1961 2.15330E+01
 -1      1962 1.83897E+01
 -1      1963 9.53699E+00
 -1      1964 1.05340E+01
 -1      1965 1.85233E+01
 -1      1966 1.93182E+01
 -1      1967 1.83439E+01
 -1      1968 8.40824E+00
 -1      1969 1.85699E+01
 -1      1970 6.78799E+00
 -1      1971 1.90602E+01
 -1      1972 1.66875E+01
 -1      1973 1.83940E+01
 -1      1974 1.78325E+01
 -1      1975 6.08355E+00
 -1      1976 6.24124E+00
 -1      1977 2.09912E+01
 -1      1978 1.73366E+01
 -1      1979 8.22549E+00
 -1      1980 1.81290E+01
 -1      1981 1.73366E+01
 -1      1982 2.14508E+01
 -1      1983 1.95823E+01
 -1      1984 1.75187E+01
 -1      1985 1.78325E+01
 -1      1986 2.16404E+01
 -1      1987 2.14508E+01
 -1      1988 2.09912E+01
 -1      1989 1.88777E+01
 -1      1990 1.89813E+01
 -1      1991 1.66067E+01
 -1      1992 1.89272E+01
 -1      1993 2.09743E+01
 -1      1994 1.72679E+01
 -1      1995 8.81499E+00
 -1      1996 2.09743E+01
 -1      1997 1.72679E+01
 -1      1998 1.84888E+01
 -1      1999 1.78529E+01
 -1      2000 2.17646E+01
 -1      2001 7.70320E+00
 -1      2002 1.83788E+01
 -1      2003 2.16354E+01
 -1      2004 1.93533E+01
 -1      2005 1.71337E+01
 -1      2006 1.28483E+01
 -1      2007 1.34956E+01
 -1      2008 1.14231E+01
 -1      2009 2.07184E+01
 -1      2010 2.12946E+01
 -1      2011 1.75411E+01
 -1      2012 2.09761E+01
 -1      2013 1.79017E+01
 -1      2014 6.96287E+00
 -1      2015 1.40473E+01
 -1      2016 7.31450E+00
 -1      2017 1.90513E+01
 -1      2018 2.50958E+01
 -1      2019 2.23840E+01
 -1      2020 2.23840E+01
 -1      2021 1.92689E+01
 -1      2022 2.12946E+01
 -1      2023 1.78529E+01
 -1      2024 1.91411E+01
 -1      2025 2.09761E+01
 -1      2026 1.79017E+01
 -1      2027 1.97158E+01
 -1      2028 2.16063E+01
 -1      2029 2.17441E+01
 -1      2030 1.84773E+01
 -1      2031 1.68452E+01
 -1      2032 1.67864E+01
 -1      2033 1.52464E+01
 -1      2034 1.96722E+01
 -3
 9999
